EA20119  7.699 12.336 11.733 90.00 90.00 90.00 Sym.group:    0
1.0
    7.698977     0.000000     0.000000
    0.000000    12.336000     0.000000
    0.000000     0.000000    11.733291
   B
   6
Direct
    0.097214     0.499995     0.500006 
    0.685657     0.499910     0.500079 
    0.894132     0.500083     0.499916 
    0.317972     0.500075     0.499887 
    0.502545     0.432355     0.500056 
    0.502480     0.567582     0.500056 
EA2264 11.073 10.273  8.829 90.00 90.00 90.00 Sym.group:    0
1.0
   11.073263     0.000000     0.000000
    0.000000    10.273013     0.000000
    0.000000     0.000000     8.828928
   B
   7
Direct
    0.500093     0.500088     0.438923 
    0.570302     0.629453     0.519443 
    0.349884     0.495891     0.494014 
    0.577011     0.374069     0.517141 
    0.429641     0.370649     0.519376 
    0.422912     0.625936     0.517090 
    0.650156     0.503914     0.494013 
EA20019 11.147 11.416  8.750 90.00 90.00 90.00 Sym.group:    0
1.0
   11.147438     0.000000     0.000000
    0.000000    11.416399     0.000000
    0.000000     0.000000     8.749949
   B
   8
Direct
    0.475781     0.655562     0.499701 
    0.359568     0.578596     0.499487 
    0.349423     0.441916     0.500142 
    0.452691     0.349504     0.500349 
    0.661424     0.488631     0.499988 
    0.591478     0.370002     0.499165 
    0.609663     0.615503     0.500335 
    0.499972     0.500286     0.500833 
EA17606 11.795 10.569  9.501 90.00 90.00 90.00 Sym.group:    0
1.0
   11.795365     0.000000     0.000000
    0.000000    10.568601     0.000000
    0.000000     0.000000     9.501498
   B
   9
Direct
    0.389123     0.387218     0.500416 
    0.623212     0.404319     0.498268 
    0.510062     0.332641     0.499821 
    0.501449     0.498170     0.589825 
    0.498433     0.502600     0.411250 
    0.644096     0.547959     0.498975 
    0.351373     0.526366     0.499412 
    0.556242     0.655365     0.501557 
    0.426010     0.645362     0.500476 
EA19908  8.947 11.789 11.469 90.00 90.00 90.00 Sym.group:    0
1.0
    8.947443     0.000000     0.000000
    0.000000    11.789444     0.000000
    0.000000     0.000000    11.468928
   B
  10
Direct
    0.231480     0.500456     0.499373 
    0.414431     0.500043     0.474733 
    0.499368     0.367902     0.499924 
    0.679900     0.382045     0.494765 
    0.318861     0.382726     0.505295 
    0.320329     0.617665     0.507955 
    0.500747     0.632432     0.499838 
    0.585502     0.500069     0.524883 
    0.768536     0.499522     0.501096 
    0.680846     0.617140     0.492137 
