EA46   11.237 11.237  8.209 90.00 90.00 90.00 Sym.group:    0
1.0
   11.237398     0.000000     0.000000
    0.000000    11.237398     0.000000
    0.000000     0.000000     8.208669
   B
   9
Direct
    0.351956     0.598568     0.499869 
    0.401366     0.351999     0.499883 
    0.648044     0.401432     0.499869 
    0.598634     0.648001     0.499883 
    0.325484     0.465059     0.500106 
    0.465029     0.674529     0.500155 
    0.674516     0.534941     0.500106 
    0.534970     0.325471     0.500155 
    0.500000     0.500000     0.499974 
EA203  10.474 11.051  9.493 90.00 90.00 90.00 Sym.group:    0
1.0
   10.473532     0.000000     0.000000
    0.000000    11.051046     0.000000
    0.000000     0.000000     9.493015
   B
  10
Direct
    0.426814     0.501768     0.611433 
    0.574709     0.507472     0.614526 
    0.332939     0.570743     0.479896 
    0.609963     0.620914     0.460969 
    0.462857     0.647390     0.478525 
    0.334499     0.430414     0.477326 
    0.609497     0.375243     0.475763 
    0.460897     0.349335     0.476816 
    0.686199     0.499056     0.488362 
    0.501625     0.497665     0.436384 
EA446  11.316 12.317  9.071 90.00 90.00 90.00 Sym.group:    0
1.0
   11.315564     0.000000     0.000000
    0.000000    12.316774     0.000000
    0.000000     0.000000     9.071431
   B
  10
Direct
    0.352748     0.611117     0.508768 
    0.430532     0.493560     0.454796 
    0.636712     0.617161     0.510514 
    0.574652     0.502036     0.454011 
    0.493236     0.622950     0.487651 
    0.640062     0.387959     0.517648 
    0.297259     0.496639     0.536384 
    0.704900     0.504462     0.537221 
    0.366590     0.386960     0.519278 
    0.503309     0.377156     0.473728 
EA683  10.440 11.536 10.769 90.00 90.00 90.00 Sym.group:    0
1.0
   10.439708     0.000000     0.000000
    0.000000    11.535762     0.000000
    0.000000     0.000000    10.769071
   B
  10
Direct
    0.649568     0.377142     0.512736 
    0.502091     0.636021     0.489281 
    0.656143     0.620233     0.506511 
    0.725010     0.498471     0.519454 
    0.350947     0.620468     0.514942 
    0.572738     0.501304     0.482044 
    0.421584     0.500600     0.450670 
    0.276076     0.501995     0.525618 
    0.497095     0.360197     0.486082 
    0.348748     0.383568     0.512663 
EA923  10.440 11.536 10.769 90.00 90.00 90.00 Sym.group:    0
1.0
   10.439708     0.000000     0.000000
    0.000000    11.535762     0.000000
    0.000000     0.000000    10.769071
   B
  10
Direct
    0.350432     0.622858     0.512736 
    0.497909     0.363979     0.489281 
    0.343857     0.379767     0.506511 
    0.274990     0.501529     0.519454 
    0.649053     0.379532     0.514942 
    0.427262     0.498696     0.482044 
    0.578416     0.499400     0.450670 
    0.723924     0.498005     0.525618 
    0.502905     0.639803     0.486082 
    0.651252     0.616432     0.512663 
EA1168 10.440 11.536 10.769 90.00 90.00 90.00 Sym.group:    0
1.0
   10.439708     0.000000     0.000000
    0.000000    11.535762     0.000000
    0.000000     0.000000    10.769071
   B
  10
Direct
    0.649568     0.622858     0.512736 
    0.502091     0.363979     0.489281 
    0.656143     0.379767     0.506511 
    0.725010     0.501529     0.519454 
    0.350947     0.379532     0.514942 
    0.572738     0.498696     0.482044 
    0.421584     0.499400     0.450670 
    0.276076     0.498005     0.525618 
    0.497095     0.639803     0.486082 
    0.348748     0.616432     0.512663 
EA1399 10.521 10.720 11.216 90.00 90.00 90.00 Sym.group:    0
1.0
   10.521331     0.000000     0.000000
    0.000000    10.720415     0.000000
    0.000000     0.000000    11.216478
   B
  10
Direct
    0.499897     0.354191     0.495973 
    0.345768     0.629922     0.496183 
    0.272888     0.500005     0.508676 
    0.346146     0.369852     0.496690 
    0.429261     0.500076     0.514457 
    0.499672     0.645454     0.495641 
    0.652008     0.629184     0.509992 
    0.727008     0.500141     0.506535 
    0.652226     0.371111     0.509145 
    0.575127     0.500065     0.466709 
EA1642 11.427 11.204 10.378 90.00 90.00 90.00 Sym.group:    0
1.0
   11.426595     0.000000     0.000000
    0.000000    11.204163     0.000000
    0.000000     0.000000    10.378118
   B
  10
Direct
    0.500542     0.639953     0.507722 
    0.641590     0.375100     0.500860 
    0.707471     0.499745     0.484344 
    0.641941     0.624510     0.501285 
    0.564282     0.500086     0.494473 
    0.361488     0.623259     0.487263 
    0.292633     0.500298     0.486709 
    0.500092     0.360178     0.507937 
    0.360852     0.376908     0.487420 
    0.429110     0.499962     0.541987 
EA1888 11.427 11.204 10.378 90.00 90.00 90.00 Sym.group:    0
1.0
   11.426595     0.000000     0.000000
    0.000000    11.204163     0.000000
    0.000000     0.000000    10.378118
   B
  10
Direct
    0.500542     0.639953     0.507722 
    0.641590     0.375100     0.500860 
    0.707471     0.499745     0.484344 
    0.641941     0.624510     0.501285 
    0.564282     0.500086     0.494473 
    0.361488     0.623259     0.487263 
    0.292633     0.500298     0.486709 
    0.500092     0.360178     0.507937 
    0.360852     0.376908     0.487420 
    0.429110     0.499962     0.541987 
EA2131 11.427 11.204 10.378 90.00 90.00 90.00 Sym.group:    0
1.0
   11.426595     0.000000     0.000000
    0.000000    11.204163     0.000000
    0.000000     0.000000    10.378118
   B
  10
Direct
    0.499458     0.360047     0.507722 
    0.358410     0.624900     0.500860 
    0.292529     0.500255     0.484344 
    0.358059     0.375490     0.501285 
    0.435718     0.499914     0.494473 
    0.638512     0.376741     0.487263 
    0.707367     0.499702     0.486709 
    0.499908     0.639822     0.507937 
    0.639148     0.623092     0.487420 
    0.570890     0.500038     0.541987 
EA2493 11.006 10.707  8.810 90.00 90.00 90.00 Sym.group:    0
1.0
   11.006244     0.000000     0.000000
    0.000000    10.707227     0.000000
    0.000000     0.000000     8.809515
   B
   7
Direct
    0.560048     0.370327     0.480426 
    0.413018     0.383806     0.485913 
    0.439910     0.630034     0.479609 
    0.351341     0.515132     0.502895 
    0.586942     0.615927     0.486533 
    0.648865     0.484309     0.502242 
    0.499876     0.500464     0.562382 
EA2599  9.551 11.100 11.667 90.00 90.00 90.00 Sym.group:    0
1.0
    9.551403     0.000000     0.000000
    0.000000    11.099669     0.000000
    0.000000     0.000000    11.667066
   B
  10
Direct
    0.669023     0.625798     0.503986 
    0.330221     0.624048     0.492163 
    0.248924     0.498946     0.497177 
    0.499525     0.640003     0.502329 
    0.418250     0.500260     0.529337 
    0.670245     0.375530     0.505460 
    0.500985     0.359694     0.502850 
    0.333126     0.375153     0.490239 
    0.578726     0.500154     0.482389 
    0.750976     0.500413     0.494069 
EA2845  9.551 11.100 11.667 90.00 90.00 90.00 Sym.group:    0
1.0
    9.551403     0.000000     0.000000
    0.000000    11.099669     0.000000
    0.000000     0.000000    11.667066
   B
  10
Direct
    0.330977     0.374202     0.503986 
    0.669779     0.375952     0.492163 
    0.751076     0.501054     0.497177 
    0.500475     0.359997     0.502329 
    0.581750     0.499740     0.529337 
    0.329755     0.624470     0.505460 
    0.499015     0.640306     0.502850 
    0.666874     0.624847     0.490239 
    0.421274     0.499846     0.482389 
    0.249024     0.499587     0.494069 
EA3080 12.451 12.299  8.217 90.00 90.00 90.00 Sym.group:    0
1.0
   12.451115     0.000000     0.000000
    0.000000    12.299017     0.000000
    0.000000     0.000000     8.217105
   B
  10
Direct
    0.628384     0.612378     0.514207 
    0.370257     0.611119     0.492131 
    0.308053     0.500145     0.500225 
    0.499372     0.627310     0.499635 
    0.440017     0.500327     0.534832 
    0.630079     0.388061     0.514693 
    0.500452     0.373394     0.499921 
    0.372164     0.386226     0.491590 
    0.559471     0.500067     0.459491 
    0.691751     0.500973     0.493274 
EA3484 10.023 10.200  9.059 90.00 90.00 90.00 Sym.group:    0
1.0
   10.023044     0.000000     0.000000
    0.000000    10.200336     0.000000
    0.000000     0.000000     9.059221
   B
   6
Direct
    0.579526     0.610674     0.514385 
    0.416755     0.608035     0.520306 
    0.499168     0.499915     0.414811 
    0.503299     0.364988     0.518127 
    0.632990     0.460799     0.517680 
    0.368262     0.455589     0.514692 
EA3686 11.474 10.828  8.326 90.00 90.00 90.00 Sym.group:    0
1.0
   11.473824     0.000000     0.000000
    0.000000    10.828323     0.000000
    0.000000     0.000000     8.325738
   B
   7
Direct
    0.646998     0.500822     0.516785 
    0.570601     0.618990     0.472627 
    0.573136     0.383290     0.473439 
    0.430679     0.383869     0.474865 
    0.350674     0.498901     0.514126 
    0.427868     0.613686     0.475439 
    0.500043     0.500443     0.572719 
EA3864 11.204  9.968 10.967 90.00 90.00 90.00 Sym.group:    0
1.0
   11.203982     0.000000     0.000000
    0.000000     9.968448     0.000000
    0.000000     0.000000    10.967321
   B
   8
Direct
    0.657813     0.464427     0.504972 
    0.495478     0.678082     0.495706 
    0.625174     0.615909     0.496287 
    0.502039     0.498905     0.504673 
    0.369969     0.608059     0.503772 
    0.342863     0.455824     0.500840 
    0.433370     0.338740     0.494770 
    0.573293     0.340055     0.498980 
EA4166 10.432 10.842  8.416 90.00 90.00 90.00 Sym.group:    0
1.0
   10.431549     0.000000     0.000000
    0.000000    10.842107     0.000000
    0.000000     0.000000     8.416491
   B
   7
Direct
    0.413755     0.380900     0.520437 
    0.340028     0.507224     0.493878 
    0.428072     0.626801     0.515415 
    0.586260     0.619096     0.520432 
    0.659968     0.492787     0.493885 
    0.571896     0.373222     0.515426 
    0.500021     0.499970     0.440528 
EA4426 10.563 10.767  9.258 90.00 90.00 90.00 Sym.group:    0
1.0
   10.562967     0.000000     0.000000
    0.000000    10.766874     0.000000
    0.000000     0.000000     9.257772
   B
   7
Direct
    0.595719     0.611703     0.510864 
    0.497618     0.499564     0.442624 
    0.442980     0.631785     0.521603 
    0.404594     0.387060     0.511371 
    0.344464     0.520533     0.496235 
    0.657089     0.478980     0.495571 
    0.557537     0.370375     0.521732 
EA4655 10.563 10.767  9.258 90.00 90.00 90.00 Sym.group:    0
1.0
   10.562967     0.000000     0.000000
    0.000000    10.766874     0.000000
    0.000000     0.000000     9.257772
   B
   7
Direct
    0.595719     0.611703     0.510864 
    0.497618     0.499564     0.442624 
    0.442980     0.631785     0.521603 
    0.404594     0.387060     0.511371 
    0.344464     0.520533     0.496235 
    0.657089     0.478980     0.495571 
    0.557537     0.370375     0.521732 
EA4821 11.762 10.591  9.198 90.00 90.00 90.00 Sym.group:    0
1.0
   11.762450     0.000000     0.000000
    0.000000    10.591233     0.000000
    0.000000     0.000000     9.197567
   B
   8
Direct
    0.528861     0.336917     0.508341 
    0.397093     0.373356     0.505611 
    0.638705     0.420900     0.498083 
    0.643603     0.567434     0.496185 
    0.499336     0.499348     0.485930 
    0.344005     0.507018     0.490852 
    0.407596     0.634988     0.506741 
    0.540800     0.660038     0.508257 
EA5089 11.762 10.591  9.198 90.00 90.00 90.00 Sym.group:    0
1.0
   11.762450     0.000000     0.000000
    0.000000    10.591233     0.000000
    0.000000     0.000000     9.197567
   B
   8
Direct
    0.471139     0.663083     0.508341 
    0.602907     0.626644     0.505611 
    0.361295     0.579100     0.498083 
    0.356397     0.432566     0.496185 
    0.500664     0.500652     0.485930 
    0.655995     0.492982     0.490852 
    0.592404     0.365012     0.506741 
    0.459200     0.339962     0.508257 
EA5359 10.601 11.165  9.338 90.00 90.00 90.00 Sym.group:    0
1.0
   10.600803     0.000000     0.000000
    0.000000    11.164866     0.000000
    0.000000     0.000000     9.337650
   B
   7
Direct
    0.435459     0.626722     0.514256 
    0.588471     0.613350     0.510300 
    0.410924     0.385748     0.509667 
    0.564656     0.374014     0.514942 
    0.348034     0.512833     0.504827 
    0.499643     0.499967     0.441972 
    0.652811     0.487365     0.504036 
EA5556 10.395 10.517 11.197 90.00 90.00 90.00 Sym.group:    0
1.0
   10.395395     0.000000     0.000000
    0.000000    10.517099     0.000000
    0.000000     0.000000    11.196725
   B
   8
Direct
    0.537955     0.663094     0.508557 
    0.657591     0.574176     0.499814 
    0.389662     0.631083     0.502216 
    0.327293     0.499114     0.490040 
    0.497899     0.499373     0.492506 
    0.391632     0.368071     0.507126 
    0.540398     0.336590     0.508313 
    0.657569     0.428500     0.491429 
EA5863 11.365 10.391  8.231 90.00 90.00 90.00 Sym.group:    0
1.0
   11.364531     0.000000     0.000000
    0.000000    10.390852     0.000000
    0.000000     0.000000     8.230568
   B
   7
Direct
    0.354633     0.507403     0.486977 
    0.577052     0.621972     0.519874 
    0.565681     0.372529     0.524431 
    0.422661     0.375847     0.520185 
    0.433010     0.629236     0.524437 
    0.647335     0.493932     0.487413 
    0.499628     0.499082     0.436683 
EA6085 10.455  8.838 11.118 90.00 90.00 90.00 Sym.group:    0
1.0
   10.454876     0.000000     0.000000
    0.000000     8.837903     0.000000
    0.000000     0.000000    11.118382
   B
   7
Direct
    0.587883     0.360499     0.518319 
    0.433857     0.348310     0.515004 
    0.339515     0.485263     0.494152 
    0.410574     0.640084     0.515006 
    0.567489     0.651586     0.518452 
    0.501563     0.500701     0.447724 
    0.659118     0.513557     0.491342 
EA6269 11.224 11.110 10.157 90.00 90.00 90.00 Sym.group:    0
1.0
   11.224423     0.000000     0.000000
    0.000000    11.109626     0.000000
    0.000000     0.000000    10.157313
   B
   8
Direct
    0.596779     0.629944     0.492697 
    0.605478     0.377275     0.498866 
    0.469520     0.343153     0.494220 
    0.661635     0.506297     0.505608 
    0.501653     0.498709     0.509934 
    0.355773     0.426053     0.497548 
    0.350600     0.565167     0.505369 
    0.458562     0.653402     0.495759 
EA6581 10.455  8.838 11.118 90.00 90.00 90.00 Sym.group:    0
1.0
   10.454876     0.000000     0.000000
    0.000000     8.837903     0.000000
    0.000000     0.000000    11.118382
   B
   7
Direct
    0.587883     0.360499     0.518319 
    0.433857     0.348310     0.515004 
    0.339515     0.485263     0.494152 
    0.410574     0.640084     0.515006 
    0.567489     0.651586     0.518452 
    0.501563     0.500701     0.447724 
    0.659118     0.513557     0.491342 
EA6793  9.014 10.794 11.003 90.00 90.00 90.00 Sym.group:    0
1.0
    9.013834     0.000000     0.000000
    0.000000    10.793705     0.000000
    0.000000     0.000000    11.003167
   B
   7
Direct
    0.594892     0.614611     0.515214 
    0.688739     0.495533     0.492473 
    0.586921     0.381865     0.520360 
    0.495296     0.498333     0.445754 
    0.415301     0.623618     0.516704 
    0.402932     0.381861     0.512811 
    0.315918     0.504180     0.496684 
EA7100  9.904  9.898  8.246 90.00 90.00 90.00 Sym.group:    0
1.0
    9.904167     0.000000     0.000000
    0.000000     9.897690     0.000000
    0.000000     0.000000     8.246044
   B
   6
Direct
    0.364101     0.471502     0.519407 
    0.430882     0.620494     0.519450 
    0.593233     0.602984     0.519334 
    0.626510     0.443249     0.519509 
    0.485264     0.362001     0.519543 
    0.500010     0.499769     0.402757 
EA7342 11.438 10.438  9.415 90.00 90.00 90.00 Sym.group:    0
1.0
   11.438021     0.000000     0.000000
    0.000000    10.438062     0.000000
    0.000000     0.000000     9.414607
   B
   6
Direct
    0.498784     0.501981     0.409520 
    0.596693     0.423131     0.510168 
    0.597276     0.577453     0.515270 
    0.465298     0.378569     0.531937 
    0.379461     0.498245     0.502753 
    0.462488     0.620621     0.530352 
EA7480 12.304 11.630  8.127 90.00 90.00 90.00 Sym.group:    0
1.0
   12.304013     0.000000     0.000000
    0.000000    11.629628     0.000000
    0.000000     0.000000     8.127240
   B
   8
Direct
    0.489639     0.349623     0.493746 
    0.653892     0.524065     0.504851 
    0.609762     0.400312     0.498855 
    0.496227     0.498724     0.512398 
    0.354872     0.546350     0.502094 
    0.574191     0.626920     0.491590 
    0.444721     0.641790     0.497842 
    0.376697     0.412216     0.498624 
EA7641 10.985 11.273 10.100 90.00 90.00 90.00 Sym.group:    0
1.0
   10.984552     0.000000     0.000000
    0.000000    11.273287     0.000000
    0.000000     0.000000    10.099895
   B
  10
Direct
    0.646590     0.375050     0.505533 
    0.570065     0.500233     0.483741 
    0.648523     0.623738     0.506220 
    0.718040     0.498819     0.490040 
    0.499124     0.362422     0.503759 
    0.353871     0.624389     0.492067 
    0.351506     0.376193     0.494280 
    0.428980     0.500011     0.525461 
    0.501009     0.637828     0.505207 
    0.282293     0.501318     0.493690 
EA7879  9.293 11.631 11.044 90.00 90.00 90.00 Sym.group:    0
1.0
    9.293461     0.000000     0.000000
    0.000000    11.630923     0.000000
    0.000000     0.000000    11.044327
   B
  10
Direct
    0.502104     0.367125     0.511863 
    0.578171     0.500003     0.494353 
    0.676379     0.381046     0.502408 
    0.754892     0.502168     0.480642 
    0.670267     0.620294     0.497265 
    0.328165     0.618439     0.490894 
    0.497868     0.634426     0.512971 
    0.248660     0.497934     0.477494 
    0.331859     0.379486     0.487025 
    0.411634     0.499077     0.545085 
EA8235 10.957 10.295  8.732 90.00 90.00 90.00 Sym.group:    0
1.0
   10.956832     0.000000     0.000000
    0.000000    10.294947     0.000000
    0.000000     0.000000     8.731760
   B
   7
Direct
    0.653657     0.498670     0.504618 
    0.575481     0.622969     0.474818 
    0.424580     0.376988     0.477718 
    0.572328     0.374138     0.483249 
    0.502252     0.500906     0.571075 
    0.428039     0.624399     0.485394 
    0.343663     0.501930     0.503128 
EA8499 10.957 10.295  8.732 90.00 90.00 90.00 Sym.group:    0
1.0
   10.956832     0.000000     0.000000
    0.000000    10.294947     0.000000
    0.000000     0.000000     8.731760
   B
   7
Direct
    0.653657     0.501330     0.504618 
    0.575481     0.377031     0.474818 
    0.424580     0.623012     0.477718 
    0.572328     0.625862     0.483249 
    0.502252     0.499094     0.571075 
    0.428039     0.375601     0.485394 
    0.343663     0.498070     0.503128 
EA8601 10.316 11.570 10.958 90.00 90.00 90.00 Sym.group:    0
1.0
   10.315739     0.000000     0.000000
    0.000000    11.569791     0.000000
    0.000000     0.000000    10.958228
   B
  10
Direct
    0.655039     0.378471     0.499479 
    0.498520     0.364188     0.510468 
    0.729307     0.498149     0.478781 
    0.659856     0.619214     0.498255 
    0.571198     0.499808     0.504198 
    0.502915     0.634789     0.511031 
    0.350314     0.620132     0.486244 
    0.269059     0.502787     0.482385 
    0.344364     0.382974     0.484915 
    0.419428     0.499487     0.544246 
EA8975 11.502 10.504  8.631 90.00 90.00 90.00 Sym.group:    0
1.0
   11.501783     0.000000     0.000000
    0.000000    10.504216     0.000000
    0.000000     0.000000     8.630909
   B
   7
Direct
    0.498477     0.499580     0.566009 
    0.428815     0.378386     0.477327 
    0.429531     0.622438     0.474766 
    0.647625     0.499187     0.513129 
    0.571606     0.620546     0.478974 
    0.570416     0.379486     0.475936 
    0.353529     0.500378     0.513858 
EA9225 11.502 10.504  8.631 90.00 90.00 90.00 Sym.group:    0
1.0
   11.501783     0.000000     0.000000
    0.000000    10.504216     0.000000
    0.000000     0.000000     8.630909
   B
   7
Direct
    0.501523     0.500420     0.566009 
    0.571185     0.621614     0.477327 
    0.570469     0.377562     0.474766 
    0.352375     0.500813     0.513129 
    0.428394     0.379454     0.478974 
    0.429584     0.620514     0.475936 
    0.646471     0.499622     0.513858 
EA9457 10.559 10.774  8.368 90.00 90.00 90.00 Sym.group:    0
1.0
   10.559434     0.000000     0.000000
    0.000000    10.774056     0.000000
    0.000000     0.000000     8.367740
   B
   7
Direct
    0.658892     0.497910     0.507960 
    0.579254     0.620864     0.482298 
    0.423833     0.622179     0.478577 
    0.500317     0.500336     0.562062 
    0.575704     0.377668     0.478513 
    0.420440     0.379213     0.482535 
    0.341561     0.501829     0.508054 
EA9716 10.559 10.774  8.368 90.00 90.00 90.00 Sym.group:    0
1.0
   10.559434     0.000000     0.000000
    0.000000    10.774056     0.000000
    0.000000     0.000000     8.367740
   B
   7
Direct
    0.341108     0.502090     0.507960 
    0.420746     0.379136     0.482298 
    0.576167     0.377821     0.478577 
    0.499683     0.499664     0.562062 
    0.424296     0.622332     0.478513 
    0.579560     0.620787     0.482535 
    0.658439     0.498171     0.508054 
EA9946 11.540 10.774  8.368 90.00 90.00 90.00 Sym.group:    0
1.0
   11.540093     0.000000     0.000000
    0.000000    10.774056     0.000000
    0.000000     0.000000     8.367740
   B
   7
Direct
    0.647487     0.501327     0.512963 
    0.569571     0.617000     0.476722 
    0.499304     0.501071     0.570382 
    0.571984     0.385033     0.476761 
    0.431013     0.380028     0.473850 
    0.426496     0.617715     0.473297 
    0.354144     0.497827     0.516025 
EA10193 11.540 10.774  8.368 90.00 90.00 90.00 Sym.group:    0
1.0
   11.540093     0.000000     0.000000
    0.000000    10.774056     0.000000
    0.000000     0.000000     8.367740
   B
   7
Direct
    0.352513     0.498673     0.512963 
    0.430429     0.383000     0.476722 
    0.500696     0.498929     0.570382 
    0.428016     0.614967     0.476761 
    0.568987     0.619972     0.473850 
    0.573504     0.382285     0.473297 
    0.645856     0.502173     0.516025 
EA10416 10.960 11.110  8.325 90.00 90.00 90.00 Sym.group:    0
1.0
   10.959966     0.000000     0.000000
    0.000000    11.109505     0.000000
    0.000000     0.000000     8.324840
   B
   7
Direct
    0.411335     0.612852     0.512345 
    0.439839     0.372757     0.517662 
    0.649911     0.515683     0.500980 
    0.589264     0.386625     0.512098 
    0.560476     0.627816     0.517467 
    0.349307     0.484138     0.500891 
    0.499868     0.500130     0.438558 
EA10658 11.300 11.046  8.175 90.00 90.00 90.00 Sym.group:    0
1.0
   11.300213     0.000000     0.000000
    0.000000    11.045900     0.000000
    0.000000     0.000000     8.175328
   B
   7
Direct
    0.424109     0.617869     0.519451 
    0.500349     0.498971     0.443016 
    0.575706     0.380713     0.517225 
    0.429516     0.378432     0.521463 
    0.354191     0.497674     0.488641 
    0.646427     0.503420     0.491364 
    0.569702     0.622920     0.518840 
EA10900 11.300 11.046  8.175 90.00 90.00 90.00 Sym.group:    0
1.0
   11.300213     0.000000     0.000000
    0.000000    11.045900     0.000000
    0.000000     0.000000     8.175328
   B
   7
Direct
    0.424109     0.617869     0.519451 
    0.500349     0.498971     0.443016 
    0.575706     0.380713     0.517225 
    0.429516     0.378432     0.521463 
    0.354191     0.497674     0.488641 
    0.646427     0.503420     0.491364 
    0.569702     0.622920     0.518840 
EA11135 11.300 11.046  8.175 90.00 90.00 90.00 Sym.group:    0
1.0
   11.300213     0.000000     0.000000
    0.000000    11.045900     0.000000
    0.000000     0.000000     8.175328
   B
   7
Direct
    0.424109     0.617869     0.519451 
    0.500349     0.498971     0.443016 
    0.575706     0.380713     0.517225 
    0.429516     0.378432     0.521463 
    0.354191     0.497674     0.488641 
    0.646427     0.503420     0.491364 
    0.569702     0.622920     0.518840 
EA11385 11.551 10.504  8.631 90.00 90.00 90.00 Sym.group:    0
1.0
   11.550881     0.000000     0.000000
    0.000000    10.504216     0.000000
    0.000000     0.000000     8.630909
   B
   7
Direct
    0.645195     0.504700     0.510719 
    0.499280     0.500768     0.562796 
    0.434596     0.375224     0.477361 
    0.424788     0.620305     0.478234 
    0.566151     0.625263     0.478934 
    0.574704     0.379899     0.479951 
    0.355285     0.493841     0.512006 
EA11631 11.551 10.504  8.631 90.00 90.00 90.00 Sym.group:    0
1.0
   11.550881     0.000000     0.000000
    0.000000    10.504216     0.000000
    0.000000     0.000000     8.630909
   B
   7
Direct
    0.354805     0.495300     0.510719 
    0.500720     0.499232     0.562796 
    0.565404     0.624776     0.477361 
    0.575212     0.379695     0.478234 
    0.433849     0.374737     0.478934 
    0.425296     0.620101     0.479951 
    0.644715     0.506159     0.512006 
EA11877 11.551 10.504  8.631 90.00 90.00 90.00 Sym.group:    0
1.0
   11.550881     0.000000     0.000000
    0.000000    10.504216     0.000000
    0.000000     0.000000     8.630909
   B
   7
Direct
    0.645195     0.504700     0.510719 
    0.499280     0.500768     0.562796 
    0.434596     0.375224     0.477361 
    0.424788     0.620305     0.478234 
    0.566151     0.625263     0.478934 
    0.574704     0.379899     0.479951 
    0.355285     0.493841     0.512006 
EA12017 11.185 11.496  8.220 90.00 90.00 90.00 Sym.group:    0
1.0
   11.185299     0.000000     0.000000
    0.000000    11.496012     0.000000
    0.000000     0.000000     8.219904
   B
   8
Direct
    0.406640     0.625862     0.498064 
    0.336693     0.509754     0.507246 
    0.389026     0.385597     0.490329 
    0.525916     0.350544     0.494970 
    0.546537     0.646738     0.492372 
    0.643698     0.423011     0.505561 
    0.500072     0.500672     0.514002 
    0.651417     0.557822     0.497456 
EA12282 11.185 11.496  8.220 90.00 90.00 90.00 Sym.group:    0
1.0
   11.185299     0.000000     0.000000
    0.000000    11.496012     0.000000
    0.000000     0.000000     8.219904
   B
   8
Direct
    0.593360     0.374138     0.498064 
    0.663307     0.490246     0.507246 
    0.610974     0.614403     0.490329 
    0.474084     0.649456     0.494970 
    0.453463     0.353262     0.492372 
    0.356302     0.576989     0.505561 
    0.499928     0.499328     0.514002 
    0.348583     0.442178     0.497456 
EA12530 11.185 11.496  8.220 90.00 90.00 90.00 Sym.group:    0
1.0
   11.185299     0.000000     0.000000
    0.000000    11.496012     0.000000
    0.000000     0.000000     8.219904
   B
   8
Direct
    0.406640     0.625862     0.498064 
    0.336693     0.509754     0.507246 
    0.389026     0.385597     0.490329 
    0.525916     0.350544     0.494970 
    0.546537     0.646738     0.492372 
    0.643698     0.423011     0.505561 
    0.500072     0.500672     0.514002 
    0.651417     0.557822     0.497456 
EA12835 11.408  9.849  9.189 90.00 90.00 90.00 Sym.group:    0
1.0
   11.407915     0.000000     0.000000
    0.000000     9.849220     0.000000
    0.000000     0.000000     9.188536
   B
   7
Direct
    0.430448     0.369530     0.519781 
    0.572516     0.370138     0.520803 
    0.351874     0.498764     0.491921 
    0.499821     0.499048     0.437642 
    0.646849     0.502730     0.489493 
    0.428084     0.630216     0.518545 
    0.570408     0.629574     0.521816 
EA13064 10.004  9.893  8.081 90.00 90.00 90.00 Sym.group:    0
1.0
   10.004226     0.000000     0.000000
    0.000000     9.893087     0.000000
    0.000000     0.000000     8.080814
   B
   7
Direct
    0.500002     0.500018     0.433625 
    0.579855     0.365214     0.518752 
    0.664739     0.496960     0.495652 
    0.584900     0.632899     0.518783 
    0.420053     0.634697     0.518774 
    0.335257     0.503213     0.495651 
    0.415196     0.366999     0.518764 
EA13284 10.339 10.845  9.853 90.00 90.00 90.00 Sym.group:    0
1.0
   10.338580     0.000000     0.000000
    0.000000    10.844948     0.000000
    0.000000     0.000000     9.853190
   B
   7
Direct
    0.573871     0.624125     0.483818 
    0.659798     0.504708     0.502085 
    0.583501     0.380768     0.485833 
    0.337242     0.493385     0.505719 
    0.427867     0.380215     0.480796 
    0.415995     0.615295     0.482285 
    0.501726     0.501505     0.559465 
EA13550 10.339 10.845  9.853 90.00 90.00 90.00 Sym.group:    0
1.0
   10.338580     0.000000     0.000000
    0.000000    10.844948     0.000000
    0.000000     0.000000     9.853190
   B
   7
Direct
    0.426129     0.375875     0.483818 
    0.340202     0.495292     0.502085 
    0.416499     0.619232     0.485833 
    0.662758     0.506615     0.505719 
    0.572133     0.619785     0.480796 
    0.584005     0.384705     0.482285 
    0.498274     0.498495     0.559465 
EA13781 11.492  9.857  9.128 90.00 90.00 90.00 Sym.group:    0
1.0
   11.492479     0.000000     0.000000
    0.000000     9.856630     0.000000
    0.000000     0.000000     9.128310
   B
   7
Direct
    0.576830     0.631163     0.487037 
    0.432600     0.638304     0.481281 
    0.423341     0.369805     0.481347 
    0.563297     0.362101     0.488102 
    0.503440     0.502809     0.560198 
    0.355222     0.504860     0.504983 
    0.645269     0.490957     0.497052 
EA14063  9.921 10.241 10.483 90.00 90.00 90.00 Sym.group:    0
1.0
    9.921259     0.000000     0.000000
    0.000000    10.241011     0.000000
    0.000000     0.000000    10.482913
   B
   6
Direct
    0.398243     0.407947     0.488921 
    0.561349     0.381506     0.479424 
    0.638442     0.517841     0.489472 
    0.377565     0.562740     0.484187 
    0.523726     0.631287     0.483399 
    0.500675     0.498678     0.574598 
EA14275 11.592 10.890  8.306 90.00 90.00 90.00 Sym.group:    0
1.0
   11.592366     0.000000     0.000000
    0.000000    10.890238     0.000000
    0.000000     0.000000     8.305857
   B
   7
Direct
    0.456795     0.361288     0.513626 
    0.361923     0.468243     0.504213 
    0.596688     0.393343     0.509340 
    0.637706     0.531080     0.504878 
    0.543106     0.638996     0.512905 
    0.403651     0.607287     0.509896 
    0.500131     0.499763     0.445142 
EA14565 10.500  9.350  9.484 90.00 90.00 90.00 Sym.group:    0
1.0
   10.500296     0.000000     0.000000
    0.000000     9.349836     0.000000
    0.000000     0.000000     9.483772
   B
   6
Direct
    0.501965     0.644567     0.530085 
    0.626082     0.543355     0.506672 
    0.374442     0.547027     0.507510 
    0.499217     0.500765     0.413937 
    0.422310     0.382446     0.520827 
    0.575983     0.381842     0.520969 
EA14808 10.500  9.350  9.484 90.00 90.00 90.00 Sym.group:    0
1.0
   10.500296     0.000000     0.000000
    0.000000     9.349836     0.000000
    0.000000     0.000000     9.483772
   B
   6
Direct
    0.501965     0.355433     0.530085 
    0.626082     0.456645     0.506672 
    0.374442     0.452973     0.507510 
    0.499217     0.499235     0.413937 
    0.422310     0.617554     0.520827 
    0.575983     0.618158     0.520969 
EA14989 10.958 10.894  8.066 90.00 90.00 90.00 Sym.group:    0
1.0
   10.958186     0.000000     0.000000
    0.000000    10.894444     0.000000
    0.000000     0.000000     8.065526
   B
   7
Direct
    0.510070     0.355506     0.484820 
    0.632608     0.436807     0.488938 
    0.378325     0.419231     0.493367 
    0.621608     0.580920     0.492680 
    0.500210     0.499980     0.566359 
    0.489788     0.644535     0.485454 
    0.367390     0.563021     0.488384 
EA15210  9.034  9.720 10.409 90.00 90.00 90.00 Sym.group:    0
1.0
    9.034193     0.000000     0.000000
    0.000000     9.720382     0.000000
    0.000000     0.000000    10.409070
   B
   7
Direct
    0.498998     0.499735     0.551284 
    0.314176     0.488509     0.510427 
    0.399719     0.628856     0.486801 
    0.686202     0.511785     0.511841 
    0.578985     0.634325     0.476356 
    0.600623     0.373229     0.485719 
    0.421297     0.363560     0.477572 
EA15463 10.809 10.620  9.630 90.00 90.00 90.00 Sym.group:    0
1.0
   10.808694     0.000000     0.000000
    0.000000    10.619685     0.000000
    0.000000     0.000000     9.629877
   B
   7
Direct
    0.581774     0.378999     0.512935 
    0.420449     0.619565     0.514089 
    0.499100     0.500029     0.441422 
    0.570622     0.627104     0.521356 
    0.343218     0.494104     0.493375 
    0.655208     0.504766     0.494003 
    0.429629     0.375433     0.522819 
EA15714 10.809 10.620  9.630 90.00 90.00 90.00 Sym.group:    0
1.0
   10.808694     0.000000     0.000000
    0.000000    10.619685     0.000000
    0.000000     0.000000     9.629877
   B
   7
Direct
    0.581774     0.621001     0.512935 
    0.420449     0.380435     0.514089 
    0.499100     0.499971     0.441422 
    0.570622     0.372896     0.521356 
    0.343218     0.505896     0.493375 
    0.655208     0.495234     0.494003 
    0.429629     0.624567     0.522819 
EA15995  7.699 12.336 11.733 90.00 90.00 90.00 Sym.group:    0
1.0
    7.698977     0.000000     0.000000
    0.000000    12.336000     0.000000
    0.000000     0.000000    11.733291
   B
   6
Direct
    0.930548     0.499955     0.499868 
    0.518990     0.500113     0.500142 
    0.727466     0.499966     0.500051 
    0.151305     0.499903     0.499824 
    0.335856     0.567645     0.500057 
    0.335835     0.432418     0.500057 
EA16269  7.699 12.336 11.733 90.00 90.00 90.00 Sym.group:    0
1.0
    7.698977     0.000000     0.000000
    0.000000    12.336000     0.000000
    0.000000     0.000000    11.733291
   B
   6
Direct
    0.097214     0.499995     0.500006 
    0.685657     0.499910     0.500079 
    0.894132     0.500083     0.499916 
    0.317972     0.500075     0.499887 
    0.502545     0.432355     0.500056 
    0.502480     0.567582     0.500056 
EA16510  7.699 12.336 11.733 90.00 90.00 90.00 Sym.group:    0
1.0
    7.698977     0.000000     0.000000
    0.000000    12.336000     0.000000
    0.000000     0.000000    11.733291
   B
   6
Direct
    0.097214     0.499995     0.500006 
    0.685657     0.499910     0.500079 
    0.894132     0.500083     0.499916 
    0.317972     0.500075     0.499887 
    0.502545     0.432355     0.500056 
    0.502480     0.567582     0.500056 
EA16753  7.699 12.336 11.733 90.00 90.00 90.00 Sym.group:    0
1.0
    7.698977     0.000000     0.000000
    0.000000    12.336000     0.000000
    0.000000     0.000000    11.733291
   B
   6
Direct
    0.097214     0.499995     0.500006 
    0.685657     0.499910     0.500079 
    0.894132     0.500083     0.499916 
    0.317972     0.500075     0.499887 
    0.502545     0.432355     0.500056 
    0.502480     0.567582     0.500056 
EA16998  7.699 12.336 11.733 90.00 90.00 90.00 Sym.group:    0
1.0
    7.698977     0.000000     0.000000
    0.000000    12.336000     0.000000
    0.000000     0.000000    11.733291
   B
   6
Direct
    0.097214     0.499995     0.500006 
    0.685657     0.499910     0.500079 
    0.894132     0.500083     0.499916 
    0.317972     0.500075     0.499887 
    0.502545     0.432355     0.500056 
    0.502480     0.567582     0.500056 
EA17238  7.699 12.336 11.733 90.00 90.00 90.00 Sym.group:    0
1.0
    7.698977     0.000000     0.000000
    0.000000    12.336000     0.000000
    0.000000     0.000000    11.733291
   B
   6
Direct
    0.097214     0.499995     0.500006 
    0.685657     0.499910     0.500079 
    0.894132     0.500083     0.499916 
    0.317972     0.500075     0.499887 
    0.502545     0.432355     0.500056 
    0.502480     0.567582     0.500056 
EA17478  7.699 12.336 11.733 90.00 90.00 90.00 Sym.group:    0
1.0
    7.698977     0.000000     0.000000
    0.000000    12.336000     0.000000
    0.000000     0.000000    11.733291
   B
   6
Direct
    0.097214     0.499995     0.500006 
    0.685657     0.499910     0.500079 
    0.894132     0.500083     0.499916 
    0.317972     0.500075     0.499887 
    0.502545     0.432355     0.500056 
    0.502480     0.567582     0.500056 
EA17720  7.699 12.336 11.733 90.00 90.00 90.00 Sym.group:    0
1.0
    7.698977     0.000000     0.000000
    0.000000    12.336000     0.000000
    0.000000     0.000000    11.733291
   B
   6
Direct
    0.097214     0.499995     0.500006 
    0.685657     0.499910     0.500079 
    0.894132     0.500083     0.499916 
    0.317972     0.500075     0.499887 
    0.502545     0.432355     0.500056 
    0.502480     0.567582     0.500056 
EA17959  7.699 12.336 11.733 90.00 90.00 90.00 Sym.group:    0
1.0
    7.698977     0.000000     0.000000
    0.000000    12.336000     0.000000
    0.000000     0.000000    11.733291
   B
   6
Direct
    0.097214     0.499995     0.500006 
    0.685657     0.499910     0.500079 
    0.894132     0.500083     0.499916 
    0.317972     0.500075     0.499887 
    0.502545     0.432355     0.500056 
    0.502480     0.567582     0.500056 
EA18102 11.907 11.091  7.770 90.00 90.00 90.00 Sym.group:    0
1.0
   11.907120     0.000000     0.000000
    0.000000    11.091181     0.000000
    0.000000     0.000000     7.769665
   B
   8
Direct
    0.581577     0.367139     0.498645 
    0.606387     0.611291     0.497311 
    0.370458     0.584346     0.501626 
    0.449812     0.349288     0.497058 
    0.498704     0.504880     0.502937 
    0.355424     0.445432     0.500999 
    0.654611     0.481432     0.503683 
    0.483027     0.656192     0.497742 
EA18441  7.699 12.336 11.733 90.00 90.00 90.00 Sym.group:    0
1.0
    7.698977     0.000000     0.000000
    0.000000    12.336000     0.000000
    0.000000     0.000000    11.733291
   B
   6
Direct
    0.097214     0.499995     0.500006 
    0.685657     0.499910     0.500079 
    0.894132     0.500083     0.499916 
    0.317972     0.500075     0.499887 
    0.502545     0.432355     0.500056 
    0.502480     0.567582     0.500056 
EA18680  7.699 12.336 11.733 90.00 90.00 90.00 Sym.group:    0
1.0
    7.698977     0.000000     0.000000
    0.000000    12.336000     0.000000
    0.000000     0.000000    11.733291
   B
   6
Direct
    0.097214     0.499995     0.500006 
    0.685657     0.499910     0.500079 
    0.894132     0.500083     0.499916 
    0.317972     0.500075     0.499887 
    0.502545     0.432355     0.500056 
    0.502480     0.567582     0.500056 
EA18922  7.699 12.336 11.733 90.00 90.00 90.00 Sym.group:    0
1.0
    7.698977     0.000000     0.000000
    0.000000    12.336000     0.000000
    0.000000     0.000000    11.733291
   B
   6
Direct
    0.097214     0.499995     0.500006 
    0.685657     0.499910     0.500079 
    0.894132     0.500083     0.499916 
    0.317972     0.500075     0.499887 
    0.502545     0.432355     0.500056 
    0.502480     0.567582     0.500056 
EA19162  7.699 12.336 11.733 90.00 90.00 90.00 Sym.group:    0
1.0
    7.698977     0.000000     0.000000
    0.000000    12.336000     0.000000
    0.000000     0.000000    11.733291
   B
   6
Direct
    0.097214     0.499995     0.500006 
    0.685657     0.499910     0.500079 
    0.894132     0.500083     0.499916 
    0.317972     0.500075     0.499887 
    0.502545     0.432355     0.500056 
    0.502480     0.567582     0.500056 
EA19403  7.699 12.336 11.733 90.00 90.00 90.00 Sym.group:    0
1.0
    7.698977     0.000000     0.000000
    0.000000    12.336000     0.000000
    0.000000     0.000000    11.733291
   B
   6
Direct
    0.097214     0.499995     0.500006 
    0.685657     0.499910     0.500079 
    0.894132     0.500083     0.499916 
    0.317972     0.500075     0.499887 
    0.502545     0.432355     0.500056 
    0.502480     0.567582     0.500056 
EA19644  7.699 12.336 11.733 90.00 90.00 90.00 Sym.group:    0
1.0
    7.698977     0.000000     0.000000
    0.000000    12.336000     0.000000
    0.000000     0.000000    11.733291
   B
   6
Direct
    0.097214     0.499995     0.500006 
    0.685657     0.499910     0.500079 
    0.894132     0.500083     0.499916 
    0.317972     0.500075     0.499887 
    0.502545     0.432355     0.500056 
    0.502480     0.567582     0.500056 
EA19769  9.107 11.011 11.000 90.00 90.00 90.00 Sym.group:    0
1.0
    9.107388     0.000000     0.000000
    0.000000    11.011019     0.000000
    0.000000     0.000000    10.999583
   B
   8
Direct
    0.299753     0.508896     0.501487 
    0.531404     0.343381     0.498344 
    0.365720     0.379447     0.507378 
    0.557877     0.655868     0.505127 
    0.500326     0.500292     0.492900 
    0.383538     0.633225     0.493489 
    0.686476     0.560396     0.505576 
    0.674906     0.418494     0.495700 
EA20020  9.107 11.011 11.000 90.00 90.00 90.00 Sym.group:    0
1.0
    9.107388     0.000000     0.000000
    0.000000    11.011019     0.000000
    0.000000     0.000000    10.999583
   B
   8
Direct
    0.700247     0.491104     0.501487 
    0.468596     0.656619     0.498344 
    0.634280     0.620553     0.507378 
    0.442123     0.344132     0.505127 
    0.499674     0.499708     0.492900 
    0.616462     0.366775     0.493489 
    0.313524     0.439604     0.505576 
    0.325094     0.581506     0.495700 
