EA61260 16.200 15.360 12.809 90.00 90.00 90.00 Sym.group:    0
1.0
   16.200266     0.000000     0.000000
    0.000000    15.359993     0.000000
    0.000000     0.000000    12.808930
   W   B
  16   1
Direct
    0.628065     0.684506     0.486355 
    0.708894     0.423489     0.493818 
    0.495997     0.289493     0.491986 
    0.288133     0.430343     0.498775 
    0.377409     0.688824     0.490157 
    0.644138     0.543203     0.390765 
    0.586022     0.383321     0.600233 
    0.398741     0.378618     0.386648 
    0.372396     0.547217     0.595643 
    0.501449     0.646872     0.385060 
    0.630868     0.542301     0.591913 
    0.595904     0.376330     0.383336 
    0.410665     0.386842     0.602569 
    0.356318     0.548997     0.394725 
    0.503732     0.641292     0.589584 
    0.500168     0.491790     0.465954 
    0.501097     0.496560     0.652479 
EA61249 14.287 14.419 12.546 90.00 90.00 90.00 Sym.group:    0
1.0
   14.286874     0.000000     0.000000
    0.000000    14.418828     0.000000
    0.000000     0.000000    12.546171
   W   B
  16   2
Direct
    0.646746     0.564908     0.391613 
    0.482312     0.658187     0.392318 
    0.341672     0.532257     0.391822 
    0.420722     0.361270     0.390236 
    0.609438     0.383661     0.391419 
    0.739833     0.454000     0.498208 
    0.618676     0.710420     0.500258 
    0.333897     0.677484     0.499131 
    0.278441     0.397730     0.498179 
    0.528933     0.260634     0.496939 
    0.424990     0.361464     0.609433 
    0.610765     0.385654     0.609092 
    0.642869     0.568061     0.609388 
    0.477916     0.654095     0.606399 
    0.343337     0.528442     0.609922 
    0.501310     0.500344     0.503500 
    0.498670     0.500307     0.320099 
    0.499473     0.501084     0.682050 
EA29681 15.803 14.917 14.523 90.00 90.00 90.00 Sym.group:    0
1.0
   15.803018     0.000000     0.000000
    0.000000    14.916984     0.000000
    0.000000     0.000000    14.523287
   W   B
  16   3
Direct
    0.394285     0.380167     0.437039 
    0.450513     0.513362     0.667872 
    0.686817     0.494649     0.549166 
    0.402382     0.549501     0.369268 
    0.470421     0.706479     0.419728 
    0.556576     0.587500     0.338332 
    0.374418     0.599252     0.537646 
    0.620880     0.641598     0.481206 
    0.544486     0.319816     0.407478 
    0.319668     0.430771     0.606523 
    0.276082     0.488343     0.458850 
    0.646362     0.445321     0.392668 
    0.516877     0.496095     0.497025 
    0.459764     0.357529     0.593552 
    0.501778     0.681673     0.583292 
    0.620634     0.344869     0.551890 
    0.575702     0.453828     0.639801 
    0.581488     0.566324     0.622155 
    0.500863     0.442924     0.346511 
EA61181 15.478 14.157 14.299 90.00 90.00 90.00 Sym.group:    0
1.0
   15.478262     0.000000     0.000000
    0.000000    14.157452     0.000000
    0.000000     0.000000    14.298552
   W   B
  16   4
Direct
    0.437488     0.527785     0.328832 
    0.429972     0.683065     0.417758 
    0.373759     0.636784     0.589040 
    0.293215     0.491106     0.579940 
    0.347122     0.406147     0.440204 
    0.679639     0.671051     0.512626 
    0.530898     0.684361     0.559568 
    0.479288     0.358218     0.344473 
    0.496971     0.503769     0.497225 
    0.578721     0.631394     0.381778 
    0.613152     0.538118     0.629348 
    0.693148     0.384258     0.597480 
    0.539439     0.365395     0.629140 
    0.443076     0.511905     0.677898 
    0.601148     0.344035     0.458378 
    0.677087     0.501562     0.464977 
    0.347006     0.560368     0.452602 
    0.575077     0.471405     0.355136 
    0.461154     0.336752     0.499503 
    0.402636     0.392524     0.584092 
EA61115 16.192 14.556 14.243 90.00 90.00 90.00 Sym.group:    0
1.0
   16.191747     0.000000     0.000000
    0.000000    14.556440     0.000000
    0.000000     0.000000    14.242638
   W   B
  16   5
Direct
    0.568673     0.586738     0.362275 
    0.417058     0.508903     0.327340 
    0.473256     0.487212     0.495328 
    0.452312     0.546649     0.679411 
    0.297629     0.595019     0.389877 
    0.434244     0.661199     0.441836 
    0.340712     0.588584     0.566121 
    0.314471     0.442575     0.464068 
    0.567209     0.623333     0.551664 
    0.596025     0.471385     0.634740 
    0.403672     0.308499     0.538944 
    0.557644     0.336994     0.527722 
    0.705016     0.396083     0.502709 
    0.579817     0.414439     0.372129 
    0.429142     0.339352     0.374314 
    0.724601     0.544023     0.560413 
    0.371870     0.440689     0.610263 
    0.446924     0.674924     0.596805 
    0.669464     0.620213     0.450413 
    0.468874     0.401344     0.638958 
    0.681387     0.511844     0.414668 
EA29728 15.844 14.549 14.427 90.00 90.00 90.00 Sym.group:    0
1.0
   15.844277     0.000000     0.000000
    0.000000    14.549263     0.000000
    0.000000     0.000000    14.426641
   W   B
  17   1
Direct
    0.505887     0.434962     0.694781 
    0.612297     0.546340     0.627081 
    0.587494     0.368041     0.562388 
    0.723341     0.460169     0.536490 
    0.446309     0.593050     0.667026 
    0.697074     0.603804     0.470818 
    0.624377     0.439078     0.393623 
    0.450780     0.473083     0.323479 
    0.536222     0.656396     0.522897 
    0.335630     0.500273     0.599065 
    0.368188     0.365708     0.412494 
    0.482369     0.492939     0.499457 
    0.315505     0.539010     0.433433 
    0.514261     0.316499     0.401798 
    0.414137     0.647041     0.384908 
    0.573496     0.588415     0.362127 
    0.420596     0.348530     0.576196 
    0.392034     0.626665     0.531938 
EA61224 15.304 15.227 14.927 90.00 90.00 90.00 Sym.group:    0
1.0
   15.304023     0.000000     0.000000
    0.000000    15.226662     0.000000
    0.000000     0.000000    14.926646
   W   B
  17   2
Direct
    0.619394     0.479528     0.620167 
    0.611465     0.629199     0.529884 
    0.463017     0.686405     0.541345 
    0.622193     0.534241     0.384954 
    0.377659     0.625986     0.406317 
    0.469497     0.465254     0.691483 
    0.684472     0.377676     0.472785 
    0.371388     0.419276     0.383617 
    0.735141     0.516933     0.507234 
    0.376007     0.574540     0.638687 
    0.477519     0.507657     0.503451 
    0.540429     0.349233     0.554266 
    0.371364     0.379261     0.568308 
    0.474321     0.549564     0.312521 
    0.424838     0.280999     0.448289 
    0.540408     0.389515     0.386688 
    0.299768     0.504626     0.498917 
    0.519375     0.588968     0.639174 
    0.521744     0.641142     0.411909 
EA29276 16.067 15.701 14.417 90.00 90.00 90.00 Sym.group:    0
1.0
   16.067205     0.000000     0.000000
    0.000000    15.700965     0.000000
    0.000000     0.000000    14.416657
   W   B
  17   3
Direct
    0.634946     0.505476     0.392992 
    0.570295     0.364659     0.400479 
    0.661441     0.423715     0.664653 
    0.544118     0.360001     0.581710 
    0.613094     0.545635     0.568032 
    0.515569     0.618076     0.364070 
    0.479443     0.484447     0.485614 
    0.314908     0.477751     0.480174 
    0.420321     0.378628     0.346786 
    0.401065     0.631212     0.481465 
    0.312243     0.570003     0.616276 
    0.385673     0.527515     0.322749 
    0.534863     0.710066     0.535766 
    0.387184     0.339619     0.513623 
    0.470535     0.592715     0.638650 
    0.398343     0.441677     0.644340 
    0.644761     0.666228     0.444498 
    0.536949     0.470017     0.678161 
    0.516275     0.478150     0.322981 
    0.657973     0.414410     0.516980 
EA57383 16.441 14.376 15.041 90.00 90.00 90.00 Sym.group:    0
1.0
   16.440533     0.000000     0.000000
    0.000000    14.375820     0.000000
    0.000000     0.000000    15.041166
   W   B
  17   4
Direct
    0.355414     0.509568     0.385061 
    0.368448     0.632953     0.508277 
    0.497883     0.685422     0.562852 
    0.254244     0.517401     0.515974 
    0.523389     0.561128     0.684916 
    0.305891     0.370648     0.508137 
    0.382641     0.510286     0.624960 
    0.506382     0.510070     0.495709 
    0.630994     0.445475     0.617032 
    0.488362     0.508608     0.299726 
    0.429255     0.365354     0.412198 
    0.683773     0.520979     0.468325 
    0.482937     0.655155     0.383662 
    0.599207     0.404571     0.377603 
    0.695541     0.349894     0.492763 
    0.638769     0.621398     0.607355 
    0.546951     0.325385     0.520298 
    0.594602     0.641136     0.464506 
    0.590440     0.566319     0.375379 
    0.499095     0.418193     0.631827 
    0.425785     0.380056     0.563440 
EA61050 17.502 14.157 14.166 90.00 90.00 90.00 Sym.group:    0
1.0
   17.501943     0.000000     0.000000
    0.000000    14.156749     0.000000
    0.000000     0.000000    14.165611
   W   B
  17   5
Direct
    0.345841     0.625419     0.523256 
    0.351452     0.465024     0.628035 
    0.354341     0.368114     0.474370 
    0.351719     0.528920     0.370447 
    0.707779     0.364013     0.487261 
    0.720386     0.509104     0.401914 
    0.707602     0.633926     0.509122 
    0.718979     0.490734     0.596676 
    0.440670     0.606096     0.674965 
    0.445190     0.392727     0.328368 
    0.578337     0.610818     0.424072 
    0.581233     0.558951     0.606219 
    0.579554     0.385814     0.572687 
    0.579311     0.435759     0.399787 
    0.254144     0.493383     0.498932 
    0.456831     0.502353     0.500392 
    0.482298     0.693966     0.546805 
    0.482857     0.537906     0.343637 
    0.481277     0.455632     0.651290 
    0.483183     0.345704     0.471718 
    0.446500     0.633986     0.404946 
    0.450515     0.361650     0.585098 
EA31403 16.235 15.197 14.209 90.00 90.00 90.00 Sym.group:    0
1.0
   16.235327     0.000000     0.000000
    0.000000    15.196911     0.000000
    0.000000     0.000000    14.209132
   W   B
  18   1
Direct
    0.257934     0.531409     0.522511 
    0.399631     0.449756     0.595300 
    0.522948     0.690356     0.583493 
    0.635153     0.574605     0.593974 
    0.703486     0.433087     0.580804 
    0.556455     0.425455     0.651253 
    0.467353     0.303683     0.577246 
    0.293430     0.389581     0.482093 
    0.376153     0.538267     0.410929 
    0.517031     0.547293     0.316174 
    0.603630     0.646335     0.416941 
    0.523884     0.501179     0.484581 
    0.598993     0.342206     0.491172 
    0.679013     0.491092     0.420048 
    0.461081     0.691388     0.419548 
    0.577967     0.397925     0.327018 
    0.438786     0.368787     0.417693 
    0.388161     0.619221     0.567068 
    0.498912     0.558372     0.642153 
EA18564 16.468 15.463 14.495 90.00 90.00 90.00 Sym.group:    0
1.0
   16.467586     0.000000     0.000000
    0.000000    15.463220     0.000000
    0.000000     0.000000    14.495129
   W   B
  18   2
Direct
    0.493269     0.557622     0.648757 
    0.650128     0.598916     0.589473 
    0.524122     0.513409     0.486484 
    0.531331     0.691719     0.544480 
    0.711412     0.466743     0.532269 
    0.645987     0.590553     0.414847 
    0.609378     0.354045     0.531994 
    0.633238     0.434219     0.368431 
    0.511841     0.652315     0.374518 
    0.526724     0.508956     0.288296 
    0.476876     0.367899     0.405760 
    0.390557     0.639813     0.518215 
    0.391469     0.523633     0.377530 
    0.272324     0.539893     0.489190 
    0.318125     0.392434     0.419772 
    0.330586     0.558868     0.647607 
    0.469362     0.294289     0.553092 
    0.390211     0.432816     0.562520 
    0.517827     0.413449     0.620818 
    0.605233     0.468407     0.625946 
EA52676 16.165 14.699 14.971 90.00 90.00 90.00 Sym.group:    0
1.0
   16.165048     0.000000     0.000000
    0.000000    14.699445     0.000000
    0.000000     0.000000    14.971444
   W   B
  18   3
Direct
    0.527680     0.714995     0.536842 
    0.612973     0.635176     0.376274 
    0.539589     0.495886     0.320909 
    0.522972     0.506148     0.494091 
    0.680475     0.489434     0.426303 
    0.631479     0.353619     0.510012 
    0.295945     0.616109     0.436840 
    0.382388     0.489060     0.390888 
    0.402366     0.596993     0.565185 
    0.400279     0.417837     0.582053 
    0.264044     0.481560     0.516179 
    0.482114     0.345313     0.423552 
    0.554265     0.591812     0.655428 
    0.659718     0.636356     0.533345 
    0.431882     0.511958     0.717892 
    0.547589     0.417799     0.667737 
    0.621388     0.354679     0.344022 
    0.456151     0.648560     0.402646 
    0.510526     0.330267     0.561334 
    0.643076     0.491502     0.580393 
    0.333102     0.374939     0.458076 
EA45860 16.431 15.082 14.112 90.00 90.00 90.00 Sym.group:    0
1.0
   16.430726     0.000000     0.000000
    0.000000    15.081907     0.000000
    0.000000     0.000000    14.112008
   W   B
  18   4
Direct
    0.522680     0.475051     0.314315 
    0.305729     0.341130     0.562544 
    0.527851     0.309034     0.347743 
    0.417865     0.373013     0.447357 
    0.601084     0.433265     0.658322 
    0.570415     0.320756     0.516291 
    0.664250     0.542035     0.401372 
    0.470148     0.647622     0.558230 
    0.387185     0.541571     0.401758 
    0.362099     0.515237     0.582752 
    0.624587     0.671638     0.529101 
    0.399809     0.707666     0.389783 
    0.259399     0.458999     0.474374 
    0.531596     0.496354     0.499740 
    0.539496     0.635815     0.378625 
    0.452911     0.380331     0.630776 
    0.697648     0.546880     0.583638 
    0.320510     0.666449     0.520373 
    0.660876     0.427721     0.506796 
    0.577009     0.581334     0.639818 
    0.616223     0.405458     0.399778 
    0.490632     0.522639     0.656516 
EA29448 16.491 15.582 15.116 90.00 90.00 90.00 Sym.group:    0
1.0
   16.491270     0.000000     0.000000
    0.000000    15.582402     0.000000
    0.000000     0.000000    15.116030
   W   B
  18   5
Direct
    0.513364     0.632630     0.606550 
    0.631548     0.522745     0.339673 
    0.418465     0.559887     0.442965 
    0.501949     0.575737     0.303360 
    0.584269     0.651137     0.430315 
    0.330385     0.418149     0.409738 
    0.421432     0.405768     0.545084 
    0.263312     0.431253     0.556528 
    0.546179     0.308850     0.492200 
    0.500838     0.420345     0.362624 
    0.486084     0.492544     0.685620 
    0.359621     0.549736     0.610641 
    0.265995     0.557949     0.475556 
    0.639228     0.496106     0.654482 
    0.556125     0.504405     0.510314 
    0.664171     0.632616     0.572770 
    0.422183     0.290421     0.413481 
    0.711298     0.503522     0.490169 
    0.626236     0.403219     0.428983 
    0.393393     0.665912     0.537714 
    0.551891     0.389290     0.610133 
    0.467394     0.693743     0.472868 
    0.644639     0.394035     0.548233 
EA61183 15.955 14.477 14.211 90.00 90.00 90.00 Sym.group:    0
1.0
   15.955087     0.000000     0.000000
    0.000000    14.477262     0.000000
    0.000000     0.000000    14.210784
   W   B
  19   1
Direct
    0.446259     0.356581     0.641336 
    0.446199     0.297366     0.450767 
    0.270323     0.521595     0.407390 
    0.552861     0.390974     0.364411 
    0.434606     0.511816     0.691507 
    0.491376     0.500973     0.502089 
    0.579065     0.330551     0.541614 
    0.687383     0.649889     0.536223 
    0.556282     0.678917     0.451674 
    0.567174     0.612601     0.637144 
    0.668766     0.479219     0.569591 
    0.335433     0.406743     0.526310 
    0.442039     0.688105     0.563398 
    0.695233     0.367651     0.437085 
    0.390662     0.628283     0.398110 
    0.510514     0.578604     0.303423 
    0.398656     0.446199     0.355172 
    0.644092     0.532854     0.403378 
    0.329183     0.569153     0.569818 
    0.553896     0.451924     0.649560 
EA61116 16.132 15.027 14.485 90.00 90.00 90.00 Sym.group:    0
1.0
   16.132181     0.000000     0.000000
    0.000000    15.026960     0.000000
    0.000000     0.000000    14.484799
   W   B
  19   2
Direct
    0.705946     0.355316     0.497851 
    0.278767     0.513533     0.366618 
    0.712959     0.636019     0.527072 
    0.324224     0.424167     0.612335 
    0.674899     0.489226     0.599392 
    0.284556     0.383184     0.462054 
    0.682270     0.503891     0.422258 
    0.276953     0.553577     0.535634 
    0.581529     0.367887     0.394545 
    0.417400     0.603900     0.415162 
    0.580363     0.631411     0.610142 
    0.586889     0.651151     0.426337 
    0.419152     0.582735     0.600190 
    0.576045     0.353159     0.590582 
    0.419041     0.436241     0.353852 
    0.529694     0.497058     0.492578 
    0.443415     0.337615     0.498903 
    0.533364     0.524777     0.301149 
    0.476834     0.723115     0.524068 
    0.539051     0.493300     0.654328 
    0.456648     0.438742     0.614946 
EA27429 16.635 15.255 14.269 90.00 90.00 90.00 Sym.group:    0
1.0
   16.635056     0.000000     0.000000
    0.000000    15.255408     0.000000
    0.000000     0.000000    14.269459
   W   B
  19   3
Direct
    0.414575     0.400018     0.363169 
    0.330056     0.543284     0.407368 
    0.432143     0.687826     0.400956 
    0.460200     0.569401     0.305003 
    0.517180     0.291311     0.426917 
    0.572667     0.441557     0.386548 
    0.578157     0.617984     0.421088 
    0.703723     0.421656     0.484840 
    0.717663     0.541263     0.378452 
    0.706651     0.599455     0.530058 
    0.461346     0.505225     0.498985 
    0.318260     0.473732     0.583062 
    0.506168     0.655080     0.578904 
    0.357318     0.644148     0.549757 
    0.547526     0.520499     0.673813 
    0.400763     0.341110     0.532196 
    0.550215     0.374328     0.569426 
    0.691209     0.473944     0.640491 
    0.274602     0.393524     0.439903 
    0.598507     0.515675     0.532784 
    0.420587     0.550321     0.647006 
    0.440486     0.438663     0.649274 
EA60990 16.285 15.316 15.504 90.00 90.00 90.00 Sym.group:    0
1.0
   16.284753     0.000000     0.000000
    0.000000    15.315632     0.000000
    0.000000     0.000000    15.503634
   W   B
  19   4
Direct
    0.549064     0.656223     0.526125 
    0.477256     0.610515     0.366786 
    0.324664     0.616076     0.458214 
    0.492094     0.429528     0.343905 
    0.272927     0.472661     0.484041 
    0.460769     0.508116     0.503349 
    0.342694     0.527397     0.616941 
    0.587690     0.548816     0.284887 
    0.615449     0.485282     0.439966 
    0.596106     0.478121     0.607472 
    0.499168     0.340096     0.499399 
    0.457991     0.416541     0.660767 
    0.664004     0.341628     0.539746 
    0.630317     0.634156     0.657686 
    0.641172     0.654284     0.397711 
    0.477497     0.584844     0.673611 
    0.707531     0.594785     0.528699 
    0.616634     0.326398     0.394598 
    0.354751     0.509027     0.344796 
    0.374659     0.394545     0.548183 
    0.561803     0.334894     0.622835 
    0.383221     0.394582     0.435594 
    0.412539     0.641482     0.564690 
EA60944 17.234 14.372 14.432 90.00 90.00 90.00 Sym.group:    0
1.0
   17.233766     0.000000     0.000000
    0.000000    14.372153     0.000000
    0.000000     0.000000    14.431997
   W   B
  19   5
Direct
    0.510933     0.600890     0.336515 
    0.603724     0.517789     0.456013 
    0.663225     0.657561     0.545783 
    0.490482     0.668146     0.497385 
    0.748401     0.526951     0.497455 
    0.693608     0.374862     0.527819 
    0.564006     0.410114     0.616135 
    0.287559     0.498636     0.468494 
    0.443830     0.490573     0.494037 
    0.394840     0.317373     0.440532 
    0.328742     0.375823     0.585701 
    0.338495     0.653262     0.520809 
    0.374149     0.638202     0.359825 
    0.538179     0.321929     0.465549 
    0.376371     0.464581     0.335121 
    0.663028     0.385447     0.366221 
    0.519914     0.417540     0.329419 
    0.430065     0.453445     0.682906 
    0.551476     0.579821     0.635959 
    0.599514     0.673881     0.419328 
    0.339122     0.529341     0.606802 
    0.420656     0.594017     0.623955 
    0.668233     0.511487     0.608787 
    0.451446     0.338327     0.579451 
EA61117 16.113 15.282 14.134 90.00 90.00 90.00 Sym.group:    0
1.0
   16.113252     0.000000     0.000000
    0.000000    15.282285     0.000000
    0.000000     0.000000    14.134445
   W   B
  20   1
Direct
    0.536873     0.667478     0.353265 
    0.551650     0.353626     0.381230 
    0.400762     0.434192     0.379401 
    0.402450     0.603853     0.337579 
    0.554241     0.508389     0.316797 
    0.669719     0.624283     0.422244 
    0.662970     0.458593     0.440930 
    0.504495     0.519476     0.491695 
    0.429914     0.675009     0.505754 
    0.465647     0.352782     0.548233 
    0.700896     0.405476     0.618289 
    0.617267     0.306225     0.542213 
    0.293155     0.374701     0.524439 
    0.373147     0.284433     0.429875 
    0.388646     0.475888     0.638737 
    0.500879     0.613664     0.655894 
    0.329026     0.540620     0.494067 
    0.350075     0.635261     0.650097 
    0.554609     0.441887     0.665512 
    0.645451     0.560581     0.587340 
    0.568129     0.663584     0.516411 
EA24744 16.677 14.827 14.289 90.00 90.00 90.00 Sym.group:    0
1.0
   16.676727     0.000000     0.000000
    0.000000    14.826966     0.000000
    0.000000     0.000000    14.288705
   W   B
  20   2
Direct
    0.588409     0.602244     0.363547 
    0.669920     0.454959     0.401439 
    0.553908     0.310057     0.395139 
    0.540050     0.436070     0.299659 
    0.484149     0.714605     0.427352 
    0.431866     0.559864     0.383473 
    0.416627     0.382962     0.411552 
    0.295772     0.590682     0.490306 
    0.283192     0.477568     0.376453 
    0.291448     0.406920     0.526393 
    0.538647     0.491825     0.500571 
    0.681507     0.513605     0.582261 
    0.494236     0.337651     0.566402 
    0.645608     0.350688     0.545804 
    0.453145     0.467032     0.674801 
    0.599523     0.656507     0.531017 
    0.445697     0.624520     0.566357 
    0.309956     0.529850     0.641259 
    0.726846     0.608080     0.441574 
    0.565535     0.571322     0.693347 
    0.403095     0.481312     0.531345 
    0.580861     0.431675     0.649950 
EA60991 16.979 16.522 15.028 90.00 90.00 90.00 Sym.group:    0
1.0
   16.979363     0.000000     0.000000
    0.000000    16.522229     0.000000
    0.000000     0.000000    15.028089
   W   B
  20   3
Direct
    0.569291     0.712156     0.539537 
    0.504978     0.506171     0.476036 
    0.623769     0.405965     0.530902 
    0.524975     0.335820     0.414564 
    0.661590     0.571121     0.567516 
    0.619558     0.604693     0.414304 
    0.730211     0.493249     0.455978 
    0.378154     0.537816     0.362365 
    0.547755     0.491152     0.645069 
    0.511164     0.344247     0.673097 
    0.402037     0.445895     0.601714 
    0.387224     0.398683     0.442420 
    0.275523     0.503023     0.476879 
    0.468805     0.652360     0.434395 
    0.563487     0.267225     0.556321 
    0.446092     0.613534     0.600032 
    0.573856     0.650919     0.677726 
    0.306084     0.564292     0.613787 
    0.609734     0.459639     0.357757 
    0.514660     0.562496     0.290810 
    0.474864     0.442882     0.338414 
    0.453329     0.329763     0.543945 
    0.352857     0.606897     0.486433 
EA60945 16.307 15.225 14.406 90.00 90.00 90.00 Sym.group:    0
1.0
   16.307407     0.000000     0.000000
    0.000000    15.225229     0.000000
    0.000000     0.000000    14.406060
   W   B
  20   4
Direct
    0.600410     0.555548     0.418500 
    0.556196     0.701042     0.357264 
    0.751903     0.473593     0.475048 
    0.586469     0.722808     0.516203 
    0.432331     0.648297     0.675536 
    0.448025     0.580107     0.329537 
    0.445214     0.659847     0.500250 
    0.315989     0.594417     0.414799 
    0.358520     0.447574     0.328419 
    0.456439     0.486578     0.497976 
    0.421443     0.478228     0.687464 
    0.373337     0.333142     0.454436 
    0.527218     0.317733     0.486554 
    0.657727     0.388953     0.373787 
    0.675162     0.339464     0.533706 
    0.702199     0.610181     0.531028 
    0.556363     0.574116     0.611544 
    0.323238     0.561579     0.588551 
    0.508098     0.410791     0.344898 
    0.557085     0.402663     0.636930 
    0.664524     0.479411     0.588795 
    0.431184     0.359036     0.594873 
    0.309259     0.460411     0.476354 
    0.341668     0.414481     0.577550 
EA60929 15.614 15.518 15.839 90.00 90.00 90.00 Sym.group:    0
1.0
   15.613984     0.000000     0.000000
    0.000000    15.517670     0.000000
    0.000000     0.000000    15.839202
   W   B
  20   5
Direct
    0.346813     0.613058     0.606186 
    0.415629     0.502108     0.504686 
    0.249837     0.496455     0.494235 
    0.318621     0.386908     0.404254 
    0.479505     0.608906     0.377189 
    0.648237     0.607567     0.375777 
    0.626642     0.444393     0.339552 
    0.455842     0.462081     0.332384 
    0.313537     0.644223     0.456693 
    0.585527     0.688102     0.491676 
    0.517953     0.616351     0.616779 
    0.373037     0.350173     0.546939 
    0.486717     0.337690     0.424969 
    0.703792     0.590617     0.553061 
    0.575507     0.502257     0.489424 
    0.742101     0.478001     0.431548 
    0.478109     0.458199     0.650092 
    0.636388     0.515887     0.670765 
    0.304399     0.463401     0.644490 
    0.639481     0.344035     0.476813 
    0.443541     0.658267     0.504689 
    0.341060     0.529661     0.382197 
    0.517356     0.359776     0.557539 
    0.605382     0.397674     0.605833 
    0.694985     0.444208     0.562230 
