EA1    17.878 12.724 12.724 90.00 90.00 90.00 Sym.group:    0
1.0
   17.877925     0.000000     0.000000
    0.000000    12.724077     0.000000
    0.000000     0.000000    12.724077
   W   B
  20   5
Direct
    0.400772     0.720992     0.488346 
    0.410812     0.480572     0.714741 
    0.417297     0.274408     0.486508 
    0.414852     0.536152     0.295901 
    0.598967     0.720684     0.487043 
    0.588550     0.481821     0.713664 
    0.581686     0.272770     0.485015 
    0.585738     0.536753     0.294792 
    0.583422     0.498442     0.503623 
    0.417249     0.497883     0.502440 
    0.683322     0.598783     0.608665 
    0.664508     0.360765     0.601945 
    0.660429     0.399081     0.365915 
    0.693430     0.620610     0.404026 
    0.315705     0.598883     0.608953 
    0.335840     0.360774     0.601699 
    0.340378     0.398986     0.367370 
    0.307429     0.620888     0.404374 
    0.499332     0.355571     0.618604 
    0.500000     0.390554     0.359386 
    0.500030     0.620345     0.411079 
    0.499212     0.580610     0.649808 
    0.289781     0.476171     0.500277 
    0.709789     0.475698     0.498679 
    0.501468     0.621804     0.527145 
EA515  15.927 15.902 12.895 90.00 90.00 90.00 Sym.group:    0
1.0
   15.926911     0.000000     0.000000
    0.000000    15.901741     0.000000
    0.000000     0.000000    12.894909
   W   B
  17   4
Direct
    0.292966     0.421511     0.394111 
    0.415825     0.710968     0.392721 
    0.706585     0.583297     0.394858 
    0.581770     0.293375     0.408155 
    0.618971     0.448437     0.397592 
    0.446601     0.381864     0.392333 
    0.386829     0.553563     0.406219 
    0.547214     0.617321     0.406681 
    0.634115     0.630970     0.570620 
    0.634289     0.367605     0.569458 
    0.328206     0.348704     0.547149 
    0.350119     0.665026     0.557112 
    0.488336     0.313038     0.567497 
    0.728322     0.507252     0.549406 
    0.495893     0.722734     0.557267 
    0.314476     0.504498     0.570300 
    0.475138     0.565327     0.598765 
    0.604210     0.501760     0.616904 
    0.526473     0.432823     0.632659 
    0.422718     0.431240     0.617724 
    0.500945     0.498686     0.352471 
EA816  15.907 14.894 15.822 90.00 90.00 90.00 Sym.group:    0
1.0
   15.906544     0.000000     0.000000
    0.000000    14.894412     0.000000
    0.000000     0.000000    15.822476
   W   B
  16   5
Direct
    0.582486     0.716893     0.488849 
    0.721634     0.355643     0.505859 
    0.524339     0.557644     0.458064 
    0.603473     0.461649     0.584320 
    0.587702     0.659296     0.621158 
    0.682859     0.492345     0.429350 
    0.578678     0.372737     0.434712 
    0.530205     0.476762     0.315793 
    0.322198     0.557722     0.458272 
    0.431134     0.460592     0.569151 
    0.388193     0.305711     0.511230 
    0.404944     0.416897     0.405576 
    0.419818     0.643335     0.575685 
    0.415171     0.580351     0.317273 
    0.286965     0.533739     0.599327 
    0.428295     0.694321     0.428025 
    0.658629     0.592869     0.526165 
    0.612602     0.310591     0.557821 
    0.510043     0.552194     0.639458 
    0.512505     0.338528     0.565434 
    0.298127     0.420179     0.508481 
EA1347 15.185 15.054 13.722 90.00 90.00 90.00 Sym.group:    0
1.0
   15.185309     0.000000     0.000000
    0.000000    15.054360     0.000000
    0.000000     0.000000    13.721611
   W   B
  17   1
Direct
    0.468131     0.522844     0.459472 
    0.302616     0.507369     0.473107 
    0.370121     0.672000     0.442702 
    0.531687     0.677617     0.395571 
    0.371980     0.391601     0.362875 
    0.314807     0.340381     0.508970 
    0.358267     0.625268     0.601496 
    0.514178     0.694169     0.564215 
    0.657988     0.391132     0.509006 
    0.558312     0.375089     0.675598 
    0.673445     0.477187     0.660833 
    0.548158     0.406415     0.345430 
    0.640004     0.568275     0.510676 
    0.487529     0.339448     0.502881 
    0.694259     0.465210     0.357557 
    0.402858     0.442060     0.618556 
    0.522330     0.554962     0.654010 
    0.583328     0.548971     0.357048 
EA1528 15.579 15.392 14.627 90.00 90.00 90.00 Sym.group:    0
1.0
   15.578631     0.000000     0.000000
    0.000000    15.391563     0.000000
    0.000000     0.000000    14.627250
   W   B
  17   4
Direct
    0.510582     0.426966     0.691462 
    0.502949     0.319929     0.579247 
    0.464234     0.306064     0.406364 
    0.343951     0.350825     0.491333 
    0.330219     0.514752     0.495507 
    0.409145     0.565845     0.639572 
    0.467043     0.651778     0.508914 
    0.422100     0.571026     0.356355 
    0.536201     0.449805     0.334468 
    0.720319     0.489190     0.394179 
    0.740731     0.571740     0.530215 
    0.636885     0.694546     0.530205 
    0.587297     0.575704     0.624361 
    0.656871     0.433494     0.577470 
    0.626397     0.359162     0.436219 
    0.498373     0.473970     0.503822 
    0.596399     0.587607     0.410534 
    0.340092     0.653215     0.440253 
    0.330976     0.649213     0.554208 
    0.384212     0.422761     0.614235 
    0.395027     0.432406     0.381075 
EA1934 16.067 15.701 14.417 90.00 90.00 90.00 Sym.group:    0
1.0
   16.067205     0.000000     0.000000
    0.000000    15.700965     0.000000
    0.000000     0.000000    14.416657
   W   B
  17   3
Direct
    0.634946     0.505476     0.392992 
    0.570295     0.364659     0.400479 
    0.661441     0.423715     0.664653 
    0.544118     0.360001     0.581710 
    0.613094     0.545635     0.568032 
    0.515569     0.618076     0.364070 
    0.479443     0.484447     0.485614 
    0.314908     0.477751     0.480174 
    0.420321     0.378628     0.346786 
    0.401065     0.631212     0.481465 
    0.312243     0.570003     0.616276 
    0.385673     0.527515     0.322749 
    0.534863     0.710066     0.535766 
    0.387184     0.339619     0.513623 
    0.470535     0.592715     0.638650 
    0.398343     0.441677     0.644340 
    0.644761     0.666228     0.444498 
    0.536949     0.470017     0.678161 
    0.516275     0.478150     0.322981 
    0.657973     0.414410     0.516980 
EA2223 16.159 15.585 13.546 90.00 90.00 90.00 Sym.group:    0
1.0
   16.159044     0.000000     0.000000
    0.000000    15.585041     0.000000
    0.000000     0.000000    13.545896
   W   B
  16   5
Direct
    0.673769     0.449541     0.342710 
    0.580770     0.572921     0.398976 
    0.416161     0.299843     0.496693 
    0.376097     0.402799     0.345362 
    0.320378     0.541041     0.425610 
    0.296233     0.385352     0.498108 
    0.529462     0.409903     0.406945 
    0.683373     0.359236     0.490860 
    0.617146     0.608197     0.567498 
    0.700692     0.452322     0.627684 
    0.427139     0.662071     0.421077 
    0.470133     0.524573     0.550979 
    0.545713     0.373299     0.587613 
    0.394986     0.388407     0.642329 
    0.461597     0.702885     0.578176 
    0.735733     0.525582     0.481947 
    0.448327     0.524197     0.381602 
    0.554021     0.702274     0.471223 
    0.575523     0.496711     0.647714 
    0.333378     0.506296     0.579341 
    0.359370     0.612550     0.557550 
EA2653 15.204 14.476 13.887 90.00 90.00 90.00 Sym.group:    0
1.0
   15.204196     0.000000     0.000000
    0.000000    14.475881     0.000000
    0.000000     0.000000    13.887247
   W   B
  16   4
Direct
    0.631254     0.493831     0.432659 
    0.357025     0.376261     0.443616 
    0.527534     0.350654     0.548246 
    0.365923     0.381638     0.611798 
    0.707637     0.403266     0.557259 
    0.664140     0.304666     0.441948 
    0.684548     0.599106     0.589997 
    0.524698     0.372370     0.364118 
    0.321250     0.556736     0.374612 
    0.365050     0.555250     0.660353 
    0.467979     0.596768     0.321978 
    0.522829     0.614452     0.646967 
    0.464789     0.510423     0.490363 
    0.692137     0.655056     0.428947 
    0.360908     0.650494     0.515648 
    0.541744     0.669921     0.473858 
    0.419678     0.458714     0.324465 
    0.307783     0.501556     0.523894 
    0.587386     0.482640     0.599191 
    0.485705     0.466196     0.650085 
EA2754 17.023 15.278 15.266 90.00 90.00 90.00 Sym.group:    0
1.0
   17.023355     0.000000     0.000000
    0.000000    15.277575     0.000000
    0.000000     0.000000    15.265696
   W   B
  20   4
Direct
    0.698030     0.417984     0.531196 
    0.653052     0.568977     0.601729 
    0.571272     0.331823     0.494356 
    0.565766     0.437920     0.629297 
    0.443591     0.508075     0.710558 
    0.464185     0.324665     0.638946 
    0.428639     0.277806     0.495144 
    0.489190     0.624507     0.584976 
    0.412902     0.454717     0.548788 
    0.344633     0.592489     0.633866 
    0.544566     0.495915     0.282737 
    0.322498     0.482843     0.366080 
    0.449479     0.585538     0.373411 
    0.343434     0.627691     0.482591 
    0.266356     0.487388     0.504033 
    0.461497     0.397190     0.383825 
    0.645817     0.419038     0.370156 
    0.520832     0.711272     0.434439 
    0.619753     0.611905     0.360087 
    0.553390     0.510864     0.472493 
    0.694387     0.530577     0.448406 
    0.555527     0.570128     0.694986 
    0.343090     0.376662     0.450716 
    0.608113     0.654027     0.507179 
EA3144 17.046 15.537 14.291 90.00 90.00 90.00 Sym.group:    0
1.0
   17.046327     0.000000     0.000000
    0.000000    15.537233     0.000000
    0.000000     0.000000    14.291282
   W   B
  18   5
Direct
    0.665091     0.603622     0.597285 
    0.518951     0.561409     0.517758 
    0.276754     0.601548     0.495878 
    0.289864     0.438601     0.560062 
    0.568147     0.382831     0.560773 
    0.424023     0.430355     0.622592 
    0.565741     0.508259     0.675938 
    0.407634     0.667303     0.537195 
    0.747421     0.526880     0.491071 
    0.505112     0.690710     0.384678 
    0.636315     0.624146     0.418076 
    0.398561     0.591260     0.377849 
    0.293723     0.477713     0.396439 
    0.468217     0.282874     0.492631 
    0.695238     0.377230     0.473240 
    0.437073     0.429751     0.442772 
    0.579609     0.375376     0.370937 
    0.540170     0.528661     0.329329 
    0.670963     0.465294     0.592740 
    0.354260     0.554581     0.607395 
    0.445723     0.565604     0.648549 
    0.655524     0.486543     0.389751 
    0.355886     0.329450     0.517062 
EA3450 16.724 15.033 14.481 90.00 90.00 90.00 Sym.group:    0
1.0
   16.723826     0.000000     0.000000
    0.000000    15.033208     0.000000
    0.000000     0.000000    14.480831
   W   B
  19   5
Direct
    0.584658     0.477540     0.512508 
    0.715720     0.527690     0.557688 
    0.596372     0.622363     0.615295 
    0.627666     0.307954     0.482928 
    0.342755     0.566060     0.644332 
    0.483405     0.513894     0.684399 
    0.506245     0.356837     0.598841 
    0.282049     0.453505     0.529553 
    0.365545     0.323524     0.521035 
    0.429871     0.496733     0.506818 
    0.618971     0.384910     0.342143 
    0.419546     0.660866     0.329660 
    0.475991     0.507825     0.339431 
    0.317835     0.553871     0.382048 
    0.527093     0.641266     0.453083 
    0.657553     0.554882     0.378866 
    0.362844     0.666072     0.491010 
    0.483324     0.341560     0.415634 
    0.681769     0.675106     0.483715 
    0.384205     0.421120     0.636469 
    0.367080     0.416661     0.394284 
    0.458792     0.629773     0.590311 
    0.705219     0.427574     0.446873 
    0.605491     0.472414     0.663078 
EA3781 16.841 15.618 14.803 90.00 90.00 90.00 Sym.group:    0
1.0
   16.840707     0.000000     0.000000
    0.000000    15.618350     0.000000
    0.000000     0.000000    14.803264
   W   B
  20   4
Direct
    0.408350     0.373418     0.611353 
    0.485201     0.408336     0.434759 
    0.281908     0.448689     0.560870 
    0.632330     0.447269     0.680934 
    0.719664     0.424658     0.541665 
    0.567157     0.338773     0.587099 
    0.596697     0.520123     0.516319 
    0.725824     0.509725     0.395478 
    0.601178     0.481957     0.321592 
    0.639010     0.639309     0.418946 
    0.351866     0.508365     0.392719 
    0.454559     0.463047     0.276532 
    0.489066     0.586901     0.381441 
    0.493336     0.691911     0.516404 
    0.270472     0.592485     0.506858 
    0.369772     0.679352     0.591717 
    0.426205     0.530608     0.554314 
    0.542153     0.595349     0.653874 
    0.440795     0.272774     0.496858 
    0.636122     0.355552     0.435365 
    0.511656     0.457235     0.644566 
    0.383547     0.640483     0.449105 
    0.618175     0.657420     0.560050 
    0.354957     0.376258     0.471182 
EA4201 16.693 14.924 13.884 90.00 90.00 90.00 Sym.group:    0
1.0
   16.692521     0.000000     0.000000
    0.000000    14.924360     0.000000
    0.000000     0.000000    13.884467
   W   B
  18   4
Direct
    0.361103     0.539933     0.365394 
    0.285846     0.398036     0.390036 
    0.426630     0.600975     0.662462 
    0.474085     0.522691     0.505594 
    0.440263     0.391393     0.369461 
    0.526561     0.687961     0.535337 
    0.371873     0.666791     0.514991 
    0.596192     0.613695     0.392936 
    0.492052     0.353242     0.541894 
    0.590436     0.439832     0.399997 
    0.733870     0.372089     0.446001 
    0.340809     0.323802     0.519334 
    0.627841     0.453006     0.584706 
    0.384184     0.432157     0.651344 
    0.661144     0.642925     0.580046 
    0.638503     0.294514     0.515732 
    0.306108     0.512319     0.534021 
    0.717422     0.540041     0.463315 
    0.463412     0.633800     0.392338 
    0.510631     0.473171     0.658421 
    0.557820     0.573886     0.638904 
    0.493214     0.533740     0.337735 
EA4710 15.240 15.061 14.117 90.00 90.00 90.00 Sym.group:    0
1.0
   15.239960     0.000000     0.000000
    0.000000    15.061043     0.000000
    0.000000     0.000000    14.116758
   W   B
  16   4
Direct
    0.508633     0.357468     0.634000 
    0.509944     0.510082     0.701039 
    0.518490     0.391183     0.348633 
    0.498074     0.668133     0.398426 
    0.345961     0.633952     0.468310 
    0.291419     0.480338     0.499850 
    0.508000     0.508686     0.509000 
    0.406857     0.519454     0.354990 
    0.653174     0.411017     0.587093 
    0.671203     0.405163     0.409094 
    0.512754     0.682514     0.574328 
    0.601267     0.551242     0.348467 
    0.412424     0.352966     0.482951 
    0.636709     0.586652     0.625429 
    0.382779     0.593241     0.629486 
    0.303990     0.388592     0.363952 
    0.395548     0.448861     0.608633 
    0.663465     0.530246     0.486800 
    0.562302     0.348604     0.489818 
    0.617004     0.631606     0.479701 
EA5049 15.481 14.416 14.256 90.00 90.00 90.00 Sym.group:    0
1.0
   15.481420     0.000000     0.000000
    0.000000    14.415510     0.000000
    0.000000     0.000000    14.255916
   W   B
  16   4
Direct
    0.490459     0.612149     0.670222 
    0.464299     0.446112     0.693725 
    0.538766     0.648097     0.400376 
    0.491404     0.362669     0.348227 
    0.624838     0.329265     0.442879 
    0.682325     0.470390     0.527023 
    0.494660     0.492638     0.508965 
    0.604804     0.489194     0.360918 
    0.349515     0.597331     0.582866 
    0.362501     0.653700     0.417530 
    0.452924     0.301198     0.505922 
    0.419167     0.521359     0.328548 
    0.619625     0.636361     0.553729 
    0.346931     0.412370     0.574143 
    0.574304     0.348001     0.606559 
    0.710812     0.607556     0.423208 
    0.592712     0.500831     0.650965 
    0.339836     0.511120     0.453733 
    0.468339     0.654944     0.527938 
    0.371781     0.404716     0.422525 
EA5315 15.756 16.365 14.217 90.00 90.00 90.00 Sym.group:    0
1.0
   15.756495     0.000000     0.000000
    0.000000    16.364615     0.000000
    0.000000     0.000000    14.217498
   W   B
  16   5
Direct
    0.573467     0.444960     0.339191 
    0.714944     0.516615     0.382354 
    0.323346     0.402017     0.420776 
    0.437657     0.666877     0.462723 
    0.690751     0.623799     0.485197 
    0.567630     0.595189     0.367220 
    0.480749     0.491396     0.501022 
    0.349381     0.559703     0.400446 
    0.524277     0.406641     0.673304 
    0.469926     0.635602     0.629904 
    0.598019     0.536950     0.631369 
    0.372898     0.370717     0.574343 
    0.400704     0.502135     0.670793 
    0.620386     0.403509     0.501299 
    0.465085     0.341533     0.403394 
    0.736340     0.494745     0.556566 
    0.435883     0.469913     0.348231 
    0.555228     0.613844     0.515518 
    0.357601     0.589013     0.554282 
    0.322691     0.494620     0.535544 
    0.503037     0.340225     0.546525 
EA5470 17.259 16.076 13.852 90.00 90.00 90.00 Sym.group:    0
1.0
   17.258741     0.000000     0.000000
    0.000000    16.076303     0.000000
    0.000000     0.000000    13.851718
   W   B
  20   4
Direct
    0.419770     0.401928     0.331015 
    0.532735     0.519138     0.367067 
    0.437912     0.471512     0.515992 
    0.487070     0.665223     0.327754 
    0.380144     0.577671     0.388357 
    0.368264     0.476326     0.676306 
    0.274464     0.534310     0.536677 
    0.414824     0.721906     0.465643 
    0.385450     0.618550     0.592238 
    0.398412     0.324337     0.474473 
    0.675668     0.456957     0.352735 
    0.597357     0.458528     0.541792 
    0.551136     0.354742     0.400256 
    0.694870     0.358776     0.466050 
    0.732919     0.514298     0.528336 
    0.531045     0.629940     0.506053 
    0.532953     0.553969     0.674285 
    0.668599     0.641209     0.568945 
    0.497089     0.410490     0.688517 
    0.292180     0.444707     0.399499 
    0.658241     0.537909     0.660386 
    0.642681     0.571021     0.436827 
    0.316312     0.407221     0.552551 
    0.509904     0.349331     0.548247 
EA5827 17.137 15.601 14.457 90.00 90.00 90.00 Sym.group:    0
1.0
   17.136835     0.000000     0.000000
    0.000000    15.600604     0.000000
    0.000000     0.000000    14.456529
   W   B
  20   4
Direct
    0.594301     0.604555     0.346672 
    0.466586     0.489167     0.367688 
    0.563626     0.525778     0.519018 
    0.520883     0.341556     0.317722 
    0.621030     0.424434     0.396772 
    0.620992     0.506023     0.679235 
    0.726670     0.453194     0.550483 
    0.567536     0.265624     0.450576 
    0.610433     0.366807     0.576360 
    0.609306     0.675682     0.489264 
    0.324107     0.554714     0.355510 
    0.400838     0.544418     0.536635 
    0.458875     0.652622     0.408242 
    0.315770     0.658485     0.463233 
    0.263950     0.493583     0.525647 
    0.463024     0.370570     0.493334 
    0.462635     0.440342     0.660940 
    0.326626     0.359608     0.555600 
    0.501480     0.586107     0.685597 
    0.715865     0.550007     0.421449 
    0.335646     0.465771     0.648641 
    0.353244     0.435359     0.432219 
    0.683845     0.582856     0.568091 
    0.492731     0.652738     0.551076 
EA6206 16.794 15.275 14.665 90.00 90.00 90.00 Sym.group:    0
1.0
   16.794234     0.000000     0.000000
    0.000000    15.274588     0.000000
    0.000000     0.000000    14.665168
   W   B
  19   4
Direct
    0.276463     0.546948     0.402043 
    0.249033     0.542031     0.561770 
    0.399640     0.494554     0.606602 
    0.696439     0.512123     0.602545 
    0.479601     0.633666     0.645260 
    0.549762     0.508378     0.510686 
    0.549911     0.493027     0.691780 
    0.365774     0.641701     0.522930 
    0.623748     0.648491     0.576229 
    0.431302     0.550391     0.402132 
    0.459684     0.366434     0.680863 
    0.457367     0.366020     0.497146 
    0.352304     0.410010     0.369246 
    0.287420     0.401867     0.513302 
    0.589368     0.357644     0.594828 
    0.536780     0.405678     0.352897 
    0.671263     0.409939     0.460326 
    0.577524     0.276447     0.445363 
    0.592149     0.652666     0.403805 
    0.546219     0.547448     0.325141 
    0.499163     0.656854     0.499072 
    0.631230     0.516348     0.372325 
    0.677854     0.561333     0.463710 
EA6557 16.701 15.062 14.729 90.00 90.00 90.00 Sym.group:    0
1.0
   16.701424     0.000000     0.000000
    0.000000    15.062194     0.000000
    0.000000     0.000000    14.729137
   W   B
  19   4
Direct
    0.723406     0.553682     0.402025 
    0.753441     0.541606     0.560312 
    0.603292     0.489376     0.603912 
    0.303956     0.508457     0.605613 
    0.522167     0.629069     0.647989 
    0.450602     0.508236     0.511290 
    0.453003     0.486773     0.690924 
    0.635401     0.642884     0.526920 
    0.376078     0.647100     0.582143 
    0.566399     0.556720     0.404390 
    0.542800     0.357137     0.674992 
    0.542765     0.362488     0.490531 
    0.645190     0.416276     0.364458 
    0.713520     0.401196     0.504855 
    0.412816     0.352814     0.591290 
    0.461198     0.408730     0.351422 
    0.328176     0.409112     0.460323 
    0.420591     0.274432     0.438857 
    0.406288     0.657854     0.411227 
    0.450944     0.553836     0.327762 
    0.500815     0.659482     0.504739 
    0.366475     0.520421     0.375405 
    0.320672     0.562319     0.468621 
EA6865 14.669 15.254 16.121 90.00 90.00 90.00 Sym.group:    0
1.0
   14.669268     0.000000     0.000000
    0.000000    15.253847     0.000000
    0.000000     0.000000    16.121255
   W   B
  19   4
Direct
    0.231230     0.385429     0.553936 
    0.226450     0.535740     0.552158 
    0.457647     0.459740     0.321921 
    0.367328     0.401405     0.461063 
    0.354113     0.558104     0.406192 
    0.629065     0.310732     0.546673 
    0.383857     0.444374     0.613019 
    0.541292     0.362575     0.417802 
    0.627078     0.499624     0.360420 
    0.545595     0.711967     0.577362 
    0.568538     0.434050     0.639633 
    0.763024     0.524983     0.476354 
    0.513774     0.519871     0.500684 
    0.383030     0.606954     0.562398 
    0.661940     0.574450     0.591947 
    0.627264     0.635978     0.445806 
    0.462465     0.699188     0.449632 
    0.508625     0.591400     0.671770 
    0.726217     0.378864     0.440448 
    0.234609     0.471122     0.438029 
    0.487235     0.369391     0.543993 
    0.504826     0.587722     0.365931 
    0.694797     0.436335     0.562829 
EA7230 17.111 15.360 14.880 90.00 90.00 90.00 Sym.group:    0
1.0
   17.111145     0.000000     0.000000
    0.000000    15.360373     0.000000
    0.000000     0.000000    14.880005
   W   B
  18   5
Direct
    0.726627     0.386164     0.563878 
    0.736594     0.534181     0.545262 
    0.528393     0.449331     0.304162 
    0.607730     0.396674     0.462602 
    0.620052     0.547333     0.389764 
    0.380998     0.325519     0.572028 
    0.602224     0.454503     0.623871 
    0.461605     0.358459     0.423560 
    0.387359     0.487507     0.350338 
    0.467339     0.714602     0.574678 
    0.436158     0.452283     0.654148 
    0.489066     0.520941     0.499922 
    0.604833     0.610155     0.559310 
    0.359272     0.587102     0.595262 
    0.391398     0.628031     0.437450 
    0.534689     0.691675     0.432930 
    0.499489     0.602618     0.680428 
    0.308859     0.374695     0.445583 
    0.719811     0.460479     0.430007 
    0.507747     0.375836     0.560297 
    0.491574     0.579342     0.346829 
    0.322649     0.450340     0.572005 
    0.315532     0.512229     0.475688 
EA7570 15.731 15.300 14.741 90.00 90.00 90.00 Sym.group:    0
1.0
   15.731237     0.000000     0.000000
    0.000000    15.299853     0.000000
    0.000000     0.000000    14.741492
   W   B
  19   4
Direct
    0.314835     0.608285     0.610884 
    0.487144     0.508236     0.487761 
    0.487383     0.328824     0.525727 
    0.558201     0.365594     0.373512 
    0.352905     0.424819     0.611591 
    0.305963     0.491679     0.471129 
    0.334178     0.322563     0.486903 
    0.477939     0.624099     0.323180 
    0.514292     0.450468     0.647345 
    0.655034     0.366316     0.614897 
    0.644075     0.529022     0.569567 
    0.611151     0.532002     0.382130 
    0.709555     0.650843     0.476416 
    0.556700     0.678179     0.459009 
    0.383059     0.641400     0.461119 
    0.636371     0.279344     0.485865 
    0.488893     0.630056     0.613772 
    0.396102     0.547248     0.726651 
    0.646127     0.690252     0.615213 
    0.483913     0.477820     0.329575 
    0.390043     0.523824     0.361843 
    0.653817     0.418225     0.469712 
    0.412314     0.410902     0.396198 
EA7915 15.589 15.527 15.188 90.00 90.00 90.00 Sym.group:    0
1.0
   15.588996     0.000000     0.000000
    0.000000    15.526835     0.000000
    0.000000     0.000000    15.187762
   W   B
  20   3
Direct
    0.349141     0.674902     0.576466 
    0.487475     0.501162     0.483108 
    0.435146     0.353521     0.560320 
    0.533395     0.333412     0.410903 
    0.333915     0.498835     0.623848 
    0.318833     0.538902     0.465208 
    0.275042     0.384988     0.531443 
    0.543148     0.575884     0.315568 
    0.498023     0.479736     0.651657 
    0.608294     0.360474     0.654361 
    0.645708     0.507644     0.564708 
    0.629657     0.465815     0.397030 
    0.724204     0.598669     0.428044 
    0.442651     0.652376     0.440281 
    0.565340     0.257281     0.551532 
    0.524367     0.644059     0.585334 
    0.415137     0.621758     0.703281 
    0.691801     0.663755     0.555524 
    0.373452     0.398960     0.398631 
    0.389848     0.544668     0.307866 
    0.493169     0.446164     0.330007 
    0.630693     0.373426     0.510990 
    0.591564     0.623611     0.453887 
EA8217 16.895 15.385 14.085 90.00 90.00 90.00 Sym.group:    0
1.0
   16.894664     0.000000     0.000000
    0.000000    15.384801     0.000000
    0.000000     0.000000    14.084596
   W   B
  19   5
Direct
    0.352741     0.527552     0.670032 
    0.444802     0.494682     0.499617 
    0.416368     0.583141     0.340350 
    0.433770     0.409082     0.337629 
    0.325240     0.604035     0.494653 
    0.301608     0.481917     0.377323 
    0.537035     0.633219     0.444262 
    0.445990     0.643213     0.596873 
    0.417918     0.724219     0.437498 
    0.594899     0.442442     0.532539 
    0.745806     0.501320     0.550374 
    0.667425     0.528765     0.377726 
    0.581161     0.374014     0.361331 
    0.504679     0.497625     0.678805 
    0.481645     0.322758     0.490894 
    0.680233     0.630847     0.518086 
    0.390304     0.374921     0.623934 
    0.719911     0.393998     0.420187 
    0.534699     0.340506     0.656052 
    0.356414     0.379225     0.466223 
    0.313404     0.461469     0.533558 
    0.571927     0.602729     0.600332 
    0.647949     0.541606     0.638342 
    0.534075     0.506713     0.353382 
EA8538 17.305 15.539 14.504 90.00 90.00 90.00 Sym.group:    0
1.0
   17.304787     0.000000     0.000000
    0.000000    15.538675     0.000000
    0.000000     0.000000    14.503885
   W   B
  20   5
Direct
    0.616045     0.503866     0.539329 
    0.571278     0.582891     0.397657 
    0.721421     0.583390     0.393809 
    0.763707     0.485217     0.515507 
    0.572184     0.599237     0.686279 
    0.665915     0.441095     0.367878 
    0.679915     0.642399     0.547002 
    0.690200     0.355967     0.503606 
    0.517917     0.411107     0.374705 
    0.537925     0.355159     0.548938 
    0.398184     0.287567     0.572780 
    0.368934     0.374562     0.407358 
    0.295257     0.586720     0.553624 
    0.328328     0.428773     0.570770 
    0.449243     0.508166     0.495453 
    0.424587     0.560787     0.654110 
    0.421672     0.541794     0.325433 
    0.292547     0.512492     0.403005 
    0.533425     0.669884     0.553275 
    0.467605     0.264165     0.431999 
    0.440866     0.411483     0.635613 
    0.406360     0.651146     0.529763 
    0.359941     0.625685     0.428013 
    0.455426     0.644462     0.423312 
    0.521118     0.471987     0.640784 
EA9008 17.502 14.157 14.166 90.00 90.00 90.00 Sym.group:    0
1.0
   17.501943     0.000000     0.000000
    0.000000    14.156749     0.000000
    0.000000     0.000000    14.165611
   W   B
  17   5
Direct
    0.345841     0.625419     0.523256 
    0.351452     0.465024     0.628035 
    0.354341     0.368114     0.474370 
    0.351719     0.528920     0.370447 
    0.707779     0.364013     0.487261 
    0.720386     0.509104     0.401914 
    0.707602     0.633926     0.509122 
    0.718979     0.490734     0.596676 
    0.440670     0.606096     0.674965 
    0.445190     0.392727     0.328368 
    0.578337     0.610818     0.424072 
    0.581233     0.558951     0.606219 
    0.579554     0.385814     0.572687 
    0.579311     0.435759     0.399787 
    0.254144     0.493383     0.498932 
    0.456831     0.502353     0.500392 
    0.482298     0.693966     0.546805 
    0.482857     0.537906     0.343637 
    0.481277     0.455632     0.651290 
    0.483183     0.345704     0.471718 
    0.446500     0.633986     0.404946 
    0.450515     0.361650     0.585098 
EA9194 14.763 16.637 15.766 90.00 90.00 90.00 Sym.group:    0
1.0
   14.763485     0.000000     0.000000
    0.000000    16.637350     0.000000
    0.000000     0.000000    15.766462
   W   B
  20   5
Direct
    0.442371     0.505511     0.495056 
    0.358247     0.619323     0.386075 
    0.272928     0.428560     0.520583 
    0.514413     0.366860     0.509602 
    0.535944     0.363961     0.342993 
    0.371699     0.381367     0.644673 
    0.440486     0.501344     0.324428 
    0.375556     0.376013     0.394997 
    0.602460     0.501555     0.388357 
    0.681641     0.374948     0.443428 
    0.522104     0.442339     0.654719 
    0.640820     0.513266     0.552209 
    0.696454     0.621388     0.429837 
    0.777713     0.424961     0.552834 
    0.370583     0.657850     0.542094 
    0.338518     0.526521     0.631068 
    0.503107     0.596256     0.633712 
    0.527552     0.640033     0.454239 
    0.512057     0.739828     0.571277 
    0.653548     0.663386     0.582348 
    0.373237     0.325814     0.521250 
    0.287359     0.557290     0.490384 
    0.308984     0.496632     0.405101 
    0.646307     0.376924     0.584611 
    0.745913     0.498074     0.444125 
EA9711 14.527 16.595 15.303 90.00 90.00 90.00 Sym.group:    0
1.0
   14.527131     0.000000     0.000000
    0.000000    16.594732     0.000000
    0.000000     0.000000    15.303091
   W   B
  18   3
Direct
    0.742020     0.409446     0.527420 
    0.493097     0.554522     0.342990 
    0.631713     0.495842     0.422725 
    0.475081     0.400894     0.373946 
    0.432168     0.277094     0.457771 
    0.320025     0.395632     0.469200 
    0.564450     0.363109     0.523722 
    0.416042     0.340965     0.598295 
    0.338658     0.633515     0.555917 
    0.473445     0.468653     0.685517 
    0.450200     0.492283     0.512500 
    0.316882     0.507218     0.621404 
    0.519320     0.636000     0.480474 
    0.629872     0.504989     0.592998 
    0.481569     0.608521     0.642755 
    0.697574     0.623691     0.383062 
    0.800951     0.531380     0.497022 
    0.684372     0.640765     0.535178 
    0.359323     0.495210     0.381553 
    0.376992     0.592732     0.423485 
    0.296248     0.527537     0.472065 
EA10121 16.522 15.204 14.378 90.00 90.00 90.00 Sym.group:    0
1.0
   16.521992     0.000000     0.000000
    0.000000    15.203896     0.000000
    0.000000     0.000000    14.378421
   W   B
  19   1
Direct
    0.546501     0.475688     0.660301 
    0.337020     0.405801     0.578157 
    0.473990     0.483268     0.500003 
    0.475455     0.330699     0.614532 
    0.392629     0.536723     0.654354 
    0.278273     0.554976     0.542347 
    0.335723     0.417178     0.410426 
    0.398661     0.652755     0.525142 
    0.367480     0.577203     0.375470 
    0.462027     0.328259     0.436294 
    0.448955     0.464603     0.293798 
    0.525133     0.606083     0.387569 
    0.600487     0.358671     0.528136 
    0.580733     0.435423     0.363144 
    0.725145     0.446529     0.459293 
    0.677135     0.568674     0.372617 
    0.695736     0.454957     0.625525 
    0.543754     0.712520     0.520616 
    0.627868     0.579386     0.538479 
    0.507294     0.610604     0.613797 
EA10417 15.987 14.387 14.108 90.00 90.00 90.00 Sym.group:    0
1.0
   15.987281     0.000000     0.000000
    0.000000    14.386814     0.000000
    0.000000     0.000000    14.108470
   W   B
  16   5
Direct
    0.327129     0.644879     0.487815 
    0.617023     0.474620     0.623317 
    0.739799     0.564438     0.580367 
    0.343576     0.533610     0.628214 
    0.703930     0.585484     0.413418 
    0.593210     0.346084     0.502958 
    0.545574     0.573927     0.349480 
    0.468865     0.490397     0.503341 
    0.516901     0.390141     0.356635 
    0.456970     0.399057     0.660459 
    0.485801     0.557168     0.694906 
    0.734875     0.423272     0.489945 
    0.361840     0.382847     0.388513 
    0.436181     0.293175     0.504446 
    0.383777     0.562629     0.350752 
    0.583450     0.623212     0.523980 
    0.316953     0.497461     0.476541 
    0.443946     0.640120     0.570311 
    0.632239     0.461577     0.396929 
    0.459725     0.650706     0.450565 
    0.348234     0.405199     0.547106 
EA10804 16.519 15.493 14.444 90.00 90.00 90.00 Sym.group:    0
1.0
   16.519036     0.000000     0.000000
    0.000000    15.493232     0.000000
    0.000000     0.000000    14.444406
   W   B
  18   2
Direct
    0.484226     0.550681     0.651362 
    0.640903     0.601802     0.602960 
    0.523636     0.515615     0.488748 
    0.519658     0.690779     0.557724 
    0.709102     0.475535     0.544392 
    0.646619     0.599844     0.428272 
    0.612116     0.358618     0.532790 
    0.640670     0.445755     0.373345 
    0.512398     0.657521     0.383024 
    0.538122     0.522717     0.289920 
    0.486802     0.371445     0.397613 
    0.383753     0.633077     0.518148 
    0.397686     0.522195     0.371939 
    0.273390     0.528544     0.474091 
    0.328533     0.384894     0.402130 
    0.321730     0.544048     0.639075 
    0.475975     0.292618     0.541969 
    0.390376     0.424861     0.552341 
    0.514938     0.410437     0.618366 
    0.599368     0.469012     0.631790 
EA11131 16.468 15.463 14.495 90.00 90.00 90.00 Sym.group:    0
1.0
   16.467586     0.000000     0.000000
    0.000000    15.463220     0.000000
    0.000000     0.000000    14.495129
   W   B
  18   2
Direct
    0.493269     0.557622     0.648757 
    0.650128     0.598916     0.589473 
    0.524122     0.513409     0.486484 
    0.531331     0.691719     0.544480 
    0.711412     0.466743     0.532269 
    0.645987     0.590553     0.414847 
    0.609378     0.354045     0.531994 
    0.633238     0.434219     0.368431 
    0.511841     0.652315     0.374518 
    0.526724     0.508956     0.288296 
    0.476876     0.367899     0.405760 
    0.390557     0.639813     0.518215 
    0.391469     0.523633     0.377530 
    0.272324     0.539893     0.489190 
    0.318125     0.392434     0.419772 
    0.330586     0.558868     0.647607 
    0.469362     0.294289     0.553092 
    0.390211     0.432816     0.562520 
    0.517827     0.413449     0.620818 
    0.605233     0.468407     0.625946 
EA11266 16.245 15.069 14.544 90.00 90.00 90.00 Sym.group:    0
1.0
   16.245292     0.000000     0.000000
    0.000000    15.068806     0.000000
    0.000000     0.000000    14.543506
   W   B
  19   4
Direct
    0.527474     0.693306     0.471644 
    0.742187     0.541858     0.557144 
    0.712385     0.658593     0.458842 
    0.613839     0.614314     0.605059 
    0.445749     0.656268     0.613221 
    0.463617     0.578567     0.339697 
    0.311880     0.598932     0.554776 
    0.384426     0.690033     0.424889 
    0.716178     0.438902     0.405793 
    0.532171     0.394514     0.375185 
    0.514673     0.306446     0.513696 
    0.608842     0.440350     0.563469 
    0.303537     0.435763     0.481547 
    0.367326     0.479086     0.654427 
    0.458642     0.506975     0.513051 
    0.388506     0.317691     0.416737 
    0.663996     0.308210     0.457071 
    0.511587     0.527253     0.697651 
    0.605311     0.548409     0.425026 
    0.348707     0.548702     0.411019 
    0.481401     0.396585     0.626666 
    0.398084     0.365145     0.562267 
    0.399485     0.454098     0.371126 
EA11625 16.477 15.056 14.599 90.00 90.00 90.00 Sym.group:    0
1.0
   16.477194     0.000000     0.000000
    0.000000    15.056412     0.000000
    0.000000     0.000000    14.598694
   W   B
  19   4
Direct
    0.533796     0.310212     0.549515 
    0.742099     0.466507     0.470087 
    0.530899     0.611354     0.608216 
    0.508795     0.686857     0.457160 
    0.610200     0.551690     0.435697 
    0.624517     0.377444     0.418035 
    0.460948     0.331682     0.400977 
    0.303580     0.560679     0.498532 
    0.374142     0.492649     0.338845 
    0.457909     0.487735     0.496856 
    0.460089     0.434988     0.676973 
    0.390186     0.578030     0.662569 
    0.319154     0.392781     0.455094 
    0.378306     0.694146     0.537328 
    0.665614     0.694904     0.496579 
    0.520795     0.445202     0.308856 
    0.390857     0.320070     0.592550 
    0.702672     0.587314     0.596492 
    0.603411     0.458495     0.589297 
    0.484625     0.579352     0.361630 
    0.396782     0.619388     0.409640 
    0.344058     0.457613     0.593854 
    0.696565     0.360911     0.545219 
EA11954 15.396 14.761 14.740 90.00 90.00 90.00 Sym.group:    0
1.0
   15.395974     0.000000     0.000000
    0.000000    14.761028     0.000000
    0.000000     0.000000    14.740384
   W   B
  19   4
Direct
    0.490715     0.356797     0.644118 
    0.376620     0.286028     0.507646 
    0.534471     0.487568     0.503488 
    0.324324     0.372812     0.627155 
    0.349708     0.466619     0.483037 
    0.665965     0.383035     0.566080 
    0.541873     0.650693     0.638929 
    0.331532     0.492595     0.311477 
    0.323220     0.627798     0.390344 
    0.465355     0.383306     0.382233 
    0.474901     0.558497     0.325214 
    0.713687     0.470062     0.428503 
    0.471843     0.648930     0.479301 
    0.623197     0.727389     0.521869 
    0.689807     0.577181     0.560404 
    0.537384     0.281078     0.510601 
    0.416481     0.518597     0.632169 
    0.625427     0.609916     0.393327 
    0.607679     0.489825     0.675936 
    0.401460     0.665086     0.613168 
    0.608855     0.372660     0.415206 
    0.340304     0.608598     0.539646 
    0.585188     0.464929     0.350151 
EA12295 15.387 15.343 14.374 90.00 90.00 90.00 Sym.group:    0
1.0
   15.387328     0.000000     0.000000
    0.000000    15.343077     0.000000
    0.000000     0.000000    14.373579
   W   B
  19   4
Direct
    0.464154     0.637628     0.644205 
    0.332746     0.674400     0.508821 
    0.529702     0.519311     0.501617 
    0.305831     0.585975     0.636227 
    0.343953     0.497994     0.490778 
    0.637345     0.649018     0.556987 
    0.581359     0.371420     0.641219 
    0.327314     0.460420     0.315698 
    0.350119     0.336797     0.401859 
    0.436135     0.595957     0.377623 
    0.483193     0.433125     0.327068 
    0.699811     0.575421     0.415569 
    0.504516     0.351150     0.485292 
    0.670111     0.313367     0.516086 
    0.702060     0.472018     0.552825 
    0.487923     0.713788     0.502107 
    0.429558     0.468175     0.639864 
    0.642735     0.424352     0.385694 
    0.609462     0.539710     0.674308 
    0.445567     0.326797     0.626085 
    0.574693     0.640958     0.405451 
    0.371056     0.364769     0.552410 
    0.570655     0.547448     0.342200 
EA12585 17.164 15.102 14.065 90.00 90.00 90.00 Sym.group:    0
1.0
   17.164101     0.000000     0.000000
    0.000000    15.101590     0.000000
    0.000000     0.000000    14.065339
   W   B
  20   5
Direct
    0.501441     0.605747     0.644007 
    0.732651     0.544653     0.497761 
    0.675486     0.500383     0.656171 
    0.583158     0.505763     0.512079 
    0.640608     0.647978     0.616064 
    0.679939     0.462349     0.362278 
    0.515053     0.648171     0.445318 
    0.388863     0.677486     0.549365 
    0.581737     0.352048     0.422271 
    0.469271     0.309955     0.543698 
    0.273717     0.489530     0.457705 
    0.360219     0.387008     0.644140 
    0.423685     0.495871     0.515405 
    0.502910     0.496275     0.344148 
    0.380057     0.595432     0.369939 
    0.340203     0.340606     0.475011 
    0.503530     0.440292     0.667540 
    0.309832     0.559959     0.613172 
    0.266657     0.652296     0.457175 
    0.604896     0.337218     0.600921 
    0.687248     0.406479     0.507041 
    0.641823     0.644400     0.463371 
    0.378367     0.445367     0.367464 
    0.449746     0.371855     0.400481 
    0.608900     0.582878     0.367476 
EA12926 16.835 16.088 14.536 90.00 90.00 90.00 Sym.group:    0
1.0
   16.835086     0.000000     0.000000
    0.000000    16.088259     0.000000
    0.000000     0.000000    14.536331
   W   B
  20   4
Direct
    0.586098     0.399981     0.624075 
    0.520130     0.274403     0.551068 
    0.429718     0.407317     0.555912 
    0.273151     0.409274     0.574682 
    0.386481     0.541025     0.443430 
    0.242508     0.509083     0.466122 
    0.338074     0.384472     0.421917 
    0.600055     0.372280     0.443452 
    0.477149     0.429188     0.348560 
    0.542633     0.516903     0.498753 
    0.493849     0.580414     0.313058 
    0.667136     0.535111     0.620221 
    0.624380     0.621967     0.358984 
    0.490926     0.518167     0.681140 
    0.502238     0.673421     0.467101 
    0.698345     0.509823     0.443200 
    0.364749     0.683744     0.523970 
    0.330669     0.549450     0.611096 
    0.565459     0.647472     0.636375 
    0.721441     0.398325     0.543764 
    0.466620     0.317822     0.433325 
    0.594102     0.488682     0.346475 
    0.632638     0.626407     0.511016 
    0.451450     0.605267     0.582307 
EA13265 17.303 15.826 14.591 90.00 90.00 90.00 Sym.group:    0
1.0
   17.302879     0.000000     0.000000
    0.000000    15.825584     0.000000
    0.000000     0.000000    14.590570
   W   B
  20   4
Direct
    0.427348     0.401280     0.643729 
    0.505054     0.276149     0.571361 
    0.571412     0.421988     0.556618 
    0.720297     0.416939     0.573603 
    0.604344     0.552665     0.425431 
    0.746033     0.516946     0.457915 
    0.664129     0.390653     0.418199 
    0.416974     0.357342     0.469670 
    0.524866     0.425576     0.353495 
    0.451895     0.516455     0.496153 
    0.342440     0.529246     0.626206 
    0.372300     0.616296     0.357759 
    0.513135     0.529692     0.679041 
    0.487241     0.671981     0.447751 
    0.305738     0.493536     0.455142 
    0.622062     0.692143     0.501929 
    0.664120     0.561369     0.597150 
    0.431893     0.654522     0.621231 
    0.293448     0.387583     0.571933 
    0.397563     0.470661     0.311413 
    0.547592     0.318542     0.445781 
    0.356344     0.622481     0.505857 
    0.544067     0.610810     0.568317 
    0.489706     0.565144     0.344317 
EA13613 17.101 15.827 14.559 90.00 90.00 90.00 Sym.group:    0
1.0
   17.100664     0.000000     0.000000
    0.000000    15.827149     0.000000
    0.000000     0.000000    14.559034
   W   B
  19   5
Direct
    0.433540     0.395528     0.632361 
    0.509401     0.273399     0.562567 
    0.578392     0.418325     0.554369 
    0.728673     0.432184     0.575733 
    0.606630     0.550064     0.428586 
    0.752201     0.524599     0.457858 
    0.668180     0.394528     0.419140 
    0.415991     0.361371     0.456178 
    0.523683     0.427574     0.350285 
    0.458266     0.517119     0.498160 
    0.488681     0.579527     0.309148 
    0.340768     0.525114     0.626158 
    0.359707     0.605654     0.356830 
    0.514013     0.531248     0.676803 
    0.480911     0.674207     0.457882 
    0.305040     0.487680     0.455708 
    0.659762     0.568443     0.599529 
    0.422073     0.653060     0.630983 
    0.298353     0.378011     0.567682 
    0.550718     0.319901     0.438791 
    0.402576     0.473474     0.350429 
    0.359019     0.619302     0.507490 
    0.539688     0.622771     0.578453 
    0.603732     0.666916     0.508877 
EA14043 16.533 14.494 14.216 90.00 90.00 90.00 Sym.group:    0
1.0
   16.533065     0.000000     0.000000
    0.000000    14.494084     0.000000
    0.000000     0.000000    14.215787
   W   B
  18   4
Direct
    0.652667     0.571243     0.637718 
    0.662237     0.348048     0.402197 
    0.509677     0.647911     0.630012 
    0.468952     0.653143     0.457034 
    0.693046     0.537814     0.412581 
    0.585397     0.461318     0.313850 
    0.555698     0.501702     0.499904 
    0.627453     0.677592     0.506927 
    0.704739     0.430119     0.546377 
    0.403486     0.510800     0.580067 
    0.350009     0.339686     0.470507 
    0.398698     0.498413     0.392366 
    0.304814     0.614711     0.458406 
    0.424082     0.332392     0.618970 
    0.537408     0.449600     0.674697 
    0.364155     0.682051     0.595819 
    0.501188     0.349446     0.428909 
    0.581998     0.325943     0.573008 
    0.580162     0.612269     0.375856 
    0.308601     0.407088     0.595775 
    0.496326     0.573848     0.327900 
    0.289206     0.474865     0.501121 
EA14273 16.061 15.574 15.069 90.00 90.00 90.00 Sym.group:    0
1.0
   16.060596     0.000000     0.000000
    0.000000    15.574025     0.000000
    0.000000     0.000000    15.069337
   W   B
  20   5
Direct
    0.413705     0.387318     0.373438 
    0.664477     0.629241     0.509416 
    0.509494     0.636873     0.460096 
    0.497738     0.524544     0.318016 
    0.318351     0.519407     0.372970 
    0.711840     0.489786     0.457758 
    0.573176     0.400762     0.427522 
    0.400255     0.643245     0.329016 
    0.638703     0.610946     0.339027 
    0.658155     0.469487     0.302394 
    0.458835     0.304976     0.524199 
    0.355244     0.363982     0.630914 
    0.440080     0.488083     0.501080 
    0.291841     0.524553     0.550322 
    0.291746     0.380030     0.490161 
    0.422526     0.642862     0.605625 
    0.395362     0.513441     0.682986 
    0.648429     0.536797     0.641960 
    0.528387     0.422177     0.627022 
    0.667012     0.378909     0.576392 
    0.363697     0.620220     0.468297 
    0.581255     0.516814     0.516493 
    0.588639     0.285573     0.502361 
    0.558796     0.642693     0.609616 
    0.522257     0.567280     0.682916 
EA14632 17.093 15.338 15.210 90.00 90.00 90.00 Sym.group:    0
1.0
   17.092840     0.000000     0.000000
    0.000000    15.337626     0.000000
    0.000000     0.000000    15.209899
   W   B
  19   5
Direct
    0.520405     0.340518     0.570462 
    0.402921     0.363038     0.337535 
    0.496580     0.493130     0.319466 
    0.707052     0.507789     0.569291 
    0.524316     0.323842     0.407220 
    0.593990     0.473776     0.447978 
    0.662482     0.358128     0.545334 
    0.621532     0.605537     0.333672 
    0.467797     0.489007     0.647621 
    0.481543     0.655620     0.699285 
    0.578127     0.594394     0.593844 
    0.397230     0.627986     0.572926 
    0.440500     0.480118     0.478767 
    0.364531     0.363185     0.602789 
    0.311597     0.565401     0.447224 
    0.304786     0.398920     0.456294 
    0.301777     0.506155     0.600771 
    0.519777     0.642001     0.442435 
    0.726616     0.527772     0.406430 
    0.651713     0.616612     0.475462 
    0.499619     0.711579     0.575791 
    0.594317     0.450968     0.621772 
    0.416577     0.584305     0.371171 
    0.414215     0.320220     0.476461 
EA14948 16.853 16.142 14.475 90.00 90.00 90.00 Sym.group:    0
1.0
   16.853035     0.000000     0.000000
    0.000000    16.141592     0.000000
    0.000000     0.000000    14.475156
   W   B
  20   5
Direct
    0.522277     0.636251     0.420857 
    0.470807     0.736528     0.532032 
    0.533932     0.605131     0.603374 
    0.671592     0.614422     0.452210 
    0.585433     0.490291     0.489823 
    0.571995     0.512453     0.316202 
    0.644723     0.363879     0.413825 
    0.732141     0.470404     0.533343 
    0.718109     0.492009     0.362601 
    0.628091     0.457971     0.665045 
    0.414731     0.536072     0.349091 
    0.360142     0.665035     0.457374 
    0.421165     0.508831     0.525080 
    0.286932     0.567050     0.580311 
    0.400678     0.383396     0.642931 
    0.485626     0.391946     0.377245 
    0.520321     0.350166     0.549723 
    0.290451     0.403214     0.539338 
    0.272802     0.540955     0.425592 
    0.387499     0.307892     0.471802 
    0.663480     0.572483     0.594935 
    0.655829     0.365134     0.562380 
    0.505419     0.469015     0.635780 
    0.400659     0.635989     0.593791 
    0.355165     0.423484     0.405313 
EA15285 17.044 16.286 14.305 90.00 90.00 90.00 Sym.group:    0
1.0
   17.043518     0.000000     0.000000
    0.000000    16.285621     0.000000
    0.000000     0.000000    14.304522
   W   B
  20   5
Direct
    0.494735     0.635383     0.417619 
    0.559384     0.728374     0.528973 
    0.476661     0.611552     0.599383 
    0.346095     0.634029     0.450360 
    0.414383     0.500282     0.490956 
    0.432443     0.520755     0.312369 
    0.343999     0.382741     0.416836 
    0.266668     0.498527     0.529593 
    0.286828     0.516865     0.359142 
    0.367474     0.480883     0.670210 
    0.587583     0.520411     0.344639 
    0.657666     0.642642     0.453095 
    0.576617     0.500187     0.524063 
    0.717654     0.537474     0.578446 
    0.589259     0.381973     0.649614 
    0.500392     0.389679     0.378751 
    0.466382     0.357005     0.559605 
    0.694310     0.378897     0.539828 
    0.725028     0.506092     0.420243 
    0.584701     0.294912     0.477277 
    0.343947     0.591472     0.593649 
    0.336202     0.391255     0.567467 
    0.489595     0.475477     0.641297 
    0.611760     0.620908     0.591673 
    0.630232     0.402222     0.404907 
EA15630 16.854 16.069 15.634 90.00 90.00 90.00 Sym.group:    0
1.0
   16.853585     0.000000     0.000000
    0.000000    16.069113     0.000000
    0.000000     0.000000    15.634042
   W   B
  20   5
Direct
    0.378366     0.448812     0.608365 
    0.441957     0.705699     0.448876 
    0.435553     0.684316     0.599484 
    0.462241     0.541217     0.511665 
    0.583398     0.666308     0.503016 
    0.680594     0.585701     0.384592 
    0.607457     0.481501     0.499798 
    0.528562     0.451422     0.649024 
    0.595495     0.330586     0.573060 
    0.674128     0.490329     0.656417 
    0.708248     0.590682     0.548044 
    0.571635     0.607704     0.648972 
    0.379400     0.553371     0.361205 
    0.324958     0.434238     0.443859 
    0.505429     0.272973     0.474872 
    0.474682     0.413871     0.400821 
    0.622614     0.455450     0.332533 
    0.529993     0.593913     0.360105 
    0.321800     0.605772     0.495201 
    0.494065     0.484108     0.258924 
    0.271111     0.495556     0.543930 
    0.448252     0.560070     0.660005 
    0.464591     0.340980     0.593050 
    0.399412     0.347551     0.512699 
    0.596060     0.357867     0.431487 
EA16197 15.438 14.082 15.219 90.00 90.00 90.00 Sym.group:    0
1.0
   15.437588     0.000000     0.000000
    0.000000    14.082140     0.000000
    0.000000     0.000000    15.219222
   W   B
  19   1
Direct
    0.254524     0.452721     0.437284 
    0.343890     0.536325     0.552461 
    0.390476     0.541513     0.374274 
    0.591623     0.660371     0.547252 
    0.449283     0.677077     0.647558 
    0.423506     0.678231     0.490297 
    0.548761     0.691167     0.382884 
    0.423273     0.525115     0.702916 
    0.724434     0.557500     0.581963 
    0.658684     0.520151     0.430948 
    0.585783     0.538783     0.668319 
    0.667198     0.335356     0.415850 
    0.543196     0.561616     0.295340 
    0.643533     0.403367     0.567829 
    0.453125     0.389632     0.600784 
    0.542379     0.276988     0.488030 
    0.534921     0.396329     0.343370 
    0.400613     0.365935     0.434880 
    0.506407     0.507835     0.492098 
    0.314392     0.383988     0.545662 
EA16563 16.484 15.309 14.352 90.00 90.00 90.00 Sym.group:    0
1.0
   16.484186     0.000000     0.000000
    0.000000    15.308714     0.000000
    0.000000     0.000000    14.352055
   W   B
  19   1
Direct
    0.272384     0.447766     0.454106 
    0.360050     0.575744     0.500979 
    0.407075     0.459743     0.357685 
    0.599786     0.637206     0.454006 
    0.467418     0.726775     0.502245 
    0.451251     0.625636     0.369848 
    0.577888     0.553134     0.295635 
    0.418814     0.663103     0.640885 
    0.704974     0.570658     0.567512 
    0.652104     0.455760     0.453363 
    0.565647     0.623643     0.621987 
    0.638692     0.309031     0.548975 
    0.553805     0.408344     0.296153 
    0.618365     0.457988     0.632570 
    0.444906     0.494512     0.643066 
    0.515974     0.328097     0.629793 
    0.525801     0.324563     0.438115 
    0.396779     0.372894     0.520797 
    0.508720     0.499233     0.482511 
    0.319566     0.466170     0.589769 
EA16898 15.617 14.662 14.263 90.00 90.00 90.00 Sym.group:    0
1.0
   15.616561     0.000000     0.000000
    0.000000    14.662438     0.000000
    0.000000     0.000000    14.263114
   W   B
  19   1
Direct
    0.333294     0.690965     0.458513 
    0.338848     0.522431     0.496652 
    0.448101     0.598948     0.358432 
    0.510733     0.322802     0.437555 
    0.341761     0.325642     0.488111 
    0.392637     0.429424     0.358445 
    0.542677     0.424259     0.285455 
    0.331039     0.402663     0.629284 
    0.632021     0.303540     0.558840 
    0.658620     0.444571     0.456427 
    0.483032     0.342182     0.608849 
    0.721970     0.571919     0.573483 
    0.607742     0.559343     0.305306 
    0.619915     0.451305     0.636731 
    0.452844     0.530024     0.642176 
    0.605028     0.635996     0.647396 
    0.625948     0.639603     0.455577 
    0.481989     0.671109     0.528786 
    0.510883     0.495518     0.480873 
    0.360918     0.637756     0.593110 
EA17253 16.216 15.882 14.325 90.00 90.00 90.00 Sym.group:    0
1.0
   16.216346     0.000000     0.000000
    0.000000    15.881600     0.000000
    0.000000     0.000000    14.325154
   W   B
  19   1
Direct
    0.406328     0.718456     0.449331 
    0.359065     0.572979     0.495273 
    0.485262     0.600647     0.356052 
    0.455641     0.342381     0.440683 
    0.303037     0.399821     0.489719 
    0.382343     0.474072     0.361833 
    0.518089     0.418799     0.288510 
    0.313542     0.473612     0.628827 
    0.557463     0.287846     0.562819 
    0.630918     0.399262     0.459201 
    0.434233     0.372487     0.611383 
    0.722954     0.491728     0.579633 
    0.619558     0.511641     0.304285 
    0.593034     0.419399     0.638739 
    0.463396     0.543068     0.639917 
    0.633600     0.586110     0.647517 
    0.658319     0.576977     0.455309 
    0.535966     0.652917     0.522991 
    0.510422     0.489759     0.482109 
    0.416831     0.668039     0.585867 
EA17356 16.036 15.711 14.336 90.00 90.00 90.00 Sym.group:    0
1.0
   16.035851     0.000000     0.000000
    0.000000    15.711099     0.000000
    0.000000     0.000000    14.336030
   W   B
  19   5
Direct
    0.435987     0.585267     0.372384 
    0.378250     0.546782     0.661077 
    0.378531     0.652877     0.537158 
    0.665728     0.438867     0.608119 
    0.682091     0.543303     0.464783 
    0.539324     0.494569     0.681585 
    0.665176     0.705784     0.455235 
    0.632850     0.621956     0.600561 
    0.517043     0.702007     0.490789 
    0.588669     0.637441     0.329196 
    0.515662     0.527310     0.512147 
    0.445433     0.411608     0.401585 
    0.574026     0.310182     0.386954 
    0.489585     0.278035     0.516421 
    0.306130     0.474566     0.352041 
    0.300409     0.370825     0.476912 
    0.415535     0.405280     0.589664 
    0.268243     0.505701     0.546482 
    0.584815     0.477560     0.345187 
    0.310993     0.582802     0.434480 
    0.494498     0.630675     0.625642 
    0.613370     0.329364     0.533140 
    0.548647     0.362133     0.619442 
    0.649009     0.405104     0.459012 
EA17688 16.199 15.325 14.500 90.00 90.00 90.00 Sym.group:    0
1.0
   16.199096     0.000000     0.000000
    0.000000    15.325438     0.000000
    0.000000     0.000000    14.500082
   W   B
  19   5
Direct
    0.514103     0.580496     0.355675 
    0.435668     0.425988     0.342715 
    0.402053     0.358024     0.497420 
    0.294570     0.589968     0.500800 
    0.282151     0.450343     0.396286 
    0.260795     0.425946     0.549842 
    0.389669     0.500988     0.608524 
    0.400244     0.684503     0.580697 
    0.408223     0.694340     0.425290 
    0.619435     0.387360     0.633088 
    0.703150     0.482220     0.506494 
    0.524177     0.481465     0.713206 
    0.716066     0.650889     0.507431 
    0.632390     0.572220     0.625956 
    0.553531     0.666519     0.493922 
    0.672838     0.608654     0.363560 
    0.525114     0.476400     0.505272 
    0.532224     0.311184     0.386665 
    0.617847     0.449336     0.360531 
    0.382332     0.555908     0.392385 
    0.498175     0.590843     0.608447 
    0.532876     0.320897     0.540139 
    0.480837     0.379198     0.621288 
    0.621530     0.356311     0.484369 
EA18195 15.028 14.848 15.726 90.00 90.00 90.00 Sym.group:    0
1.0
   15.027937     0.000000     0.000000
    0.000000    14.848198     0.000000
    0.000000     0.000000    15.726094
   W   B
  19   1
Direct
    0.541570     0.608905     0.388841 
    0.319547     0.494763     0.478504 
    0.301880     0.668603     0.505003 
    0.479064     0.675898     0.522600 
    0.375521     0.645911     0.373482 
    0.595945     0.433814     0.407677 
    0.472022     0.316488     0.349399 
    0.709507     0.588549     0.405422 
    0.421479     0.479485     0.359377 
    0.657338     0.684640     0.511341 
    0.498082     0.495029     0.524523 
    0.581703     0.594273     0.630997 
    0.391241     0.377736     0.588056 
    0.374878     0.580141     0.617456 
    0.524075     0.309115     0.501633 
    0.589191     0.392306     0.633112 
    0.683260     0.501094     0.536151 
    0.470304     0.473105     0.703867 
    0.349906     0.323912     0.441206 
    0.663486     0.356232     0.521355 
EA18556 15.145 14.912 14.617 90.00 90.00 90.00 Sym.group:    0
1.0
   15.144963     0.000000     0.000000
    0.000000    14.912219     0.000000
    0.000000     0.000000    14.616505
   W   B
  19   1
Direct
    0.490093     0.391647     0.367788 
    0.676097     0.513081     0.509713 
    0.702617     0.340486     0.530743 
    0.528577     0.324171     0.513038 
    0.658351     0.373278     0.378455 
    0.417864     0.562775     0.387037 
    0.538384     0.692793     0.356301 
    0.322913     0.411260     0.362694 
    0.598482     0.533623     0.364737 
    0.359183     0.307925     0.478427 
    0.494732     0.504619     0.525148 
    0.408022     0.394129     0.622569 
    0.578619     0.622155     0.616244 
    0.607204     0.422869     0.642912 
    0.462046     0.689171     0.508683 
    0.379442     0.596104     0.631078 
    0.310824     0.488379     0.513004 
    0.491859     0.512358     0.721296 
    0.645824     0.686096     0.472387 
    0.328866     0.633082     0.497751 
EA18739 16.579 15.459 15.454 90.00 90.00 90.00 Sym.group:    0
1.0
   16.579419     0.000000     0.000000
    0.000000    15.458830     0.000000
    0.000000     0.000000    15.453701
   W   B
  17   5
Direct
    0.545517     0.589087     0.388501 
    0.552818     0.726661     0.473150 
    0.460517     0.556299     0.657387 
    0.634330     0.436372     0.564146 
    0.587131     0.598357     0.570731 
    0.695830     0.570203     0.455080 
    0.418996     0.709430     0.434553 
    0.387173     0.554278     0.389258 
    0.302537     0.439743     0.494959 
    0.352949     0.588509     0.545396 
    0.403452     0.330838     0.525148 
    0.478112     0.482076     0.500568 
    0.500987     0.389828     0.650023 
    0.481831     0.449728     0.307257 
    0.746194     0.434875     0.446144 
    0.602382     0.423305     0.396614 
    0.590924     0.496950     0.709732 
    0.391841     0.404295     0.399138 
    0.485816     0.353799     0.412401 
    0.379010     0.449640     0.610220 
    0.539700     0.346946     0.507852 
    0.461955     0.668780     0.561743 
EA18988 16.507 16.193 14.735 90.00 90.00 90.00 Sym.group:    0
1.0
   16.507211     0.000000     0.000000
    0.000000    16.192653     0.000000
    0.000000     0.000000    14.734550
   W   B
  20   4
Direct
    0.613066     0.431458     0.397627 
    0.616919     0.612702     0.652260 
    0.683767     0.511923     0.538023 
    0.366846     0.453186     0.621054 
    0.439040     0.366333     0.502457 
    0.484380     0.539238     0.696284 
    0.524944     0.242717     0.538511 
    0.608206     0.365549     0.552601 
    0.540416     0.288651     0.389527 
    0.515827     0.517990     0.509351 
    0.324318     0.531745     0.354421 
    0.378558     0.647189     0.460997 
    0.574420     0.566948     0.326385 
    0.507447     0.675449     0.576600 
    0.449323     0.432873     0.352906 
    0.278272     0.548349     0.529443 
    0.717607     0.551515     0.370988 
    0.295269     0.418644     0.449069 
    0.633541     0.642801     0.468381 
    0.494768     0.387905     0.677141 
    0.594697     0.474949     0.646960 
    0.400661     0.580922     0.586018 
    0.507360     0.644770     0.424214 
    0.450347     0.566194     0.378781 
EA19351 16.787 16.156 14.334 90.00 90.00 90.00 Sym.group:    0
1.0
   16.786962     0.000000     0.000000
    0.000000    16.155764     0.000000
    0.000000     0.000000    14.333736
   W   B
  19   5
Direct
    0.290441     0.564376     0.489614 
    0.410706     0.646246     0.446653 
    0.414468     0.518529     0.335241 
    0.509444     0.648917     0.312612 
    0.513546     0.345865     0.395121 
    0.563873     0.506210     0.333401 
    0.713620     0.495659     0.433794 
    0.593306     0.590886     0.475212 
    0.457124     0.488958     0.498188 
    0.334346     0.461008     0.615629 
    0.480530     0.392639     0.652079 
    0.391319     0.334683     0.524986 
    0.525795     0.274586     0.544082 
    0.601392     0.415565     0.529182 
    0.346976     0.616471     0.633901 
    0.737393     0.462554     0.597906 
    0.706970     0.599358     0.596642 
    0.585346     0.529403     0.656024 
    0.492209     0.647618     0.597209 
    0.328130     0.441240     0.451902 
    0.392039     0.390591     0.385343 
    0.528160     0.702567     0.450727 
    0.637262     0.397405     0.380866 
    0.445605     0.528662     0.663688 
EA19645 15.124 14.814 16.519 90.00 90.00 90.00 Sym.group:    0
1.0
   15.123681     0.000000     0.000000
    0.000000    14.813831     0.000000
    0.000000     0.000000    16.518767
   W   B
  20   5
Direct
    0.448867     0.333215     0.434404 
    0.455965     0.352704     0.596621 
    0.414953     0.501319     0.497282 
    0.477016     0.509045     0.643820 
    0.251970     0.537387     0.516663 
    0.294488     0.364953     0.507321 
    0.298259     0.433278     0.375594 
    0.324867     0.592452     0.381908 
    0.402403     0.683357     0.503160 
    0.341092     0.607415     0.622509 
    0.677338     0.610945     0.501545 
    0.641774     0.561454     0.635335 
    0.562910     0.721358     0.448481 
    0.545603     0.708381     0.584497 
    0.584891     0.457202     0.499028 
    0.477888     0.474522     0.351777 
    0.727273     0.429991     0.588669 
    0.598603     0.320440     0.383822 
    0.606828     0.299733     0.546978 
    0.657879     0.469790     0.359806 
    0.335902     0.454458     0.611826 
    0.468145     0.613485     0.402379 
    0.577316     0.580498     0.402234 
    0.590398     0.408491     0.638274 
    0.737374     0.474125     0.466066 
EA19985 17.615 16.428 15.046 90.00 90.00 90.00 Sym.group:    0
1.0
   17.615020     0.000000     0.000000
    0.000000    16.428079     0.000000
    0.000000     0.000000    15.045886
   W   B
  20   5
Direct
    0.552773     0.376319     0.368928 
    0.509478     0.528063     0.316924 
    0.434700     0.398759     0.288588 
    0.560273     0.633253     0.454383 
    0.383547     0.497738     0.406692 
    0.430897     0.350891     0.458903 
    0.289459     0.419580     0.513290 
    0.419837     0.633047     0.527479 
    0.324420     0.639263     0.411123 
    0.552231     0.662785     0.642029 
    0.512436     0.488907     0.500773 
    0.530337     0.528900     0.698056 
    0.397510     0.492654     0.611863 
    0.495063     0.363258     0.611876 
    0.644393     0.502880     0.379017 
    0.760367     0.509524     0.495715 
    0.349588     0.343807     0.615974 
    0.643977     0.555424     0.571947 
    0.709277     0.624474     0.427082 
    0.649894     0.397186     0.509523 
    0.314964     0.555247     0.520482 
    0.444141     0.629279     0.383477 
    0.441987     0.612828     0.666866 
    0.553235     0.312383     0.496156 
    0.595217     0.443550     0.622853 
EA20307 16.724 15.319 14.106 90.00 90.00 90.00 Sym.group:    0
1.0
   16.723992     0.000000     0.000000
    0.000000    15.318813     0.000000
    0.000000     0.000000    14.105971
   W   B
  20   5
Direct
    0.530368     0.663285     0.587904 
    0.518249     0.648143     0.402532 
    0.585527     0.513887     0.504388 
    0.509940     0.488963     0.334622 
    0.734157     0.516098     0.506821 
    0.680541     0.659558     0.507925 
    0.658559     0.580109     0.672024 
    0.665039     0.432744     0.644983 
    0.656764     0.438002     0.359642 
    0.355350     0.349347     0.497063 
    0.357714     0.450209     0.357061 
    0.490685     0.269432     0.493179 
    0.470181     0.330732     0.343430 
    0.428030     0.517961     0.510768 
    0.513681     0.500390     0.678661 
    0.410424     0.625473     0.672245 
    0.389736     0.678524     0.495836 
    0.338443     0.475375     0.644731 
    0.655904     0.593491     0.344236 
    0.430828     0.355684     0.646203 
    0.545588     0.385435     0.572909 
    0.401993     0.590006     0.359859 
    0.292911     0.483395     0.490299 
    0.561226     0.379945     0.447511 
    0.318160     0.573815     0.425171 
EA20634 16.512 15.614 14.295 90.00 90.00 90.00 Sym.group:    0
1.0
   16.511931     0.000000     0.000000
    0.000000    15.614052     0.000000
    0.000000     0.000000    14.295466
   W   B
  20   5
Direct
    0.425715     0.659339     0.461159 
    0.459002     0.607780     0.633355 
    0.411398     0.488425     0.506730 
    0.509082     0.450945     0.656116 
    0.264950     0.451295     0.511609 
    0.283398     0.597868     0.546611 
    0.308433     0.573430     0.372839 
    0.341196     0.429966     0.352644 
    0.370874     0.370405     0.627223 
    0.677244     0.404423     0.452611 
    0.664776     0.462919     0.613320 
    0.563796     0.292252     0.440261 
    0.585890     0.317544     0.598120 
    0.564393     0.536971     0.489328 
    0.469664     0.532411     0.330501 
    0.544499     0.672618     0.366195 
    0.567542     0.691716     0.546217 
    0.652576     0.550046     0.344584 
    0.338659     0.508027     0.683718 
    0.582176     0.418975     0.316382 
    0.473124     0.396110     0.406678 
    0.589736     0.577360     0.650728 
    0.706951     0.542962     0.489416 
    0.477734     0.364675     0.525652 
    0.667189     0.601539     0.578003 
EA20975 17.350 15.302 15.168 90.00 90.00 90.00 Sym.group:    0
1.0
   17.350126     0.000000     0.000000
    0.000000    15.301994     0.000000
    0.000000     0.000000    15.168252
   W   B
  20   5
Direct
    0.344230     0.678743     0.542816 
    0.438585     0.585032     0.610823 
    0.275134     0.551097     0.593393 
    0.366911     0.421200     0.628647 
    0.520803     0.458437     0.673968 
    0.411193     0.569859     0.424702 
    0.498221     0.343824     0.559236 
    0.267742     0.565454     0.436118 
    0.332138     0.421417     0.472292 
    0.562157     0.590871     0.357892 
    0.505571     0.691206     0.496719 
    0.456024     0.517106     0.274879 
    0.703007     0.572715     0.571344 
    0.566213     0.508477     0.511207 
    0.487393     0.413417     0.389478 
    0.732532     0.444530     0.470611 
    0.582686     0.648819     0.623026 
    0.652234     0.427397     0.623163 
    0.632721     0.453685     0.340634 
    0.628641     0.345033     0.476622 
    0.375049     0.304310     0.545973 
    0.415664     0.308276     0.448349 
    0.626099     0.644904     0.479796 
    0.443116     0.468955     0.524175 
    0.675931     0.565237     0.424138 
EA21586 16.230 14.633 14.886 90.00 90.00 90.00 Sym.group:    0
1.0
   16.229852     0.000000     0.000000
    0.000000    14.633289     0.000000
    0.000000     0.000000    14.886115
   W   B
  17   2
Direct
    0.478613     0.508499     0.507328 
    0.723119     0.511248     0.484604 
    0.462356     0.655170     0.608148 
    0.364811     0.459208     0.377107 
    0.674547     0.406871     0.587792 
    0.452760     0.328791     0.443693 
    0.593877     0.431332     0.415975 
    0.486434     0.547176     0.331940 
    0.612686     0.586213     0.580165 
    0.488240     0.380196     0.294874 
    0.551277     0.744724     0.513491 
    0.546505     0.457890     0.665686 
    0.605597     0.626919     0.413624 
    0.313548     0.556009     0.509462 
    0.374287     0.500968     0.645172 
    0.437914     0.348647     0.615749 
    0.427072     0.670436     0.445016 
    0.552383     0.367979     0.542364 
    0.353974     0.411725     0.517812 
EA21803 15.535 15.321 14.411 90.00 90.00 90.00 Sym.group:    0
1.0
   15.535295     0.000000     0.000000
    0.000000    15.320735     0.000000
    0.000000     0.000000    14.411384
   W   B
  16   5
Direct
    0.397967     0.404915     0.586608 
    0.381076     0.294230     0.453879 
    0.352471     0.446011     0.414362 
    0.498151     0.389170     0.356301 
    0.599797     0.515761     0.311849 
    0.457634     0.577213     0.316625 
    0.663428     0.390579     0.413265 
    0.516476     0.499616     0.489603 
    0.462401     0.665959     0.561941 
    0.480855     0.530786     0.673344 
    0.640233     0.506858     0.665533 
    0.356152     0.607756     0.459997 
    0.594445     0.638293     0.424055 
    0.694902     0.523268     0.500971 
    0.336479     0.587265     0.643731 
    0.529348     0.317475     0.509445 
    0.632566     0.405390     0.559768 
    0.469142     0.687144     0.408192 
    0.592031     0.608362     0.580934 
    0.543628     0.406410     0.628625 
    0.300818     0.497540     0.540971 
EA21961 17.094 14.474 14.223 90.00 90.00 90.00 Sym.group:    0
1.0
   17.093576     0.000000     0.000000
    0.000000    14.473961     0.000000
    0.000000     0.000000    14.222681
   W   B
  19   5
Direct
    0.257222     0.586775     0.514759 
    0.722651     0.477510     0.578346 
    0.623069     0.607833     0.626577 
    0.499904     0.530750     0.680862 
    0.558971     0.496346     0.497166 
    0.479482     0.666328     0.568645 
    0.708739     0.607439     0.470309 
    0.356253     0.621776     0.642209 
    0.476272     0.613430     0.391782 
    0.621503     0.555357     0.337814 
    0.403565     0.488143     0.537134 
    0.483565     0.329144     0.446187 
    0.461559     0.453720     0.329377 
    0.331959     0.537270     0.380080 
    0.642764     0.349401     0.524335 
    0.373179     0.315813     0.554743 
    0.262513     0.419209     0.503830 
    0.605091     0.388529     0.344246 
    0.508171     0.357941     0.624014 
    0.587228     0.650850     0.475531 
    0.372208     0.647207     0.485046 
    0.360284     0.387225     0.409938 
    0.694221     0.461780     0.429404 
    0.609628     0.450221     0.647662 
EA22308 16.655 14.622 14.432 90.00 90.00 90.00 Sym.group:    0
1.0
   16.654702     0.000000     0.000000
    0.000000    14.621877     0.000000
    0.000000     0.000000    14.432496
   W   B
  19   5
Direct
    0.369922     0.487641     0.451115 
    0.403626     0.483321     0.622780 
    0.256400     0.595755     0.443740 
    0.385520     0.674971     0.401745 
    0.370933     0.315029     0.400340 
    0.263484     0.549193     0.596464 
    0.509676     0.304650     0.461595 
    0.373699     0.652481     0.568027 
    0.696938     0.500577     0.555348 
    0.667395     0.514303     0.378522 
    0.585844     0.391717     0.327859 
    0.539449     0.476883     0.509477 
    0.622251     0.636399     0.628608 
    0.524267     0.678227     0.491380 
    0.642757     0.356868     0.613115 
    0.493709     0.335427     0.627223 
    0.500060     0.559985     0.356121 
    0.573020     0.490827     0.689167 
    0.357214     0.322931     0.560712 
    0.606768     0.645046     0.383072 
    0.493988     0.597011     0.618288 
    0.651713     0.629229     0.483557 
    0.646946     0.383932     0.461707 
    0.464422     0.417595     0.370037 
EA22772 16.772 14.856 14.735 90.00 90.00 90.00 Sym.group:    0
1.0
   16.772131     0.000000     0.000000
    0.000000    14.856212     0.000000
    0.000000     0.000000    14.734546
   W   B
  19   2
Direct
    0.371908     0.492289     0.604119 
    0.392167     0.421096     0.446601 
    0.394590     0.625204     0.499419 
    0.497357     0.297180     0.454030 
    0.439426     0.555214     0.356863 
    0.539512     0.403746     0.339837 
    0.538257     0.672217     0.463837 
    0.681331     0.676045     0.447182 
    0.477611     0.625202     0.645225 
    0.582229     0.323269     0.603346 
    0.703576     0.513844     0.467512 
    0.642877     0.356713     0.453495 
    0.624858     0.611379     0.595443 
    0.519627     0.474751     0.678337 
    0.542168     0.493077     0.498267 
    0.611944     0.558056     0.345828 
    0.666994     0.446848     0.629469 
    0.285234     0.550844     0.381500 
    0.251104     0.442715     0.488216 
    0.460673     0.382559     0.574825 
    0.276554     0.577756     0.526648 
EA23054 15.775 14.436 14.611 90.00 90.00 90.00 Sym.group:    0
1.0
   15.774644     0.000000     0.000000
    0.000000    14.435952     0.000000
    0.000000     0.000000    14.611079
   W   B
  19   3
Direct
    0.365027     0.596707     0.678137 
    0.378007     0.474921     0.539714 
    0.367862     0.307441     0.561680 
    0.498323     0.645623     0.583983 
    0.623234     0.330922     0.485780 
    0.542618     0.499852     0.493452 
    0.704136     0.483153     0.517179 
    0.618802     0.392929     0.655065 
    0.489936     0.488901     0.678731 
    0.641089     0.554996     0.661576 
    0.676378     0.581388     0.379402 
    0.541408     0.605836     0.308567 
    0.427341     0.637138     0.420936 
    0.317630     0.652830     0.542514 
    0.434440     0.470878     0.346948 
    0.609749     0.427594     0.348553 
    0.305716     0.354520     0.418222 
    0.290599     0.521561     0.401286 
    0.469228     0.320089     0.430963 
    0.634206     0.625644     0.526261 
    0.499391     0.365366     0.575816 
    0.564880     0.661710     0.445233 
EA23396 15.779 14.341 14.706 90.00 90.00 90.00 Sym.group:    0
1.0
   15.778588     0.000000     0.000000
    0.000000    14.340694     0.000000
    0.000000     0.000000    14.706222
   W   B
  19   3
Direct
    0.619156     0.598070     0.691010 
    0.624423     0.491262     0.540862 
    0.653073     0.323406     0.548230 
    0.481121     0.635982     0.598023 
    0.401011     0.314094     0.459152 
    0.457994     0.492977     0.494150 
    0.300764     0.446843     0.507776 
    0.391202     0.360714     0.634831 
    0.509792     0.472165     0.676108 
    0.351082     0.515477     0.661407 
    0.315505     0.568368     0.385985 
    0.446099     0.618302     0.321492 
    0.555187     0.654677     0.438184 
    0.660740     0.676076     0.562888 
    0.570879     0.497739     0.350899 
    0.403123     0.428940     0.337731 
    0.713089     0.391391     0.412856 
    0.707023     0.562484     0.411653 
    0.556580     0.334021     0.411663 
    0.350319     0.600743     0.535168 
    0.516710     0.359271     0.558827 
    0.415131     0.657002     0.461104 
EA23736 16.632 15.551 14.462 90.00 90.00 90.00 Sym.group:    0
1.0
   16.631573     0.000000     0.000000
    0.000000    15.550968     0.000000
    0.000000     0.000000    14.461640
   W   B
  20   2
Direct
    0.670115     0.579170     0.545596 
    0.644550     0.515045     0.379797 
    0.521215     0.507139     0.482720 
    0.653273     0.445974     0.652305 
    0.572519     0.329467     0.557327 
    0.603077     0.714440     0.591441 
    0.457528     0.669610     0.544676 
    0.545349     0.573838     0.655694 
    0.568809     0.667736     0.428534 
    0.703177     0.411717     0.509065 
    0.487931     0.296971     0.419473 
    0.415939     0.347656     0.568834 
    0.527841     0.586419     0.289524 
    0.376147     0.417210     0.421943 
    0.406395     0.582927     0.401804 
    0.304417     0.640414     0.546906 
    0.388733     0.517095     0.597171 
    0.280803     0.415682     0.582968 
    0.261142     0.524944     0.459202 
    0.504418     0.433876     0.317804 
    0.593674     0.385406     0.418392 
    0.512948     0.437268     0.628822 
EA24244 15.029 15.672 15.700 90.00 90.00 90.00 Sym.group:    0
1.0
   15.028987     0.000000     0.000000
    0.000000    15.672259     0.000000
    0.000000     0.000000    15.700387
   W   B
  17   2
Direct
    0.459331     0.387408     0.379999 
    0.622513     0.461547     0.378528 
    0.543340     0.611717     0.381184 
    0.389192     0.535720     0.380269 
    0.429414     0.683056     0.490302 
    0.300399     0.410096     0.456486 
    0.583445     0.680404     0.530483 
    0.686952     0.437464     0.527467 
    0.438155     0.328938     0.527845 
    0.318310     0.550740     0.524970 
    0.366207     0.432939     0.616603 
    0.571435     0.374238     0.617605 
    0.628618     0.555818     0.620588 
    0.445216     0.623811     0.628604 
    0.513169     0.497819     0.272908 
    0.497193     0.502219     0.518575 
    0.498517     0.493246     0.698795 
    0.569366     0.371364     0.473731 
    0.639228     0.561456     0.475057 
EA24406 16.635 15.255 14.269 90.00 90.00 90.00 Sym.group:    0
1.0
   16.635056     0.000000     0.000000
    0.000000    15.255408     0.000000
    0.000000     0.000000    14.269459
   W   B
  19   3
Direct
    0.414575     0.400018     0.363169 
    0.330056     0.543284     0.407368 
    0.432143     0.687826     0.400956 
    0.460200     0.569401     0.305003 
    0.517180     0.291311     0.426917 
    0.572667     0.441557     0.386548 
    0.578157     0.617984     0.421088 
    0.703723     0.421656     0.484840 
    0.717663     0.541263     0.378452 
    0.706651     0.599455     0.530058 
    0.461346     0.505225     0.498985 
    0.318260     0.473732     0.583062 
    0.506168     0.655080     0.578904 
    0.357318     0.644148     0.549757 
    0.547526     0.520499     0.673813 
    0.400763     0.341110     0.532196 
    0.550215     0.374328     0.569426 
    0.691209     0.473944     0.640491 
    0.274602     0.393524     0.439903 
    0.598507     0.515675     0.532784 
    0.420587     0.550321     0.647006 
    0.440486     0.438663     0.649274 
EA24942 15.273 14.788 14.547 90.00 90.00 90.00 Sym.group:    0
1.0
   15.273397     0.000000     0.000000
    0.000000    14.787938     0.000000
    0.000000     0.000000    14.547131
   W   B
  16   3
Direct
    0.616012     0.428791     0.611536 
    0.558444     0.659905     0.493549 
    0.314169     0.539332     0.536655 
    0.595051     0.380733     0.425684 
    0.508579     0.457678     0.296126 
    0.421705     0.356770     0.383360 
    0.507390     0.298794     0.550144 
    0.626490     0.552781     0.389680 
    0.355880     0.513086     0.372511 
    0.451942     0.397473     0.664125 
    0.700643     0.595912     0.561177 
    0.391449     0.663878     0.447148 
    0.732310     0.459242     0.490421 
    0.347474     0.367977     0.534862 
    0.480138     0.493521     0.500877 
    0.557630     0.576616     0.649838 
    0.432806     0.628248     0.581498 
    0.417900     0.537908     0.647121 
    0.483987     0.591353     0.363687 
EA25270 15.176 14.349 14.158 90.00 90.00 90.00 Sym.group:    0
1.0
   15.175661     0.000000     0.000000
    0.000000    14.348806     0.000000
    0.000000     0.000000    14.158340
   W   B
  16   3
Direct
    0.626058     0.369444     0.492241 
    0.619046     0.505958     0.357741 
    0.621137     0.627713     0.497240 
    0.643257     0.484200     0.617004 
    0.543909     0.318601     0.633327 
    0.452701     0.674250     0.520351 
    0.444882     0.313040     0.494450 
    0.496896     0.475041     0.705487 
    0.376206     0.414175     0.610081 
    0.343890     0.437460     0.401275 
    0.407780     0.615207     0.669704 
    0.494149     0.495257     0.492612 
    0.315972     0.554805     0.530323 
    0.523032     0.644774     0.351567 
    0.435283     0.504595     0.282042 
    0.514934     0.371650     0.336216 
    0.393808     0.587967     0.403768 
    0.543127     0.602432     0.625153 
    0.703933     0.503431     0.479420 
EA25609 15.803 14.917 14.523 90.00 90.00 90.00 Sym.group:    0
1.0
   15.803018     0.000000     0.000000
    0.000000    14.916984     0.000000
    0.000000     0.000000    14.523287
   W   B
  16   3
Direct
    0.394285     0.380167     0.437039 
    0.450513     0.513362     0.667872 
    0.686817     0.494649     0.549166 
    0.402382     0.549501     0.369268 
    0.470421     0.706479     0.419728 
    0.556576     0.587500     0.338332 
    0.374418     0.599252     0.537646 
    0.620880     0.641598     0.481206 
    0.544486     0.319816     0.407478 
    0.319668     0.430771     0.606523 
    0.276082     0.488343     0.458850 
    0.646362     0.445321     0.392668 
    0.516877     0.496095     0.497025 
    0.459764     0.357529     0.593552 
    0.501778     0.681673     0.583292 
    0.620634     0.344869     0.551890 
    0.575702     0.453828     0.639801 
    0.581488     0.566324     0.622155 
    0.500863     0.442924     0.346511 
EA25888 15.857 14.509 13.787 90.00 90.00 90.00 Sym.group:    0
1.0
   15.856659     0.000000     0.000000
    0.000000    14.508890     0.000000
    0.000000     0.000000    13.787110
   W   B
  16   4
Direct
    0.585510     0.491235     0.334828 
    0.576063     0.666100     0.400394 
    0.615259     0.648741     0.587115 
    0.691304     0.507382     0.609711 
    0.652424     0.401306     0.482127 
    0.327686     0.660682     0.439003 
    0.462135     0.686147     0.524767 
    0.542417     0.329217     0.376686 
    0.502485     0.504236     0.499784 
    0.443717     0.598565     0.341268 
    0.365911     0.559639     0.597968 
    0.298346     0.401967     0.580563 
    0.443893     0.407783     0.650065 
    0.530369     0.556845     0.689752 
    0.408743     0.337403     0.472957 
    0.335801     0.487644     0.427923 
    0.649715     0.554104     0.465727 
    0.451924     0.438796     0.350324 
    0.532775     0.345396     0.543736 
    0.583524     0.416809     0.625300 
EA26228 15.855 14.425 14.026 90.00 90.00 90.00 Sym.group:    0
1.0
   15.854660     0.000000     0.000000
    0.000000    14.425442     0.000000
    0.000000     0.000000    14.026421
   W   B
  16   4
Direct
    0.416127     0.488963     0.337525 
    0.418482     0.657719     0.394112 
    0.380977     0.651131     0.577061 
    0.305605     0.505420     0.612450 
    0.350835     0.398332     0.485393 
    0.669428     0.663503     0.438311 
    0.535486     0.688879     0.518025 
    0.463607     0.325743     0.388866 
    0.496686     0.506762     0.499508 
    0.558778     0.597384     0.340997 
    0.634551     0.564515     0.594019 
    0.708803     0.407731     0.584119 
    0.555963     0.412263     0.651410 
    0.464667     0.553942     0.679775 
    0.593997     0.339255     0.483899 
    0.664355     0.489654     0.427011 
    0.344588     0.550449     0.464099 
    0.551439     0.435551     0.354107 
    0.467975     0.344209     0.547151 
    0.417651     0.418598     0.622162 
EA26566 15.478 14.157 14.299 90.00 90.00 90.00 Sym.group:    0
1.0
   15.478262     0.000000     0.000000
    0.000000    14.157452     0.000000
    0.000000     0.000000    14.298552
   W   B
  16   4
Direct
    0.437488     0.527785     0.328832 
    0.429972     0.683065     0.417758 
    0.373759     0.636784     0.589040 
    0.293215     0.491106     0.579940 
    0.347122     0.406147     0.440204 
    0.679639     0.671051     0.512626 
    0.530898     0.684361     0.559568 
    0.479288     0.358218     0.344473 
    0.496971     0.503769     0.497225 
    0.578721     0.631394     0.381778 
    0.613152     0.538118     0.629348 
    0.693148     0.384258     0.597480 
    0.539439     0.365395     0.629140 
    0.443076     0.511905     0.677898 
    0.601148     0.344035     0.458378 
    0.677087     0.501562     0.464977 
    0.347006     0.560368     0.452602 
    0.575077     0.471405     0.355136 
    0.461154     0.336752     0.499503 
    0.402636     0.392524     0.584092 
EA26961 15.770 15.320 14.429 90.00 90.00 90.00 Sym.group:    0
1.0
   15.769850     0.000000     0.000000
    0.000000    15.320050     0.000000
    0.000000     0.000000    14.428697
   W   B
  16   3
Direct
    0.394407     0.385554     0.458628 
    0.251414     0.448832     0.435944 
    0.357673     0.566285     0.454220 
    0.504202     0.614129     0.362431 
    0.410917     0.573946     0.616971 
    0.432695     0.408567     0.628414 
    0.282029     0.463151     0.591442 
    0.658369     0.530030     0.383898 
    0.553079     0.320693     0.472745 
    0.550253     0.417327     0.344926 
    0.515966     0.499344     0.502220 
    0.674900     0.538259     0.553733 
    0.620401     0.401104     0.613862 
    0.695309     0.388981     0.450448 
    0.471435     0.692926     0.499240 
    0.546127     0.512517     0.700814 
    0.554568     0.615465     0.594219 
    0.593064     0.633082     0.480165 
    0.433192     0.489807     0.355680 
EA27306 15.374 14.884 14.815 90.00 90.00 90.00 Sym.group:    0
1.0
   15.373818     0.000000     0.000000
    0.000000    14.884126     0.000000
    0.000000     0.000000    14.814612
   W   B
  16   3
Direct
    0.362669     0.455898     0.610787 
    0.489956     0.342240     0.565595 
    0.458637     0.361849     0.395141 
    0.626546     0.336119     0.464548 
    0.422049     0.526713     0.356462 
    0.359645     0.592298     0.506462 
    0.584583     0.448930     0.317734 
    0.292871     0.457822     0.435422 
    0.574620     0.612855     0.384545 
    0.642997     0.440840     0.594118 
    0.434398     0.697032     0.389971 
    0.692586     0.477941     0.423489 
    0.494223     0.461757     0.702219 
    0.511284     0.498457     0.504937 
    0.512586     0.677912     0.532425 
    0.590602     0.587641     0.659884 
    0.363174     0.358209     0.501899 
    0.446996     0.581186     0.632273 
    0.639580     0.584301     0.522088 
EA27421 15.962 15.114 14.166 90.00 90.00 90.00 Sym.group:    0
1.0
   15.961609     0.000000     0.000000
    0.000000    15.113701     0.000000
    0.000000     0.000000    14.166056
   W   B
  20   2
Direct
    0.462609     0.588200     0.656329 
    0.590077     0.661539     0.547415 
    0.429597     0.680072     0.525105 
    0.559826     0.660938     0.376136 
    0.389510     0.428697     0.601763 
    0.412645     0.600765     0.363408 
    0.305885     0.576247     0.618068 
    0.387226     0.312882     0.450638 
    0.661338     0.413479     0.616330 
    0.433075     0.442180     0.310140 
    0.507317     0.508132     0.484982 
    0.531555     0.331473     0.554129 
    0.579048     0.513884     0.315256 
    0.662129     0.427574     0.445355 
    0.715394     0.560339     0.564242 
    0.708621     0.581270     0.397534 
    0.535460     0.338824     0.374937 
    0.327770     0.478436     0.450951 
    0.282791     0.640934     0.472598 
    0.397348     0.258164     0.598656 
    0.594138     0.540486     0.632002 
    0.526645     0.455484     0.644025 
EA27916 15.955 14.477 14.211 90.00 90.00 90.00 Sym.group:    0
1.0
   15.955087     0.000000     0.000000
    0.000000    14.477262     0.000000
    0.000000     0.000000    14.210784
   W   B
  19   1
Direct
    0.446259     0.356581     0.641336 
    0.446199     0.297366     0.450767 
    0.270323     0.521595     0.407390 
    0.552861     0.390974     0.364411 
    0.434606     0.511816     0.691507 
    0.491376     0.500973     0.502089 
    0.579065     0.330551     0.541614 
    0.687383     0.649889     0.536223 
    0.556282     0.678917     0.451674 
    0.567174     0.612601     0.637144 
    0.668766     0.479219     0.569591 
    0.335433     0.406743     0.526310 
    0.442039     0.688105     0.563398 
    0.695233     0.367651     0.437085 
    0.390662     0.628283     0.398110 
    0.510514     0.578604     0.303423 
    0.398656     0.446199     0.355172 
    0.644092     0.532854     0.403378 
    0.329183     0.569153     0.569818 
    0.553896     0.451924     0.649560 
EA28177 16.255 14.466 14.376 90.00 90.00 90.00 Sym.group:    0
1.0
   16.255416     0.000000     0.000000
    0.000000    14.466112     0.000000
    0.000000     0.000000    14.376183
   W   B
  16   5
Direct
    0.562983     0.594017     0.634351 
    0.412877     0.510779     0.667237 
    0.474568     0.485848     0.505326 
    0.455219     0.538558     0.318789 
    0.290589     0.591711     0.597519 
    0.426063     0.660485     0.548619 
    0.339211     0.579232     0.425647 
    0.314891     0.435667     0.533873 
    0.564195     0.625076     0.443908 
    0.599327     0.471725     0.369547 
    0.410135     0.303758     0.470441 
    0.565530     0.338407     0.479615 
    0.708357     0.403626     0.507505 
    0.581970     0.420705     0.632009 
    0.434080     0.340632     0.631672 
    0.723058     0.552228     0.443564 
    0.377130     0.431284     0.392386 
    0.443622     0.669562     0.394876 
    0.662924     0.629708     0.548029 
    0.475006     0.394264     0.367538 
    0.678265     0.522728     0.587550 
EA28538 16.192 14.556 14.243 90.00 90.00 90.00 Sym.group:    0
1.0
   16.191747     0.000000     0.000000
    0.000000    14.556440     0.000000
    0.000000     0.000000    14.242638
   W   B
  16   5
Direct
    0.568673     0.586738     0.362275 
    0.417058     0.508903     0.327340 
    0.473256     0.487212     0.495328 
    0.452312     0.546649     0.679411 
    0.297629     0.595019     0.389877 
    0.434244     0.661199     0.441836 
    0.340712     0.588584     0.566121 
    0.314471     0.442575     0.464068 
    0.567209     0.623333     0.551664 
    0.596025     0.471385     0.634740 
    0.403672     0.308499     0.538944 
    0.557644     0.336994     0.527722 
    0.705016     0.396083     0.502709 
    0.579817     0.414439     0.372129 
    0.429142     0.339352     0.374314 
    0.724601     0.544023     0.560413 
    0.371870     0.440689     0.610263 
    0.446924     0.674924     0.596805 
    0.669464     0.620213     0.450413 
    0.468874     0.401344     0.638958 
    0.681387     0.511844     0.414668 
EA28759 16.285 15.316 15.504 90.00 90.00 90.00 Sym.group:    0
1.0
   16.284753     0.000000     0.000000
    0.000000    15.315632     0.000000
    0.000000     0.000000    15.503634
   W   B
  19   4
Direct
    0.554326     0.653788     0.524478 
    0.474720     0.614647     0.374913 
    0.323181     0.619721     0.446620 
    0.496589     0.429905     0.348120 
    0.276285     0.464852     0.475492 
    0.459677     0.509666     0.505649 
    0.337641     0.524816     0.609223 
    0.587275     0.550204     0.288859 
    0.624330     0.483592     0.441435 
    0.599064     0.473527     0.607646 
    0.500262     0.345792     0.507131 
    0.458870     0.407526     0.660472 
    0.663045     0.345392     0.524150 
    0.633014     0.624302     0.659886 
    0.643342     0.655005     0.392998 
    0.480884     0.578766     0.671892 
    0.709980     0.590242     0.523458 
    0.398552     0.675237     0.572746 
    0.354447     0.499347     0.345716 
    0.373881     0.390205     0.548821 
    0.569606     0.333126     0.627119 
    0.387248     0.387449     0.436503 
    0.593782     0.342891     0.406674 
EA29105 16.285 15.316 15.504 90.00 90.00 90.00 Sym.group:    0
1.0
   16.284753     0.000000     0.000000
    0.000000    15.315632     0.000000
    0.000000     0.000000    15.503634
   W   B
  19   4
Direct
    0.549064     0.656223     0.526125 
    0.477256     0.610515     0.366786 
    0.324664     0.616076     0.458214 
    0.492094     0.429528     0.343905 
    0.272927     0.472661     0.484041 
    0.460769     0.508116     0.503349 
    0.342694     0.527397     0.616941 
    0.587690     0.548816     0.284887 
    0.615449     0.485282     0.439966 
    0.596106     0.478121     0.607472 
    0.499168     0.340096     0.499399 
    0.457991     0.416541     0.660767 
    0.664004     0.341628     0.539746 
    0.630317     0.634156     0.657686 
    0.641172     0.654284     0.397711 
    0.477497     0.584844     0.673611 
    0.707531     0.594785     0.528699 
    0.616634     0.326398     0.394598 
    0.354751     0.509027     0.344796 
    0.374659     0.394545     0.548183 
    0.561803     0.334894     0.622835 
    0.383221     0.394582     0.435594 
    0.412539     0.641482     0.564690 
EA29718 14.287 14.419 12.546 90.00 90.00 90.00 Sym.group:    0
1.0
   14.286874     0.000000     0.000000
    0.000000    14.418828     0.000000
    0.000000     0.000000    12.546171
   W   B
  16   2
Direct
    0.646746     0.564908     0.391613 
    0.482312     0.658187     0.392318 
    0.341672     0.532257     0.391822 
    0.420722     0.361270     0.390236 
    0.609438     0.383661     0.391419 
    0.739833     0.454000     0.498208 
    0.618676     0.710420     0.500258 
    0.333897     0.677484     0.499131 
    0.278441     0.397730     0.498179 
    0.528933     0.260634     0.496939 
    0.424990     0.361464     0.609433 
    0.610765     0.385654     0.609092 
    0.642869     0.568061     0.609388 
    0.477916     0.654095     0.606399 
    0.343337     0.528442     0.609922 
    0.501310     0.500344     0.503500 
    0.498670     0.500307     0.320099 
    0.499473     0.501084     0.682050 
EA29890 16.912 15.729 13.961 90.00 90.00 90.00 Sym.group:    0
1.0
   16.911636     0.000000     0.000000
    0.000000    15.728508     0.000000
    0.000000     0.000000    13.961448
   W   B
  20   1
Direct
    0.628125     0.369037     0.540957 
    0.687312     0.399823     0.385129 
    0.628113     0.515623     0.628821 
    0.556031     0.656805     0.576142 
    0.493825     0.485531     0.527954 
    0.521289     0.413399     0.683002 
    0.450088     0.574458     0.677469 
    0.379951     0.375533     0.601638 
    0.485786     0.303851     0.519422 
    0.741663     0.468554     0.521519 
    0.627774     0.550308     0.432068 
    0.488941     0.648905     0.418149 
    0.389983     0.504299     0.380634 
    0.532120     0.395408     0.379938 
    0.403494     0.694066     0.583150 
    0.284763     0.406852     0.465921 
    0.336489     0.647388     0.436355 
    0.380988     0.325250     0.398570 
    0.627411     0.705187     0.429992 
    0.341876     0.533224     0.559292 
    0.513978     0.526500     0.353876 
EA30228 15.937 14.950 14.493 90.00 90.00 90.00 Sym.group:    0
1.0
   15.937041     0.000000     0.000000
    0.000000    14.949832     0.000000
    0.000000     0.000000    14.493354
   W   B
  16   5
Direct
    0.382841     0.491636     0.388752 
    0.426360     0.647439     0.336465 
    0.472149     0.541633     0.670919 
    0.400815     0.620566     0.510600 
    0.679175     0.440457     0.546064 
    0.536495     0.541702     0.309059 
    0.683153     0.608231     0.542616 
    0.522943     0.506730     0.495976 
    0.464033     0.346683     0.485142 
    0.560826     0.665490     0.429325 
    0.541525     0.392501     0.634931 
    0.266709     0.513401     0.526093 
    0.302111     0.371656     0.479926 
    0.618423     0.388148     0.393348 
    0.614510     0.289090     0.526687 
    0.551673     0.667950     0.603887 
    0.343145     0.540673     0.633358 
    0.607334     0.529135     0.639508 
    0.388835     0.447876     0.575259 
    0.490668     0.411278     0.355284 
    0.646277     0.537724     0.416801 
EA30739 15.750 14.853 14.527 90.00 90.00 90.00 Sym.group:    0
1.0
   15.750418     0.000000     0.000000
    0.000000    14.852948     0.000000
    0.000000     0.000000    14.527287
   W   B
  16   2
Direct
    0.625864     0.549619     0.606060 
    0.563107     0.385578     0.591872 
    0.709326     0.420700     0.526799 
    0.707478     0.546478     0.434559 
    0.587171     0.395869     0.407886 
    0.431402     0.416689     0.346500 
    0.585489     0.652890     0.483046 
    0.368316     0.576399     0.614407 
    0.339786     0.362222     0.467252 
    0.478356     0.508501     0.492420 
    0.422814     0.682549     0.502660 
    0.313776     0.530413     0.456858 
    0.474619     0.290148     0.490066 
    0.414149     0.589930     0.347754 
    0.573962     0.550418     0.342203 
    0.407824     0.400007     0.622890 
    0.502428     0.624273     0.611792 
    0.494133     0.517316     0.654975 
EA31042 16.235 15.197 14.209 90.00 90.00 90.00 Sym.group:    0
1.0
   16.235327     0.000000     0.000000
    0.000000    15.196911     0.000000
    0.000000     0.000000    14.209132
   W   B
  18   1
Direct
    0.257934     0.531409     0.522511 
    0.399631     0.449756     0.595300 
    0.522948     0.690356     0.583493 
    0.635153     0.574605     0.593974 
    0.703486     0.433087     0.580804 
    0.556455     0.425455     0.651253 
    0.467353     0.303683     0.577246 
    0.293430     0.389581     0.482093 
    0.376153     0.538267     0.410929 
    0.517031     0.547293     0.316174 
    0.603630     0.646335     0.416941 
    0.523884     0.501179     0.484581 
    0.598993     0.342206     0.491172 
    0.679013     0.491092     0.420048 
    0.461081     0.691388     0.419548 
    0.577967     0.397925     0.327018 
    0.438786     0.368787     0.417693 
    0.388161     0.619221     0.567068 
    0.498912     0.558372     0.642153 
EA31220 14.789 14.419 15.290 90.00 90.00 90.00 Sym.group:    0
1.0
   14.789333     0.000000     0.000000
    0.000000    14.418619     0.000000
    0.000000     0.000000    15.289713
   W   B
  16   5
Direct
    0.640040     0.506301     0.394708 
    0.393615     0.325102     0.510121 
    0.328577     0.414340     0.387675 
    0.570197     0.358461     0.459609 
    0.733962     0.450953     0.518879 
    0.681729     0.535353     0.642607 
    0.466251     0.497154     0.489461 
    0.370215     0.433435     0.643556 
    0.326271     0.599508     0.425086 
    0.402663     0.729888     0.485586 
    0.542816     0.641614     0.551687 
    0.522047     0.508559     0.668702 
    0.365928     0.603093     0.594221 
    0.478757     0.456696     0.327190 
    0.449667     0.288315     0.362058 
    0.490453     0.637041     0.380008 
    0.623990     0.648284     0.434192 
    0.682608     0.594630     0.510197 
    0.505636     0.380131     0.594551 
    0.615152     0.410768     0.597275 
    0.309426     0.480372     0.522633 
EA31536 16.109 15.828 14.928 90.00 90.00 90.00 Sym.group:    0
1.0
   16.108760     0.000000     0.000000
    0.000000    15.827788     0.000000
    0.000000     0.000000    14.927673
   W   B
  20   2
Direct
    0.650085     0.351947     0.557970 
    0.683205     0.600150     0.510739 
    0.538440     0.494799     0.519181 
    0.665621     0.622181     0.355611 
    0.670020     0.459312     0.428915 
    0.534121     0.327031     0.459079 
    0.660680     0.490355     0.635878 
    0.541400     0.540487     0.324468 
    0.535696     0.651515     0.457911 
    0.427224     0.621273     0.600670 
    0.375224     0.698439     0.469816 
    0.374998     0.460325     0.575524 
    0.395771     0.551213     0.418377 
    0.279059     0.591265     0.555223 
    0.525682     0.522714     0.706689 
    0.504735     0.372760     0.637591 
    0.411886     0.284898     0.552222 
    0.357994     0.375593     0.436111 
    0.574052     0.647475     0.635727 
    0.255893     0.492898     0.437556 
    0.568678     0.413400     0.348084 
    0.469537     0.429966     0.376658 
EA31790 17.224 15.105 14.296 90.00 90.00 90.00 Sym.group:    0
1.0
   17.223517     0.000000     0.000000
    0.000000    15.105475     0.000000
    0.000000     0.000000    14.296455
   W   B
  20   4
Direct
    0.363738     0.542589     0.676393 
    0.511858     0.577367     0.642705 
    0.363862     0.656242     0.542953 
    0.417734     0.494317     0.498778 
    0.579958     0.506450     0.504052 
    0.512271     0.388797     0.379328 
    0.650570     0.461792     0.338445 
    0.507935     0.548628     0.337282 
    0.370239     0.487620     0.328282 
    0.633328     0.410775     0.640746 
    0.729238     0.519545     0.508490 
    0.667296     0.618151     0.387623 
    0.642601     0.676183     0.543467 
    0.668054     0.567919     0.664464 
    0.503813     0.660740     0.482805 
    0.485434     0.408153     0.641704 
    0.344816     0.375382     0.580589 
    0.679585     0.367003     0.470866 
    0.267600     0.521351     0.562266 
    0.445960     0.291292     0.501211 
    0.402331     0.618250     0.397466 
    0.315408     0.576633     0.431340 
    0.377207     0.371471     0.413093 
    0.559161     0.353351     0.525649 
EA32167 17.885 15.737 14.122 90.00 90.00 90.00 Sym.group:    0
1.0
   17.884918     0.000000     0.000000
    0.000000    15.736512     0.000000
    0.000000     0.000000    14.122027
   W   B
  20   3
Direct
    0.702305     0.514084     0.564164 
    0.577641     0.616624     0.562531 
    0.346132     0.584023     0.595919 
    0.457934     0.510086     0.506973 
    0.454403     0.331436     0.563322 
    0.332321     0.419618     0.543393 
    0.440450     0.697017     0.542358 
    0.448532     0.462925     0.686751 
    0.568634     0.525052     0.712837 
    0.373450     0.616629     0.403433 
    0.364111     0.458461     0.366129 
    0.594583     0.518186     0.402520 
    0.514500     0.662607     0.411581 
    0.503206     0.387129     0.388498 
    0.738898     0.521728     0.405797 
    0.382330     0.309233     0.421532 
    0.264006     0.538726     0.466029 
    0.662876     0.380817     0.435619 
    0.572446     0.275482     0.490388 
    0.582254     0.426194     0.574118 
    0.470407     0.595550     0.648757 
    0.475525     0.530692     0.343356 
    0.673058     0.617703     0.463997 
EA32460 16.604 15.471 14.530 90.00 90.00 90.00 Sym.group:    0
1.0
   16.604417     0.000000     0.000000
    0.000000    15.471443     0.000000
    0.000000     0.000000    14.529794
   W   B
  20   5
Direct
    0.533364     0.518924     0.298494 
    0.474625     0.388244     0.387683 
    0.562152     0.657045     0.390972 
    0.699864     0.617863     0.484271 
    0.566565     0.518791     0.494909 
    0.634487     0.400347     0.410959 
    0.712526     0.471256     0.558445 
    0.568625     0.266584     0.465029 
    0.300366     0.427122     0.388786 
    0.614449     0.443313     0.669598 
    0.583952     0.697852     0.556717 
    0.273378     0.572431     0.477251 
    0.257718     0.459458     0.578647 
    0.403702     0.498469     0.508752 
    0.339434     0.596306     0.648244 
    0.502440     0.570999     0.652008 
    0.508219     0.368544     0.570974 
    0.394657     0.460139     0.686221 
    0.439467     0.660070     0.513826 
    0.353486     0.342249     0.505525 
    0.404187     0.500537     0.337842 
    0.642436     0.341091     0.555256 
    0.647426     0.546397     0.367584 
    0.640079     0.579424     0.617919 
    0.442398     0.596549     0.374087 
EA33061 16.765 13.998 14.106 90.00 90.00 90.00 Sym.group:    0
1.0
   16.765182     0.000000     0.000000
    0.000000    13.998195     0.000000
    0.000000     0.000000    14.105896
   W   B
  16   4
Direct
    0.393171     0.448277     0.599992 
    0.374046     0.528704     0.421055 
    0.466098     0.315000     0.506117 
    0.329278     0.351443     0.448716 
    0.617593     0.373564     0.407554 
    0.472939     0.407854     0.353896 
    0.323039     0.622225     0.560970 
    0.683042     0.539971     0.424848 
    0.526439     0.502965     0.505327 
    0.603927     0.568874     0.692590 
    0.670571     0.461747     0.577732 
    0.613384     0.655904     0.541368 
    0.462734     0.674226     0.471604 
    0.529550     0.415615     0.675629 
    0.458922     0.613248     0.638145 
    0.254896     0.466552     0.538826 
    0.585164     0.349514     0.554823 
    0.574518     0.509798     0.341466 
    0.488560     0.570675     0.349346 
    0.572131     0.623841     0.389997 
EA33143 16.954 14.509 14.812 90.00 90.00 90.00 Sym.group:    0
1.0
   16.954184     0.000000     0.000000
    0.000000    14.508559     0.000000
    0.000000     0.000000    14.811829
   W   B
  20   5
Direct
    0.479315     0.331038     0.550526 
    0.322663     0.372868     0.591430 
    0.343873     0.371126     0.426784 
    0.504204     0.614444     0.651565 
    0.505819     0.451572     0.671439 
    0.424197     0.501282     0.520468 
    0.275549     0.517051     0.504092 
    0.351204     0.513811     0.680643 
    0.351694     0.648734     0.596032 
    0.613892     0.659887     0.402082 
    0.472840     0.591915     0.360134 
    0.697392     0.496458     0.387365 
    0.479124     0.687442     0.492737 
    0.641897     0.533194     0.642137 
    0.572854     0.508314     0.484464 
    0.715172     0.616472     0.506667 
    0.478351     0.305726     0.385966 
    0.717983     0.421234     0.533439 
    0.623451     0.323897     0.458147 
    0.573817     0.413988     0.324951 
    0.602194     0.381196     0.592119 
    0.354399     0.515376     0.378752 
    0.361057     0.615806     0.441566 
    0.600253     0.658007     0.553697 
    0.436805     0.449163     0.362798 
EA33480 16.741 14.778 14.508 90.00 90.00 90.00 Sym.group:    0
1.0
   16.741109     0.000000     0.000000
    0.000000    14.778152     0.000000
    0.000000     0.000000    14.508452
   W   B
  20   5
Direct
    0.466791     0.369285     0.595793 
    0.328426     0.366804     0.488009 
    0.493903     0.678699     0.589369 
    0.482778     0.538748     0.670670 
    0.424070     0.523292     0.506972 
    0.275363     0.523275     0.492406 
    0.334813     0.592993     0.647448 
    0.350375     0.684955     0.510022 
    0.615875     0.592103     0.349419 
    0.470339     0.519243     0.319031 
    0.711130     0.460369     0.401992 
    0.483442     0.658588     0.409971 
    0.629044     0.590195     0.625572 
    0.573644     0.486281     0.478727 
    0.722231     0.606489     0.487537 
    0.502051     0.241892     0.500388 
    0.710728     0.455554     0.577008 
    0.620114     0.314867     0.559506 
    0.611715     0.332909     0.390990 
    0.460030     0.369951     0.399181 
    0.584269     0.439108     0.637982 
    0.352016     0.468830     0.376605 
    0.357258     0.585105     0.382569 
    0.597643     0.651157     0.490464 
    0.341955     0.449310     0.612372 
EA34059 16.628 14.155 14.091 90.00 90.00 90.00 Sym.group:    0
1.0
   16.627921     0.000000     0.000000
    0.000000    14.154769     0.000000
    0.000000     0.000000    14.091005
   W   B
  16   4
Direct
    0.619021     0.488780     0.403613 
    0.620331     0.518212     0.598577 
    0.542087     0.646747     0.409653 
    0.686471     0.640205     0.494976 
    0.374397     0.649992     0.499472 
    0.523461     0.658973     0.586749 
    0.671793     0.361732     0.543165 
    0.306621     0.508802     0.561661 
    0.476696     0.504424     0.495932 
    0.405987     0.339575     0.343258 
    0.336967     0.488264     0.389930 
    0.383047     0.352725     0.518428 
    0.527265     0.368913     0.620647 
    0.484734     0.481144     0.302522 
    0.536662     0.340446     0.442447 
    0.755219     0.497286     0.484554 
    0.422210     0.599826     0.367142 
    0.413696     0.578344     0.631519 
    0.497812     0.521143     0.665182 
    0.415524     0.454467     0.640573 
EA34171 16.646 15.729 14.076 90.00 90.00 90.00 Sym.group:    0
1.0
   16.646198     0.000000     0.000000
    0.000000    15.728937     0.000000
    0.000000     0.000000    14.075935
   W   B
  20   4
Direct
    0.725616     0.458243     0.509992 
    0.631628     0.393221     0.358152 
    0.670779     0.629498     0.490894 
    0.682987     0.535809     0.350719 
    0.691605     0.534519     0.651062 
    0.578103     0.507641     0.499697 
    0.492428     0.354669     0.471804 
    0.510930     0.479824     0.322111 
    0.586094     0.409357     0.645375 
    0.520219     0.633045     0.381908 
    0.379503     0.559479     0.334351 
    0.422455     0.507990     0.500339 
    0.503758     0.681787     0.541313 
    0.371079     0.637594     0.608797 
    0.318932     0.372932     0.468704 
    0.283601     0.590411     0.475592 
    0.423769     0.381696     0.637874 
    0.390424     0.257740     0.537243 
    0.304940     0.479013     0.605942 
    0.492035     0.535130     0.665081 
    0.625586     0.365427     0.507640 
    0.401091     0.419016     0.366200 
    0.397392     0.658039     0.447632 
    0.595045     0.617919     0.621581 
EA34529 17.057 15.125 14.335 90.00 90.00 90.00 Sym.group:    0
1.0
   17.056881     0.000000     0.000000
    0.000000    15.125040     0.000000
    0.000000     0.000000    14.334823
   W   B
  19   4
Direct
    0.596777     0.299180     0.415719 
    0.470911     0.335746     0.497160 
    0.377334     0.401862     0.349030 
    0.433751     0.576873     0.303425 
    0.756938     0.550875     0.509796 
    0.614127     0.461014     0.471890 
    0.490648     0.673312     0.563133 
    0.643903     0.634867     0.543002 
    0.428052     0.554869     0.665456 
    0.321935     0.545165     0.403594 
    0.451610     0.506147     0.489774 
    0.369493     0.382628     0.632659 
    0.518234     0.421266     0.648373 
    0.298769     0.513499     0.593569 
    0.664966     0.474013     0.628603 
    0.690632     0.562611     0.369467 
    0.617148     0.311411     0.579080 
    0.515182     0.432148     0.335300 
    0.550326     0.620086     0.404000 
    0.369440     0.621629     0.535517 
    0.341817     0.406368     0.490348 
    0.418374     0.647834     0.433980 
    0.559629     0.566593     0.637127 
EA34878 16.051 16.098 14.828 90.00 90.00 90.00 Sym.group:    0
1.0
   16.050784     0.000000     0.000000
    0.000000    16.098324     0.000000
    0.000000     0.000000    14.827825
   W   B
  20   3
Direct
    0.672227     0.545622     0.581008 
    0.664158     0.554642     0.410138 
    0.266712     0.548812     0.581502 
    0.333005     0.673476     0.561951 
    0.471875     0.647644     0.478422 
    0.583349     0.679770     0.358108 
    0.351862     0.539618     0.439367 
    0.505485     0.532475     0.348571 
    0.298219     0.391200     0.400938 
    0.363316     0.415977     0.551068 
    0.449757     0.365703     0.397195 
    0.476110     0.304794     0.573041 
    0.630572     0.399114     0.625995 
    0.619225     0.414489     0.353441 
    0.521769     0.476739     0.510229 
    0.601106     0.320053     0.476939 
    0.422057     0.561874     0.631519 
    0.484619     0.410566     0.686958 
    0.377123     0.461183     0.286616 
    0.628034     0.692193     0.505298 
    0.556542     0.520842     0.660193 
    0.672685     0.437618     0.489328 
    0.550193     0.605596     0.592175 
EA35226 16.051 16.098 14.828 90.00 90.00 90.00 Sym.group:    0
1.0
   16.050784     0.000000     0.000000
    0.000000    16.098324     0.000000
    0.000000     0.000000    14.827825
   W   B
  19   4
Direct
    0.674629     0.547038     0.575505 
    0.676121     0.554347     0.405902 
    0.259548     0.551770     0.575423 
    0.329396     0.671830     0.561273 
    0.474868     0.650544     0.474442 
    0.583845     0.668830     0.356767 
    0.350997     0.539467     0.439430 
    0.505379     0.535888     0.346500 
    0.301053     0.399043     0.388718 
    0.359543     0.423006     0.549644 
    0.452419     0.375163     0.400389 
    0.476401     0.304711     0.556291 
    0.627530     0.396263     0.621533 
    0.605064     0.415871     0.350715 
    0.523075     0.476844     0.517269 
    0.610099     0.317141     0.479480 
    0.426208     0.569903     0.627356 
    0.482587     0.407025     0.688307 
    0.560339     0.530655     0.707575 
    0.612587     0.646706     0.495290 
    0.384128     0.469681     0.314046 
    0.670128     0.438644     0.484117 
    0.554059     0.609630     0.584032 
EA35526 16.727 16.218 14.402 90.00 90.00 90.00 Sym.group:    0
1.0
   16.727345     0.000000     0.000000
    0.000000    16.218237     0.000000
    0.000000     0.000000    14.402432
   W   B
  20   4
Direct
    0.541931     0.360456     0.375410 
    0.305457     0.508189     0.617531 
    0.458676     0.749651     0.489557 
    0.372463     0.309487     0.466440 
    0.405407     0.445008     0.403105 
    0.261121     0.405744     0.502459 
    0.287279     0.533651     0.424702 
    0.562827     0.651131     0.440026 
    0.571810     0.493148     0.316128 
    0.657885     0.373419     0.509343 
    0.494569     0.352040     0.554318 
    0.705105     0.489896     0.607154 
    0.543327     0.496002     0.502871 
    0.688592     0.525551     0.436740 
    0.521008     0.650483     0.612373 
    0.455904     0.486726     0.655974 
    0.592895     0.412477     0.677580 
    0.688041     0.391381     0.343712 
    0.402407     0.593963     0.517789 
    0.406499     0.666984     0.368008 
    0.373701     0.399187     0.583795 
    0.589269     0.544402     0.652306 
    0.635454     0.598513     0.559566 
    0.478373     0.562508     0.383112 
EA35997 16.220 15.385 14.477 90.00 90.00 90.00 Sym.group:    0
1.0
   16.220050     0.000000     0.000000
    0.000000    15.384889     0.000000
    0.000000     0.000000    14.476863
   W   B
  20   1
Direct
    0.352418     0.441966     0.424357 
    0.453087     0.514566     0.293348 
    0.319227     0.416544     0.619932 
    0.495115     0.518439     0.494937 
    0.361347     0.601981     0.437513 
    0.486322     0.656928     0.338721 
    0.457385     0.706306     0.529857 
    0.254327     0.525079     0.533415 
    0.374899     0.590011     0.625180 
    0.540304     0.627289     0.634951 
    0.594075     0.669639     0.456113 
    0.461456     0.460063     0.665856 
    0.446443     0.350852     0.526701 
    0.626560     0.493239     0.670834 
    0.591904     0.284014     0.488324 
    0.498727     0.373426     0.361225 
    0.678325     0.428567     0.509756 
    0.604477     0.513131     0.377768 
    0.688319     0.586847     0.565003 
    0.647780     0.349615     0.358136 
    0.567505     0.391495     0.588076 
EA36369 16.447 14.600 14.946 90.00 90.00 90.00 Sym.group:    0
1.0
   16.447117     0.000000     0.000000
    0.000000    14.600323     0.000000
    0.000000     0.000000    14.946137
   W   B
  20   1
Direct
    0.595342     0.368049     0.417227 
    0.519212     0.479949     0.297646 
    0.637997     0.336177     0.603795 
    0.509626     0.516240     0.494361 
    0.654069     0.525003     0.416201 
    0.555528     0.633572     0.329686 
    0.628092     0.675440     0.503946 
    0.728251     0.401184     0.502957 
    0.660396     0.528521     0.596524 
    0.535108     0.650368     0.621519 
    0.483585     0.708018     0.449812 
    0.537764     0.451937     0.659363 
    0.491505     0.334194     0.534663 
    0.410445     0.562687     0.675101 
    0.331021     0.338008     0.519923 
    0.429679     0.373606     0.379767 
    0.316155     0.520354     0.536681 
    0.398440     0.559288     0.393020 
    0.380714     0.677499     0.571411 
    0.288772     0.426576     0.398114 
    0.408302     0.433330     0.598285 
EA36628 17.908 14.439 14.103 90.00 90.00 90.00 Sym.group:    0
1.0
   17.908168     0.000000     0.000000
    0.000000    14.439203     0.000000
    0.000000     0.000000    14.102803
   W   B
  17   5
Direct
    0.274066     0.572907     0.418300 
    0.535969     0.528992     0.294667 
    0.598193     0.643247     0.557225 
    0.674041     0.407605     0.517228 
    0.726122     0.561515     0.558467 
    0.658411     0.545289     0.407430 
    0.255920     0.506508     0.562662 
    0.482676     0.589880     0.669442 
    0.392262     0.480643     0.582707 
    0.329050     0.411098     0.438088 
    0.448706     0.329898     0.529320 
    0.532526     0.493522     0.496380 
    0.612959     0.498786     0.653995 
    0.416115     0.557570     0.402968 
    0.470505     0.383484     0.370996 
    0.345788     0.642172     0.552042 
    0.542706     0.664125     0.382311 
    0.501819     0.430043     0.645293 
    0.562782     0.365152     0.588475 
    0.597030     0.410021     0.381187 
    0.566310     0.339615     0.467262 
    0.476044     0.637930     0.523556 
EA36933 17.502 15.207 14.558 90.00 90.00 90.00 Sym.group:    0
1.0
   17.502095     0.000000     0.000000
    0.000000    15.207030     0.000000
    0.000000     0.000000    14.557766
   W   B
  20   3
Direct
    0.351707     0.616509     0.483443 
    0.464583     0.491451     0.496197 
    0.256378     0.502256     0.487084 
    0.348405     0.493337     0.619633 
    0.348093     0.376497     0.490896 
    0.435154     0.358158     0.650668 
    0.527992     0.660673     0.677936 
    0.369522     0.497833     0.362833 
    0.493247     0.677362     0.511271 
    0.478658     0.624787     0.347889 
    0.602160     0.566506     0.563122 
    0.694012     0.527278     0.433374 
    0.609057     0.665806     0.406401 
    0.473082     0.296403     0.500455 
    0.720136     0.378347     0.488223 
    0.585561     0.407267     0.423700 
    0.584220     0.393382     0.598858 
    0.454036     0.353682     0.350070 
    0.710642     0.467543     0.615756 
    0.491003     0.506526     0.685682 
    0.420973     0.612618     0.617734 
    0.582205     0.539417     0.355326 
    0.499174     0.486363     0.333449 
EA37252 17.007 14.738 14.106 90.00 90.00 90.00 Sym.group:    0
1.0
   17.006830     0.000000     0.000000
    0.000000    14.737613     0.000000
    0.000000     0.000000    14.105736
   W   B
  19   5
Direct
    0.504293     0.403588     0.338072 
    0.603716     0.510579     0.451981 
    0.688988     0.377832     0.516053 
    0.523913     0.338870     0.505480 
    0.754914     0.528911     0.526271 
    0.661625     0.657226     0.495264 
    0.664677     0.517347     0.649850 
    0.540376     0.604795     0.610044 
    0.303298     0.425544     0.470024 
    0.449741     0.502269     0.499142 
    0.363235     0.623689     0.407205 
    0.405741     0.695656     0.580193 
    0.304107     0.588351     0.565784 
    0.392419     0.322277     0.569939 
    0.484782     0.441524     0.670113 
    0.384586     0.306473     0.400279 
    0.507424     0.683005     0.446104 
    0.370467     0.478694     0.327946 
    0.607604     0.638898     0.335255 
    0.616154     0.366596     0.394451 
    0.363461     0.467220     0.620449 
    0.600134     0.396430     0.617563 
    0.490069     0.560903     0.350802 
    0.414277     0.563323     0.651738 
EA37587 16.973 14.716 13.958 90.00 90.00 90.00 Sym.group:    0
1.0
   16.973171     0.000000     0.000000
    0.000000    14.715633     0.000000
    0.000000     0.000000    13.958444
   W   B
  19   5
Direct
    0.504185     0.389901     0.659941 
    0.602415     0.493173     0.560661 
    0.681998     0.372436     0.462457 
    0.509591     0.339368     0.482682 
    0.752489     0.504430     0.532931 
    0.682495     0.645164     0.507979 
    0.564047     0.602941     0.398978 
    0.285133     0.466692     0.502357 
    0.442523     0.501421     0.501679 
    0.370653     0.656833     0.562655 
    0.321903     0.605144     0.400326 
    0.359190     0.329686     0.437696 
    0.373820     0.336805     0.608169 
    0.517972     0.673457     0.558762 
    0.355951     0.504262     0.654425 
    0.639060     0.618503     0.671795 
    0.495311     0.568731     0.688286 
    0.439456     0.557651     0.308848 
    0.575294     0.442042     0.353320 
    0.607018     0.338168     0.584476 
    0.353736     0.462085     0.369329 
    0.444166     0.413999     0.354245 
    0.679721     0.518458     0.409743 
    0.441872     0.658650     0.428262 
EA37946 17.234 14.372 14.432 90.00 90.00 90.00 Sym.group:    0
1.0
   17.233766     0.000000     0.000000
    0.000000    14.372153     0.000000
    0.000000     0.000000    14.431997
   W   B
  19   5
Direct
    0.510933     0.600890     0.336515 
    0.603724     0.517789     0.456013 
    0.663225     0.657561     0.545783 
    0.490482     0.668146     0.497385 
    0.748401     0.526951     0.497455 
    0.693608     0.374862     0.527819 
    0.564006     0.410114     0.616135 
    0.287559     0.498636     0.468494 
    0.443830     0.490573     0.494037 
    0.394840     0.317373     0.440532 
    0.328742     0.375823     0.585701 
    0.338495     0.653262     0.520809 
    0.374149     0.638202     0.359825 
    0.538179     0.321929     0.465549 
    0.376371     0.464581     0.335121 
    0.663028     0.385447     0.366221 
    0.519914     0.417540     0.329419 
    0.430065     0.453445     0.682906 
    0.551476     0.579821     0.635959 
    0.599514     0.673881     0.419328 
    0.339122     0.529341     0.606802 
    0.420656     0.594017     0.623955 
    0.668233     0.511487     0.608787 
    0.451446     0.338327     0.579451 
EA38276 16.882 14.754 14.094 90.00 90.00 90.00 Sym.group:    0
1.0
   16.882010     0.000000     0.000000
    0.000000    14.754122     0.000000
    0.000000     0.000000    14.094032
   W   B
  20   4
Direct
    0.489363     0.422862     0.688175 
    0.398893     0.516455     0.552500 
    0.306089     0.378920     0.508121 
    0.472903     0.348178     0.517168 
    0.247723     0.526959     0.471091 
    0.343608     0.655364     0.468922 
    0.336272     0.488970     0.350291 
    0.460201     0.590674     0.371832 
    0.697766     0.425541     0.541725 
    0.559345     0.502520     0.504753 
    0.644266     0.633822     0.572614 
    0.600794     0.684200     0.391694 
    0.697597     0.570942     0.419192 
    0.614337     0.312550     0.460151 
    0.503886     0.421812     0.348691 
    0.500118     0.686467     0.523112 
    0.636260     0.495742     0.681023 
    0.510556     0.590800     0.682742 
    0.653332     0.418369     0.340099 
    0.387468     0.673750     0.636607 
    0.381609     0.377215     0.627688 
    0.387031     0.362806     0.395464 
    0.584107     0.545310     0.341319 
    0.586480     0.369771     0.605029 
EA38592 16.433 15.116 14.493 90.00 90.00 90.00 Sym.group:    0
1.0
   16.433304     0.000000     0.000000
    0.000000    15.115893     0.000000
    0.000000     0.000000    14.492930
   W   B
  20   4
Direct
    0.601503     0.538078     0.408379 
    0.565737     0.684821     0.335273 
    0.742215     0.441890     0.470749 
    0.606891     0.714573     0.486446 
    0.449854     0.668278     0.662886 
    0.446526     0.574630     0.327575 
    0.460915     0.665514     0.488776 
    0.323108     0.605546     0.411768 
    0.344346     0.441264     0.339365 
    0.458510     0.492460     0.502450 
    0.427463     0.503148     0.691429 
    0.362389     0.342381     0.472983 
    0.514045     0.316396     0.504232 
    0.554324     0.408531     0.648663 
    0.640135     0.365988     0.379719 
    0.658892     0.322448     0.546064 
    0.709263     0.590564     0.513439 
    0.567144     0.575178     0.602498 
    0.334506     0.586982     0.585938 
    0.491098     0.403337     0.352319 
    0.663659     0.466890     0.586417 
    0.426152     0.376852     0.609906 
    0.309762     0.476474     0.484571 
    0.341562     0.437773     0.588154 
EA38939 15.970 16.382 15.034 90.00 90.00 90.00 Sym.group:    0
1.0
   15.970457     0.000000     0.000000
    0.000000    16.382203     0.000000
    0.000000     0.000000    15.034253
   W   B
  19   5
Direct
    0.410740     0.545776     0.637946 
    0.602206     0.368010     0.558796 
    0.529566     0.504256     0.501038 
    0.540726     0.462656     0.706156 
    0.441261     0.385525     0.595815 
    0.651619     0.560919     0.386460 
    0.400645     0.377670     0.429725 
    0.396447     0.531196     0.372460 
    0.288017     0.444996     0.591419 
    0.257018     0.477361     0.441090 
    0.574949     0.670489     0.472261 
    0.528510     0.617833     0.314110 
    0.324267     0.603287     0.510120 
    0.561545     0.612392     0.631971 
    0.543630     0.320361     0.390519 
    0.492320     0.259300     0.516881 
    0.672729     0.490326     0.646849 
    0.445097     0.695118     0.571869 
    0.533995     0.467103     0.321465 
    0.389051     0.488223     0.508657 
    0.676880     0.476374     0.501804 
    0.663053     0.575836     0.534704 
    0.444876     0.643572     0.435674 
    0.630854     0.421417     0.422217 
EA39263 16.307 15.225 14.406 90.00 90.00 90.00 Sym.group:    0
1.0
   16.307407     0.000000     0.000000
    0.000000    15.225229     0.000000
    0.000000     0.000000    14.406060
   W   B
  20   4
Direct
    0.600410     0.555548     0.418500 
    0.556196     0.701042     0.357264 
    0.751903     0.473593     0.475048 
    0.586469     0.722808     0.516203 
    0.432331     0.648297     0.675536 
    0.448025     0.580107     0.329537 
    0.445214     0.659847     0.500250 
    0.315989     0.594417     0.414799 
    0.358520     0.447574     0.328419 
    0.456439     0.486578     0.497976 
    0.421443     0.478228     0.687464 
    0.373337     0.333142     0.454436 
    0.527218     0.317733     0.486554 
    0.657727     0.388953     0.373787 
    0.675162     0.339464     0.533706 
    0.702199     0.610181     0.531028 
    0.556363     0.574116     0.611544 
    0.323238     0.561579     0.588551 
    0.508098     0.410791     0.344898 
    0.557085     0.402663     0.636930 
    0.664524     0.479411     0.588795 
    0.431184     0.359036     0.594873 
    0.309259     0.460411     0.476354 
    0.341668     0.414481     0.577550 
EA39599 16.429 14.933 14.606 90.00 90.00 90.00 Sym.group:    0
1.0
   16.428912     0.000000     0.000000
    0.000000    14.933369     0.000000
    0.000000     0.000000    14.606471
   W   B
  20   4
Direct
    0.722110     0.480193     0.562705 
    0.634289     0.659378     0.578750 
    0.580171     0.491985     0.508010 
    0.599827     0.370327     0.658576 
    0.494292     0.335739     0.537551 
    0.460088     0.467673     0.648201 
    0.302405     0.485345     0.625983 
    0.610707     0.529142     0.682088 
    0.665106     0.340905     0.493468 
    0.536888     0.664807     0.452778 
    0.420422     0.501553     0.470261 
    0.295576     0.600983     0.489541 
    0.266119     0.431437     0.477577 
    0.540652     0.374992     0.367009 
    0.386934     0.351970     0.406291 
    0.405626     0.624574     0.356929 
    0.570421     0.550938     0.333947 
    0.693200     0.439379     0.366072 
    0.703751     0.594579     0.440426 
    0.445479     0.473836     0.279694 
    0.366415     0.374124     0.563418 
    0.494005     0.604652     0.585874 
    0.388045     0.594931     0.602914 
    0.417470     0.656556     0.511939 
EA40168 15.893 14.955 14.289 90.00 90.00 90.00 Sym.group:    0
1.0
   15.893426     0.000000     0.000000
    0.000000    14.955487     0.000000
    0.000000     0.000000    14.289272
   W   B
  17   3
Direct
    0.515402     0.736762     0.528591 
    0.552005     0.612369     0.638097 
    0.569822     0.362375     0.393142 
    0.514607     0.498990     0.500710 
    0.582970     0.513469     0.315019 
    0.621436     0.630252     0.462070 
    0.574586     0.430809     0.664968 
    0.695054     0.478018     0.411399 
    0.683254     0.530161     0.586959 
    0.437235     0.365298     0.646658 
    0.341418     0.471599     0.562531 
    0.418415     0.355541     0.455661 
    0.284439     0.440473     0.393852 
    0.458678     0.630935     0.397512 
    0.399950     0.625483     0.563061 
    0.302931     0.591980     0.418632 
    0.425260     0.474995     0.330775 
    0.538512     0.344646     0.543606 
    0.449854     0.508672     0.660340 
    0.634170     0.397178     0.526417 
EA40510 15.953 15.115 14.633 90.00 90.00 90.00 Sym.group:    0
1.0
   15.953054     0.000000     0.000000
    0.000000    15.115470     0.000000
    0.000000     0.000000    14.633374
   W   B
  17   3
Direct
    0.483556     0.735522     0.467475 
    0.559077     0.620091     0.377042 
    0.569442     0.377440     0.624395 
    0.513122     0.499883     0.501796 
    0.540836     0.525093     0.692623 
    0.586006     0.644666     0.561333 
    0.615857     0.447285     0.364785 
    0.677558     0.509666     0.631622 
    0.687791     0.562655     0.463285 
    0.490758     0.358098     0.352156 
    0.365707     0.444579     0.404362 
    0.434958     0.343826     0.528905 
    0.279104     0.405549     0.547960 
    0.418468     0.621869     0.581158 
    0.398660     0.606281     0.409277 
    0.279545     0.556918     0.527394 
    0.396222     0.461253     0.642083 
    0.570238     0.355698     0.475288 
    0.482771     0.499918     0.335334 
    0.650325     0.423711     0.511727 
EA40800 15.965 14.764 14.073 90.00 90.00 90.00 Sym.group:    0
1.0
   15.964836     0.000000     0.000000
    0.000000    14.763611     0.000000
    0.000000     0.000000    14.072662
   W   B
  17   4
Direct
    0.729078     0.436772     0.548676 
    0.642751     0.583409     0.468358 
    0.606843     0.404293     0.404315 
    0.606618     0.519582     0.633152 
    0.585396     0.357200     0.572058 
    0.547377     0.688049     0.601040 
    0.489689     0.506481     0.494600 
    0.446368     0.572263     0.668799 
    0.353074     0.438659     0.661339 
    0.747690     0.482287     0.395740 
    0.327409     0.549499     0.532721 
    0.349287     0.393661     0.478523 
    0.454447     0.395108     0.322401 
    0.530753     0.702915     0.435685 
    0.334449     0.493122     0.327106 
    0.510646     0.549887     0.324430 
    0.386890     0.636043     0.384935 
    0.448819     0.359998     0.580071 
    0.491524     0.430717     0.663473 
    0.482342     0.342157     0.466062 
    0.428550     0.657898     0.536517 
EA40944 17.638 15.333 15.585 90.00 90.00 90.00 Sym.group:    0
1.0
   17.638130     0.000000     0.000000
    0.000000    15.333138     0.000000
    0.000000     0.000000    15.585070
   W   B
  20   5
Direct
    0.562703     0.619634     0.367367 
    0.705382     0.434676     0.574289 
    0.695279     0.579980     0.451189 
    0.674017     0.590870     0.603097 
    0.681665     0.397469     0.429477 
    0.536005     0.602144     0.635288 
    0.564813     0.496497     0.489803 
    0.569102     0.446906     0.659303 
    0.389777     0.628392     0.627386 
    0.469353     0.658717     0.492210 
    0.482438     0.354650     0.558387 
    0.441888     0.384785     0.400337 
    0.537388     0.453958     0.310686 
    0.434695     0.465419     0.683490 
    0.267780     0.577521     0.562944 
    0.406789     0.503895     0.527590 
    0.427969     0.550330     0.361816 
    0.299101     0.470597     0.419826 
    0.336547     0.335660     0.492748 
    0.323315     0.646025     0.447308 
    0.637983     0.504907     0.356573 
    0.596011     0.648945     0.506827 
    0.605817     0.356642     0.540153 
    0.561792     0.351542     0.441582 
    0.292395     0.439837     0.560325 
EA41336 17.238 15.882 14.243 90.00 90.00 90.00 Sym.group:    0
1.0
   17.238494     0.000000     0.000000
    0.000000    15.882109     0.000000
    0.000000     0.000000    14.243339
   W   B
  20   4
Direct
    0.541449     0.527464     0.689495 
    0.281716     0.452099     0.563293 
    0.397429     0.492181     0.654648 
    0.521663     0.377426     0.679990 
    0.410148     0.352974     0.553958 
    0.460689     0.620014     0.557765 
    0.274512     0.540770     0.427508 
    0.353069     0.667088     0.446629 
    0.509581     0.461290     0.507656 
    0.576636     0.287825     0.526452 
    0.646243     0.413170     0.588969 
    0.481269     0.304563     0.407233 
    0.620982     0.396105     0.399803 
    0.737491     0.467789     0.461593 
    0.369857     0.417864     0.398334 
    0.432501     0.557530     0.372095 
    0.635546     0.574821     0.555201 
    0.665703     0.571685     0.383848 
    0.577866     0.715346     0.490288 
    0.576044     0.696948     0.646423 
    0.336179     0.575469     0.558729 
    0.555937     0.510522     0.350977 
    0.492910     0.429199     0.340703 
    0.544579     0.589857     0.438409 
EA41651 16.486 14.834 14.548 90.00 90.00 90.00 Sym.group:    0
1.0
   16.486455     0.000000     0.000000
    0.000000    14.833536     0.000000
    0.000000     0.000000    14.548040
   W   B
  20   4
Direct
    0.265345     0.481945     0.539480 
    0.452569     0.560137     0.337692 
    0.413168     0.516012     0.513987 
    0.401328     0.550726     0.696619 
    0.462147     0.680043     0.456550 
    0.308604     0.616269     0.395175 
    0.536032     0.462563     0.658064 
    0.621555     0.332447     0.443797 
    0.701371     0.434221     0.585720 
    0.453146     0.391416     0.375867 
    0.570952     0.496892     0.475923 
    0.587906     0.432223     0.304561 
    0.364141     0.401813     0.645806 
    0.618116     0.675168     0.498345 
    0.600918     0.602171     0.344972 
    0.299733     0.452988     0.378238 
    0.478247     0.342401     0.544773 
    0.515329     0.629674     0.615661 
    0.332024     0.654427     0.553686 
    0.724281     0.446013     0.424343 
    0.636475     0.561369     0.609332 
    0.603906     0.343557     0.594196 
    0.351250     0.371810     0.491944 
    0.701455     0.563715     0.515270 
EA42273 15.067 14.476 14.472 90.00 90.00 90.00 Sym.group:    0
1.0
   15.066655     0.000000     0.000000
    0.000000    14.475643     0.000000
    0.000000     0.000000    14.472091
   W   B
  17   1
Direct
    0.562557     0.694142     0.491319 
    0.659496     0.563724     0.566079 
    0.680350     0.450303     0.443250 
    0.590268     0.580419     0.350395 
    0.402983     0.485974     0.301435 
    0.417149     0.683565     0.561985 
    0.571693     0.483007     0.682899 
    0.557520     0.314884     0.474011 
    0.331562     0.534855     0.473233 
    0.399505     0.533593     0.636721 
    0.462430     0.365389     0.603566 
    0.388559     0.371007     0.436088 
    0.546717     0.419335     0.321991 
    0.437156     0.635483     0.376946 
    0.660543     0.368487     0.590500 
    0.507369     0.503460     0.492515 
    0.296278     0.396693     0.573633 
    0.527868     0.615680     0.623434 
EA42299 17.083 15.981 13.945 90.00 90.00 90.00 Sym.group:    0
1.0
   17.082692     0.000000     0.000000
    0.000000    15.980843     0.000000
    0.000000     0.000000    13.944860
   W   B
  20   5
Direct
    0.512807     0.416006     0.342443 
    0.733892     0.485157     0.546999 
    0.651737     0.421036     0.393395 
    0.695392     0.579643     0.418447 
    0.613762     0.373741     0.564382 
    0.568098     0.671040     0.403655 
    0.556625     0.515766     0.501689 
    0.633972     0.631757     0.576115 
    0.429445     0.699962     0.428885 
    0.449862     0.566690     0.352649 
    0.506791     0.573379     0.675729 
    0.435741     0.283045     0.387079 
    0.272651     0.620365     0.532391 
    0.406917     0.568538     0.534601 
    0.360003     0.427336     0.404969 
    0.304655     0.460863     0.567235 
    0.289465     0.559987     0.384941 
    0.645568     0.502708     0.677924 
    0.567227     0.278210     0.428177 
    0.458797     0.373918     0.535104 
    0.524530     0.441092     0.653922 
    0.422208     0.466249     0.656392 
    0.509140     0.665303     0.548263 
    0.369202     0.375197     0.645140 
    0.581510     0.543011     0.339476 
EA42889 15.447 15.176 13.950 90.00 90.00 90.00 Sym.group:    0
1.0
   15.447203     0.000000     0.000000
    0.000000    15.176069     0.000000
    0.000000     0.000000    13.950488
   W   B
  16   4
Direct
    0.510532     0.640976     0.403045 
    0.397141     0.525661     0.693251 
    0.470863     0.486498     0.499549 
    0.665773     0.679681     0.421039 
    0.641757     0.525568     0.473624 
    0.576536     0.525966     0.638553 
    0.608617     0.688026     0.573414 
    0.708856     0.421360     0.600160 
    0.451663     0.643264     0.572161 
    0.401458     0.341530     0.403174 
    0.412663     0.485309     0.316987 
    0.355573     0.390727     0.577153 
    0.557019     0.374943     0.382171 
    0.572710     0.352392     0.571271 
    0.344149     0.603036     0.401159 
    0.298932     0.547988     0.567128 
    0.477785     0.418547     0.654693 
    0.549085     0.511471     0.347221 
    0.675106     0.376437     0.464711 
    0.323780     0.460620     0.439534 
EA43000 16.392 15.249 14.675 90.00 90.00 90.00 Sym.group:    0
1.0
   16.392444     0.000000     0.000000
    0.000000    15.248715     0.000000
    0.000000     0.000000    14.675161
   W   B
  20   4
Direct
    0.509051     0.586408     0.668695 
    0.408273     0.514057     0.512347 
    0.354453     0.529763     0.330031 
    0.497586     0.673814     0.517079 
    0.478866     0.423660     0.371759 
    0.600747     0.342144     0.572984 
    0.650933     0.389089     0.414006 
    0.640639     0.475428     0.681627 
    0.632443     0.674184     0.427017 
    0.656370     0.609735     0.589122 
    0.361545     0.522716     0.688452 
    0.428047     0.330082     0.512555 
    0.341957     0.643236     0.445466 
    0.548228     0.274406     0.430076 
    0.609903     0.515512     0.309364 
    0.718311     0.545848     0.425568 
    0.569092     0.508095     0.505555 
    0.479090     0.423979     0.645732 
    0.302540     0.412124     0.570024 
    0.493296     0.607821     0.360772 
    0.346186     0.409359     0.419719 
    0.699198     0.459920     0.552168 
    0.390490     0.632964     0.601288 
    0.282757     0.495656     0.448593 
EA43343 16.341 15.438 14.749 90.00 90.00 90.00 Sym.group:    0
1.0
   16.341039     0.000000     0.000000
    0.000000    15.438420     0.000000
    0.000000     0.000000    14.749153
   W   B
  20   4
Direct
    0.484652     0.560115     0.679242 
    0.592244     0.513118     0.517874 
    0.648442     0.556711     0.342127 
    0.505409     0.668646     0.543981 
    0.522116     0.441851     0.361387 
    0.397201     0.333926     0.545194 
    0.352691     0.403232     0.394615 
    0.353627     0.453957     0.672973 
    0.372002     0.679460     0.449584 
    0.341339     0.596436     0.598573 
    0.632032     0.492968     0.693878 
    0.572227     0.333274     0.488456 
    0.657552     0.650475     0.475082 
    0.453541     0.287468     0.397703 
    0.396738     0.538374     0.307850 
    0.286519     0.553923     0.425171 
    0.431274     0.507011     0.505054 
    0.515333     0.403669     0.633189 
    0.696818     0.404346     0.559490 
    0.508122     0.623195     0.377814 
    0.655071     0.424701     0.409826 
    0.299930     0.455241     0.540344 
    0.606816     0.614068     0.626815 
    0.718302     0.503835     0.453780 
EA43674 16.126 15.504 14.803 90.00 90.00 90.00 Sym.group:    0
1.0
   16.125627     0.000000     0.000000
    0.000000    15.503724     0.000000
    0.000000     0.000000    14.803156
   W   B
  20   4
Direct
    0.465074     0.482295     0.676423 
    0.415056     0.491135     0.492790 
    0.383040     0.414060     0.323313 
    0.488175     0.346428     0.581522 
    0.510029     0.525457     0.339228 
    0.606067     0.666245     0.531529 
    0.684616     0.562604     0.410284 
    0.611960     0.582361     0.678180 
    0.632436     0.426383     0.640416 
    0.319654     0.538955     0.641522 
    0.447380     0.657783     0.437589 
    0.344072     0.338235     0.470046 
    0.583364     0.672930     0.360942 
    0.642686     0.406997     0.363897 
    0.730091     0.430191     0.501748 
    0.454357     0.624063     0.606535 
    0.504354     0.358513     0.408649 
    0.264248     0.475598     0.470101 
    0.570937     0.507572     0.510730 
    0.335506     0.567785     0.358105 
    0.699469     0.552011     0.569657 
    0.362091     0.406695     0.606555 
    0.333347     0.607960     0.514109 
    0.611991     0.357746     0.506130 
EA44022 16.703 14.728 14.601 90.00 90.00 90.00 Sym.group:    0
1.0
   16.702861     0.000000     0.000000
    0.000000    14.728485     0.000000
    0.000000     0.000000    14.600995
   W   B
  20   4
Direct
    0.529407     0.541584     0.677963 
    0.580151     0.502950     0.497699 
    0.628346     0.543208     0.318654 
    0.521927     0.668580     0.561391 
    0.499429     0.450487     0.338292 
    0.382678     0.340449     0.544541 
    0.320035     0.439297     0.403245 
    0.380248     0.445545     0.679321 
    0.373722     0.606488     0.616692 
    0.664277     0.462109     0.661971 
    0.539120     0.323347     0.457572 
    0.656348     0.658014     0.463218 
    0.409456     0.309059     0.376172 
    0.375777     0.592285     0.341264 
    0.282913     0.593315     0.476175 
    0.528072     0.381954     0.622982 
    0.513583     0.634313     0.387879 
    0.726000     0.509731     0.503328 
    0.428733     0.499145     0.502444 
    0.666630     0.395174     0.387128 
    0.299708     0.471491     0.562170 
    0.640786     0.598005     0.603753 
    0.648174     0.373966     0.540980 
    0.404480     0.659505     0.475168 
EA44321 16.320 14.106 15.514 90.00 90.00 90.00 Sym.group:    0
1.0
   16.320092     0.000000     0.000000
    0.000000    14.106298     0.000000
    0.000000     0.000000    15.514052
   W   B
  20   5
Direct
    0.520997     0.392307     0.334457 
    0.470469     0.665132     0.424482 
    0.650576     0.364158     0.404208 
    0.493926     0.313631     0.471508 
    0.407881     0.492543     0.420933 
    0.252712     0.486656     0.474800 
    0.298279     0.631076     0.399295 
    0.344907     0.325573     0.455937 
    0.713592     0.559250     0.432251 
    0.596527     0.612802     0.653260 
    0.647595     0.338728     0.565240 
    0.709911     0.523036     0.584677 
    0.566654     0.493745     0.500919 
    0.504226     0.337778     0.636933 
    0.384149     0.449204     0.579392 
    0.339429     0.738095     0.507542 
    0.622338     0.677559     0.508561 
    0.448993     0.621397     0.572387 
    0.279553     0.606664     0.575250 
    0.620134     0.435360     0.696563 
    0.519293     0.544405     0.348305 
    0.617120     0.499786     0.348239 
    0.596458     0.612181     0.382597 
    0.393696     0.285406     0.574829 
    0.500588     0.493528     0.647432 
EA44727 16.331 15.263 14.696 90.00 90.00 90.00 Sym.group:    0
1.0
   16.330670     0.000000     0.000000
    0.000000    15.263185     0.000000
    0.000000     0.000000    14.695628
   W   B
  20   3
Direct
    0.600180     0.486220     0.326158 
    0.678110     0.375757     0.445744 
    0.600726     0.348566     0.585144 
    0.554770     0.503503     0.498304 
    0.442559     0.519712     0.628772 
    0.600466     0.482671     0.678920 
    0.680618     0.592544     0.608119 
    0.376257     0.304112     0.467301 
    0.522777     0.347938     0.412860 
    0.299694     0.548026     0.566527 
    0.531642     0.653529     0.607415 
    0.592304     0.662260     0.448922 
    0.397913     0.473882     0.442400 
    0.483784     0.593725     0.349879 
    0.345923     0.637999     0.430502 
    0.462194     0.428451     0.289949 
    0.457304     0.735363     0.467602 
    0.348325     0.370706     0.615366 
    0.708325     0.542524     0.446109 
    0.256631     0.406489     0.499524 
    0.688746     0.455497     0.568459 
    0.402745     0.646169     0.565675 
    0.468007     0.384356     0.550350 
EA45169 16.431 15.082 14.112 90.00 90.00 90.00 Sym.group:    0
1.0
   16.430726     0.000000     0.000000
    0.000000    15.081907     0.000000
    0.000000     0.000000    14.112008
   W   B
  18   4
Direct
    0.522680     0.475051     0.314315 
    0.305729     0.341130     0.562544 
    0.527851     0.309034     0.347743 
    0.417865     0.373013     0.447357 
    0.601084     0.433265     0.658322 
    0.570415     0.320756     0.516291 
    0.664250     0.542035     0.401372 
    0.470148     0.647622     0.558230 
    0.387185     0.541571     0.401758 
    0.362099     0.515237     0.582752 
    0.624587     0.671638     0.529101 
    0.399809     0.707666     0.389783 
    0.259399     0.458999     0.474374 
    0.531596     0.496354     0.499740 
    0.539496     0.635815     0.378625 
    0.452911     0.380331     0.630776 
    0.697648     0.546880     0.583638 
    0.320510     0.666449     0.520373 
    0.660876     0.427721     0.506796 
    0.577009     0.581334     0.639818 
    0.616223     0.405458     0.399778 
    0.490632     0.522639     0.656516 
EA45346 16.558 14.920 14.178 90.00 90.00 90.00 Sym.group:    0
1.0
   16.558361     0.000000     0.000000
    0.000000    14.920042     0.000000
    0.000000     0.000000    14.178145
   W   B
  20   5
Direct
    0.522685     0.625347     0.581679 
    0.375613     0.675017     0.629216 
    0.381627     0.694542     0.453126 
    0.422106     0.514498     0.504428 
    0.656256     0.556938     0.340228 
    0.521555     0.641814     0.397070 
    0.678369     0.581518     0.629246 
    0.699770     0.418162     0.587250 
    0.588672     0.486715     0.477738 
    0.554676     0.482699     0.668898 
    0.650811     0.315171     0.465367 
    0.498687     0.496637     0.321602 
    0.351223     0.567312     0.346734 
    0.351257     0.325941     0.484504 
    0.497576     0.351401     0.441947 
    0.386958     0.520837     0.677013 
    0.275219     0.425511     0.583265 
    0.445054     0.363983     0.615516 
    0.278717     0.580275     0.524905 
    0.749475     0.566441     0.478530 
    0.637238     0.637031     0.481167 
    0.712398     0.437516     0.424398 
    0.300139     0.457639     0.431590 
    0.388080     0.420621     0.372777 
    0.575838     0.356435     0.581802 
EA45679 16.644 15.088 14.119 90.00 90.00 90.00 Sym.group:    0
1.0
   16.643846     0.000000     0.000000
    0.000000    15.088065     0.000000
    0.000000     0.000000    14.118904
   W   B
  20   5
Direct
    0.521090     0.638342     0.575616 
    0.379984     0.658706     0.643469 
    0.378450     0.683577     0.458991 
    0.427379     0.513815     0.510963 
    0.651565     0.567997     0.338801 
    0.520850     0.636437     0.392160 
    0.670562     0.587335     0.617665 
    0.722278     0.443411     0.575023 
    0.589252     0.478542     0.476987 
    0.546794     0.490334     0.658934 
    0.654706     0.329161     0.448625 
    0.600909     0.332312     0.606925 
    0.500167     0.487967     0.324123 
    0.357705     0.563559     0.343584 
    0.348371     0.328937     0.484426 
    0.497900     0.344385     0.442947 
    0.368709     0.506619     0.689516 
    0.268869     0.423325     0.585959 
    0.439974     0.369783     0.614165 
    0.281768     0.577849     0.531374 
    0.637691     0.633320     0.477051 
    0.717905     0.560375     0.474849 
    0.718978     0.462129     0.418686 
    0.306973     0.461523     0.434337 
    0.391168     0.420261     0.374825 
EA46144 15.224 14.889 16.118 90.00 90.00 90.00 Sym.group:    0
1.0
   15.224427     0.000000     0.000000
    0.000000    14.888599     0.000000
    0.000000     0.000000    16.118436
   W   B
  19   3
Direct
    0.535282     0.490815     0.503809 
    0.614150     0.565114     0.636278 
    0.298667     0.554391     0.410358 
    0.441394     0.505174     0.341820 
    0.333472     0.675952     0.506220 
    0.667699     0.627162     0.493180 
    0.499660     0.668439     0.529097 
    0.592836     0.476610     0.283389 
    0.687889     0.484408     0.404873 
    0.563384     0.615323     0.376801 
    0.502813     0.327484     0.547731 
    0.631720     0.395498     0.640452 
    0.375277     0.528082     0.567740 
    0.255302     0.419982     0.516288 
    0.346469     0.347247     0.613938 
    0.394754     0.384885     0.444405 
    0.560178     0.363370     0.387068 
    0.476832     0.449654     0.664808 
    0.468648     0.623703     0.675271 
    0.686110     0.480496     0.540990 
    0.421963     0.635745     0.411306 
    0.645498     0.380467     0.504178 
EA46494 16.486 14.804 14.434 90.00 90.00 90.00 Sym.group:    0
1.0
   16.485870     0.000000     0.000000
    0.000000    14.803854     0.000000
    0.000000     0.000000    14.434069
   W   B
  18   4
Direct
    0.461795     0.448588     0.279597 
    0.301289     0.385181     0.599366 
    0.398600     0.384826     0.458680 
    0.611378     0.405578     0.638805 
    0.553089     0.323402     0.489652 
    0.478903     0.675639     0.537761 
    0.396862     0.551245     0.410202 
    0.387836     0.533344     0.606617 
    0.631576     0.658142     0.505950 
    0.419871     0.717384     0.398485 
    0.271127     0.513276     0.507668 
    0.533020     0.501116     0.514143 
    0.544294     0.596968     0.368585 
    0.450313     0.370301     0.632791 
    0.713243     0.516800     0.585455 
    0.597245     0.426741     0.350503 
    0.602870     0.594599     0.657101 
    0.475641     0.301322     0.340370 
    0.656189     0.419868     0.490634 
    0.660840     0.526272     0.440131 
    0.507110     0.496138     0.678331 
    0.346909     0.653270     0.509173 
EA46749 16.228 14.393 14.882 90.00 90.00 90.00 Sym.group:    0
1.0
   16.228357     0.000000     0.000000
    0.000000    14.393485     0.000000
    0.000000     0.000000    14.882002
   W   B
  19   4
Direct
    0.628703     0.376625     0.404307 
    0.645398     0.670024     0.580955 
    0.566774     0.404931     0.571205 
    0.606514     0.542509     0.458872 
    0.455244     0.282047     0.599561 
    0.522616     0.578148     0.640666 
    0.726565     0.403021     0.539791 
    0.750585     0.486451     0.405004 
    0.680906     0.532133     0.650675 
    0.356936     0.423889     0.328244 
    0.405307     0.436500     0.654231 
    0.337604     0.364842     0.519027 
    0.441893     0.502126     0.487491 
    0.474744     0.674429     0.505363 
    0.376661     0.592974     0.350341 
    0.371269     0.610318     0.644052 
    0.473164     0.330278     0.438568 
    0.318081     0.651903     0.493983 
    0.504958     0.461573     0.320972 
    0.736942     0.561707     0.525318 
    0.303296     0.500958     0.444162 
    0.309173     0.510403     0.559226 
    0.506667     0.602211     0.377987 
EA47229 15.447 15.156 14.990 90.00 90.00 90.00 Sym.group:    0
1.0
   15.446636     0.000000     0.000000
    0.000000    15.156451     0.000000
    0.000000     0.000000    14.990324
   W   B
  16   5
Direct
    0.645501     0.566558     0.401390 
    0.475155     0.369346     0.411290 
    0.601849     0.319449     0.528515 
    0.523001     0.504014     0.520233 
    0.687855     0.466441     0.546052 
    0.500094     0.597927     0.335534 
    0.476777     0.675651     0.591533 
    0.440069     0.353402     0.584222 
    0.373376     0.499961     0.428919 
    0.572005     0.563600     0.681075 
    0.318625     0.341368     0.471816 
    0.334548     0.617437     0.556494 
    0.589285     0.392856     0.662637 
    0.283049     0.443165     0.577910 
    0.652612     0.628175     0.562342 
    0.415167     0.510223     0.651226 
    0.558099     0.468084     0.338849 
    0.454241     0.469910     0.307989 
    0.436758     0.636724     0.456212 
    0.546394     0.654093     0.463048 
    0.615540     0.421612     0.422717 
EA47420 16.675 14.959 15.023 90.00 90.00 90.00 Sym.group:    0
1.0
   16.675441     0.000000     0.000000
    0.000000    14.959242     0.000000
    0.000000     0.000000    15.022645
   W   B
  19   4
Direct
    0.538413     0.423719     0.675334 
    0.645216     0.374340     0.414762 
    0.580309     0.495349     0.320631 
    0.718932     0.511884     0.421541 
    0.527842     0.618606     0.651263 
    0.534478     0.505387     0.514810 
    0.673410     0.604578     0.543816 
    0.545139     0.699129     0.515941 
    0.675283     0.422353     0.568635 
    0.439380     0.486677     0.290984 
    0.472654     0.620590     0.378611 
    0.486146     0.362417     0.406897 
    0.380898     0.483595     0.449278 
    0.317174     0.636362     0.415604 
    0.274564     0.557852     0.561872 
    0.396829     0.656929     0.542542 
    0.437995     0.341775     0.573933 
    0.400144     0.501486     0.633596 
    0.344013     0.317483     0.451473 
    0.565916     0.346704     0.541436 
    0.604722     0.598961     0.418500 
    0.624356     0.525227     0.648651 
    0.316187     0.408598     0.559890 
EA47895 16.132 15.027 14.485 90.00 90.00 90.00 Sym.group:    0
1.0
   16.132181     0.000000     0.000000
    0.000000    15.026960     0.000000
    0.000000     0.000000    14.484799
   W   B
  19   2
Direct
    0.705946     0.355316     0.497851 
    0.278767     0.513533     0.366618 
    0.712959     0.636019     0.527072 
    0.324224     0.424167     0.612335 
    0.674899     0.489226     0.599392 
    0.284556     0.383184     0.462054 
    0.682270     0.503891     0.422258 
    0.276953     0.553577     0.535634 
    0.581529     0.367887     0.394545 
    0.417400     0.603900     0.415162 
    0.580363     0.631411     0.610142 
    0.586889     0.651151     0.426337 
    0.419152     0.582735     0.600190 
    0.576045     0.353159     0.590582 
    0.419041     0.436241     0.353852 
    0.529694     0.497058     0.492578 
    0.443415     0.337615     0.498903 
    0.533364     0.524777     0.301149 
    0.476834     0.723115     0.524068 
    0.539051     0.493300     0.654328 
    0.456648     0.438742     0.614946 
EA48257 15.807 14.338 14.604 90.00 90.00 90.00 Sym.group:    0
1.0
   15.807023     0.000000     0.000000
    0.000000    14.337618     0.000000
    0.000000     0.000000    14.604127
   W   B
  16   5
Direct
    0.345817     0.406567     0.550559 
    0.579217     0.363388     0.454990 
    0.488043     0.419112     0.302882 
    0.480303     0.512523     0.484631 
    0.348163     0.480110     0.379049 
    0.463046     0.400618     0.666630 
    0.445579     0.670275     0.601378 
    0.615427     0.518973     0.357963 
    0.617430     0.463986     0.590678 
    0.400994     0.675569     0.426988 
    0.726659     0.444348     0.462008 
    0.596780     0.648277     0.619577 
    0.461660     0.578208     0.294657 
    0.709441     0.599688     0.491145 
    0.308490     0.575446     0.513059 
    0.560300     0.662728     0.452966 
    0.464922     0.323634     0.538368 
    0.555979     0.322937     0.597345 
    0.502137     0.542272     0.655741 
    0.397056     0.528425     0.625303 
    0.432558     0.362912     0.434086 
EA48394 15.614 15.518 15.839 90.00 90.00 90.00 Sym.group:    0
1.0
   15.613984     0.000000     0.000000
    0.000000    15.517670     0.000000
    0.000000     0.000000    15.839202
   W   B
  20   5
Direct
    0.346813     0.613058     0.606186 
    0.415629     0.502108     0.504686 
    0.249837     0.496455     0.494235 
    0.318621     0.386908     0.404254 
    0.479505     0.608906     0.377189 
    0.648237     0.607567     0.375777 
    0.626642     0.444393     0.339552 
    0.455842     0.462081     0.332384 
    0.313537     0.644223     0.456693 
    0.585527     0.688102     0.491676 
    0.517953     0.616351     0.616779 
    0.373037     0.350173     0.546939 
    0.486717     0.337690     0.424969 
    0.703792     0.590617     0.553061 
    0.575507     0.502257     0.489424 
    0.742101     0.478001     0.431548 
    0.478109     0.458199     0.650092 
    0.636388     0.515887     0.670765 
    0.304399     0.463401     0.644490 
    0.639481     0.344035     0.476813 
    0.443541     0.658267     0.504689 
    0.341060     0.529661     0.382197 
    0.517356     0.359776     0.557539 
    0.605382     0.397674     0.605833 
    0.694985     0.444208     0.562230 
EA48732 16.941 16.016 14.346 90.00 90.00 90.00 Sym.group:    0
1.0
   16.941399     0.000000     0.000000
    0.000000    16.015807     0.000000
    0.000000     0.000000    14.345936
   W   B
  20   5
Direct
    0.752881     0.428782     0.508303 
    0.597276     0.447785     0.521907 
    0.754043     0.576169     0.502636 
    0.691817     0.462278     0.365516 
    0.603911     0.338555     0.381887 
    0.697848     0.518670     0.641779 
    0.496563     0.382111     0.633383 
    0.502694     0.537314     0.677406 
    0.463819     0.352122     0.454848 
    0.369089     0.458506     0.640893 
    0.528308     0.462669     0.327638 
    0.610291     0.588001     0.404481 
    0.607396     0.617956     0.579237 
    0.511223     0.696430     0.453132 
    0.317686     0.420918     0.481823 
    0.460737     0.524504     0.491302 
    0.380528     0.444099     0.328591 
    0.316469     0.570655     0.384383 
    0.449819     0.609625     0.330399 
    0.372184     0.673132     0.495795 
    0.373848     0.328580     0.572015 
    0.453291     0.270119     0.569155 
    0.474313     0.647259     0.593141 
    0.390661     0.592524     0.620119 
    0.323309     0.551237     0.540231 
EA49067 14.921 15.695 15.962 90.00 90.00 90.00 Sym.group:    0
1.0
   14.920844     0.000000     0.000000
    0.000000    15.694635     0.000000
    0.000000     0.000000    15.962284
   W   B
  20   5
Direct
    0.440970     0.448496     0.310070 
    0.393768     0.485919     0.473238 
    0.349931     0.580841     0.356815 
    0.538938     0.566768     0.346239 
    0.420635     0.572907     0.611697 
    0.291183     0.643368     0.522581 
    0.390625     0.335697     0.423800 
    0.312122     0.354195     0.561196 
    0.251925     0.502588     0.582247 
    0.448394     0.656908     0.464321 
    0.725947     0.438436     0.493980 
    0.493188     0.399512     0.587325 
    0.576794     0.533513     0.498386 
    0.702897     0.583610     0.589803 
    0.563805     0.394321     0.409900 
    0.627855     0.699646     0.467206 
    0.565068     0.675252     0.601229 
    0.743574     0.591935     0.434968 
    0.653050     0.315511     0.548895 
    0.508579     0.262456     0.502273 
    0.370633     0.448140     0.635402 
    0.253156     0.536243     0.449958 
    0.641074     0.450274     0.608811 
    0.569901     0.530951     0.641972 
    0.665986     0.492511     0.377686 
EA49587 16.188 14.509 15.131 90.00 90.00 90.00 Sym.group:    0
1.0
   16.188429     0.000000     0.000000
    0.000000    14.509244     0.000000
    0.000000     0.000000    15.130696
   W   B
  16   5
Direct
    0.654457     0.517012     0.388401 
    0.375090     0.539734     0.372080 
    0.513564     0.499472     0.490606 
    0.600686     0.450411     0.648650 
    0.369673     0.614782     0.526973 
    0.367266     0.399190     0.472109 
    0.588749     0.613760     0.686573 
    0.253464     0.516320     0.484380 
    0.458224     0.367544     0.607510 
    0.522883     0.683436     0.554026 
    0.306811     0.466614     0.623873 
    0.657386     0.582713     0.540325 
    0.448939     0.537317     0.648811 
    0.524665     0.565630     0.312136 
    0.590906     0.302144     0.551169 
    0.475104     0.409589     0.336175 
    0.495505     0.338794     0.464076 
    0.473112     0.644631     0.421959 
    0.652988     0.427676     0.512736 
    0.591431     0.385705     0.428210 
    0.579098     0.637526     0.429223 
EA49761 16.534 16.221 14.724 90.00 90.00 90.00 Sym.group:    0
1.0
   16.534479     0.000000     0.000000
    0.000000    16.220788     0.000000
    0.000000     0.000000    14.724348
   W   B
  20   5
Direct
    0.399328     0.492877     0.458903 
    0.381910     0.630497     0.371185 
    0.544333     0.627007     0.355607 
    0.423485     0.545260     0.642743 
    0.318676     0.638473     0.572842 
    0.445946     0.382644     0.353778 
    0.353902     0.342677     0.500772 
    0.271990     0.499016     0.563300 
    0.464248     0.652102     0.508380 
    0.686592     0.425586     0.459095 
    0.495940     0.394560     0.593160 
    0.557770     0.523184     0.511759 
    0.690276     0.550330     0.586597 
    0.631902     0.690883     0.489626 
    0.567594     0.636886     0.646342 
    0.700758     0.583204     0.418807 
    0.630612     0.304069     0.528577 
    0.483391     0.276264     0.476456 
    0.570223     0.500635     0.704596 
    0.575575     0.477511     0.339578 
    0.371672     0.425126     0.609670 
    0.287676     0.573302     0.447711 
    0.637832     0.420864     0.603396 
    0.451352     0.526354     0.318013 
    0.557015     0.380686     0.439110 
EA50201 16.620 14.605 13.943 90.00 90.00 90.00 Sym.group:    0
1.0
   16.620159     0.000000     0.000000
    0.000000    14.604750     0.000000
    0.000000     0.000000    13.942637
   W   B
  20   2
Direct
    0.444972     0.609316     0.327948 
    0.424473     0.299732     0.453347 
    0.442410     0.499715     0.499200 
    0.368149     0.389051     0.634888 
    0.367244     0.564727     0.671926 
    0.283061     0.570624     0.528791 
    0.391591     0.668921     0.482758 
    0.309914     0.403332     0.473164 
    0.434889     0.418888     0.333064 
    0.318645     0.543436     0.350568 
    0.562406     0.641573     0.452653 
    0.673803     0.510290     0.448598 
    0.570595     0.370005     0.429344 
    0.501105     0.634079     0.621757 
    0.599990     0.496596     0.599564 
    0.515675     0.347441     0.600799 
    0.707821     0.683421     0.452655 
    0.718324     0.347632     0.421507 
    0.665469     0.659143     0.602178 
    0.680445     0.351985     0.578959 
    0.473887     0.481066     0.662169 
    0.545132     0.509028     0.374164 
EA50425 16.579 14.755 15.328 90.00 90.00 90.00 Sym.group:    0
1.0
   16.578766     0.000000     0.000000
    0.000000    14.755205     0.000000
    0.000000     0.000000    15.328153
   W   B
  20   5
Direct
    0.585181     0.405204     0.549809 
    0.439640     0.336919     0.480309 
    0.532081     0.571730     0.640804 
    0.691295     0.495092     0.632016 
    0.444866     0.405500     0.632343 
    0.293907     0.331218     0.443972 
    0.355049     0.544376     0.582677 
    0.302087     0.363963     0.592232 
    0.413341     0.697924     0.617631 
    0.539349     0.410093     0.359971 
    0.645603     0.304229     0.439237 
    0.530111     0.697700     0.510147 
    0.661212     0.641325     0.565427 
    0.479108     0.547197     0.293296 
    0.483736     0.523985     0.483394 
    0.607276     0.581232     0.396689 
    0.693094     0.438454     0.375530 
    0.382409     0.673097     0.463214 
    0.367639     0.472963     0.389010 
    0.577535     0.426854     0.717566 
    0.270152     0.467184     0.495010 
    0.718206     0.410525     0.512326 
    0.493406     0.656355     0.378258 
    0.289960     0.570872     0.460677 
    0.703755     0.526011     0.488454 
EA50830 16.457 15.432 13.735 90.00 90.00 90.00 Sym.group:    0
1.0
   16.456766     0.000000     0.000000
    0.000000    15.432491     0.000000
    0.000000     0.000000    13.735187
   W   B
  18   5
Direct
    0.505712     0.311658     0.358666 
    0.556346     0.361973     0.544949 
    0.442450     0.269768     0.515079 
    0.401897     0.410539     0.603816 
    0.277638     0.505325     0.380185 
    0.270759     0.470055     0.547053 
    0.404764     0.422698     0.420872 
    0.656695     0.327952     0.411752 
    0.471419     0.571264     0.685818 
    0.563841     0.471506     0.356766 
    0.593909     0.654793     0.642912 
    0.637132     0.505017     0.652152 
    0.559946     0.645525     0.350361 
    0.515726     0.530754     0.520527 
    0.658523     0.587535     0.471872 
    0.711360     0.465377     0.363588 
    0.429472     0.666302     0.525103 
    0.413581     0.588165     0.370408 
    0.522768     0.443720     0.676050 
    0.353107     0.565169     0.604548 
    0.561116     0.687078     0.496114 
    0.319402     0.595755     0.489455 
    0.672437     0.442076     0.511957 
EA51159 17.072 14.959 14.678 90.00 90.00 90.00 Sym.group:    0
1.0
   17.072224     0.000000     0.000000
    0.000000    14.958652     0.000000
    0.000000     0.000000    14.678163
   W   B
  19   4
Direct
    0.601261     0.549623     0.605589 
    0.692186     0.418808     0.580059 
    0.526531     0.646466     0.405405 
    0.657809     0.671250     0.514694 
    0.531638     0.357119     0.398206 
    0.497244     0.501899     0.308942 
    0.676537     0.360770     0.422749 
    0.627612     0.516061     0.415362 
    0.541923     0.296370     0.558948 
    0.388989     0.693412     0.473588 
    0.503699     0.673144     0.577465 
    0.492438     0.406883     0.667366 
    0.402128     0.337475     0.517272 
    0.374232     0.436228     0.358727 
    0.271293     0.402215     0.477885 
    0.468863     0.504771     0.493322 
    0.356655     0.459769     0.621055 
    0.307477     0.553636     0.470127 
    0.747605     0.553338     0.503561 
    0.578880     0.426068     0.521263 
    0.401827     0.582910     0.372241 
    0.465754     0.551352     0.645974 
    0.387419     0.600434     0.590201 
EA51556 16.796 14.970 14.313 90.00 90.00 90.00 Sym.group:    0
1.0
   16.795699     0.000000     0.000000
    0.000000    14.970281     0.000000
    0.000000     0.000000    14.312802
   W   B
  17   5
Direct
    0.647088     0.539650     0.569844 
    0.723242     0.415410     0.482139 
    0.547781     0.426730     0.658567 
    0.448722     0.311392     0.426329 
    0.584719     0.356205     0.496890 
    0.337398     0.385084     0.515047 
    0.518404     0.410531     0.311563 
    0.517248     0.657843     0.452802 
    0.482130     0.489911     0.492116 
    0.372280     0.633173     0.553183 
    0.384588     0.451629     0.343827 
    0.629320     0.708085     0.590947 
    0.662003     0.676049     0.436081 
    0.402850     0.471678     0.656864 
    0.508584     0.611144     0.627424 
    0.276294     0.519077     0.594022 
    0.617288     0.517172     0.398100 
    0.400731     0.591055     0.405442 
    0.331577     0.525113     0.459129 
    0.667533     0.395020     0.611203 
    0.481339     0.555402     0.340580 
    0.458878     0.352645     0.577901 
EA51829 16.216 14.885 15.032 90.00 90.00 90.00 Sym.group:    0
1.0
   16.216303     0.000000     0.000000
    0.000000    14.884657     0.000000
    0.000000     0.000000    15.031507
   W   B
  20   3
Direct
    0.615370     0.710700     0.423942 
    0.482648     0.682169     0.501981 
    0.466155     0.637853     0.670389 
    0.635841     0.423914     0.605966 
    0.617462     0.605757     0.558525 
    0.533231     0.383119     0.373405 
    0.379718     0.635250     0.377129 
    0.539566     0.572910     0.375147 
    0.533512     0.316511     0.528391 
    0.412712     0.290251     0.423353 
    0.380833     0.372998     0.560081 
    0.380087     0.455641     0.397259 
    0.499893     0.496237     0.522749 
    0.351482     0.573066     0.541238 
    0.397284     0.495807     0.683338 
    0.681456     0.355522     0.459791 
    0.248889     0.572265     0.390157 
    0.561567     0.521410     0.709981 
    0.669021     0.463565     0.344073 
    0.250085     0.453737     0.491162 
    0.687627     0.495466     0.488883 
    0.675527     0.586118     0.422576 
    0.500035     0.399737     0.650483 
EA52134 16.548 15.281 14.633 90.00 90.00 90.00 Sym.group:    0
1.0
   16.548062     0.000000     0.000000
    0.000000    15.281161     0.000000
    0.000000     0.000000    14.632970
   W   B
  20   4
Direct
    0.299212     0.460948     0.494519 
    0.564366     0.650375     0.480532 
    0.453803     0.515356     0.510266 
    0.432638     0.595056     0.336966 
    0.342317     0.609967     0.591899 
    0.712606     0.598794     0.412507 
    0.704751     0.647028     0.566176 
    0.573351     0.517450     0.368252 
    0.323300     0.493119     0.325519 
    0.584309     0.556236     0.630333 
    0.446930     0.407184     0.368583 
    0.342886     0.458725     0.655340 
    0.709376     0.438430     0.413750 
    0.585789     0.349270     0.343404 
    0.493880     0.417405     0.663397 
    0.584182     0.404599     0.519480 
    0.407370     0.340204     0.535534 
    0.521047     0.261565     0.592730 
    0.727378     0.493542     0.564828 
    0.418450     0.700138     0.473856 
    0.333896     0.589546     0.438852 
    0.476716     0.642430     0.597899 
    0.509677     0.293174     0.447382 
    0.451773     0.559457     0.667995 
EA52650 16.266 15.463 14.621 90.00 90.00 90.00 Sym.group:    0
1.0
   16.265502     0.000000     0.000000
    0.000000    15.462568     0.000000
    0.000000     0.000000    14.621044
   W   B
  20   1
Direct
    0.414509     0.342754     0.492687 
    0.350237     0.473837     0.612115 
    0.504459     0.533197     0.679415 
    0.520355     0.475451     0.506839 
    0.719348     0.410105     0.516681 
    0.646858     0.539568     0.619922 
    0.462172     0.375413     0.655416 
    0.618543     0.374653     0.633907 
    0.574178     0.314419     0.487753 
    0.575108     0.682505     0.580504 
    0.496454     0.640329     0.411209 
    0.650516     0.566919     0.454017 
    0.622747     0.725328     0.437015 
    0.270785     0.581841     0.518447 
    0.424942     0.617860     0.562895 
    0.523783     0.506896     0.307429 
    0.384421     0.500228     0.403632 
    0.472345     0.369633     0.336065 
    0.639307     0.410394     0.378111 
    0.272342     0.422900     0.477536 
    0.356592     0.635770     0.428403 
EA53039 15.009 15.409 15.471 90.00 90.00 90.00 Sym.group:    0
1.0
   15.009391     0.000000     0.000000
    0.000000    15.409401     0.000000
    0.000000     0.000000    15.470593
   W   B
  19   1
Direct
    0.513001     0.505795     0.490008 
    0.697655     0.520040     0.481460 
    0.629796     0.365259     0.462433 
    0.551924     0.381244     0.607881 
    0.495473     0.555742     0.312102 
    0.623756     0.617707     0.374657 
    0.356431     0.489171     0.378399 
    0.481339     0.389637     0.373416 
    0.717646     0.411763     0.592858 
    0.458858     0.292417     0.507203 
    0.307517     0.370286     0.474868 
    0.357691     0.361476     0.614195 
    0.345948     0.527781     0.544290 
    0.442153     0.653462     0.441254 
    0.453703     0.504442     0.665066 
    0.580865     0.674998     0.522835 
    0.318194     0.687486     0.542177 
    0.612498     0.544676     0.623342 
    0.447239     0.672068     0.622464 
    0.608312     0.474548     0.369091 
EA53391 16.431 15.248 14.445 90.00 90.00 90.00 Sym.group:    0
1.0
   16.430675     0.000000     0.000000
    0.000000    15.248293     0.000000
    0.000000     0.000000    14.444628
   W   B
  19   1
Direct
    0.490157     0.488492     0.492790 
    0.357355     0.376849     0.517525 
    0.327983     0.538274     0.468672 
    0.406524     0.593655     0.609434 
    0.515639     0.420742     0.308054 
    0.458171     0.315009     0.405115 
    0.593527     0.561220     0.344556 
    0.446346     0.577192     0.350223 
    0.294273     0.478494     0.625234 
    0.424691     0.694377     0.477529 
    0.578439     0.702164     0.421607 
    0.548933     0.707777     0.576874 
    0.634978     0.562744     0.523171 
    0.618393     0.393239     0.446357 
    0.550511     0.550177     0.665035 
    0.532640     0.318894     0.561446 
    0.740930     0.447141     0.534303 
    0.444233     0.425356     0.653250 
    0.643465     0.408138     0.640466 
    0.392812     0.440067     0.378361 
EA53739 17.033 15.317 13.932 90.00 90.00 90.00 Sym.group:    0
1.0
   17.033286     0.000000     0.000000
    0.000000    15.317355     0.000000
    0.000000     0.000000    13.932477
   W   B
  17   3
Direct
    0.509879     0.498687     0.513385 
    0.614792     0.625368     0.443240 
    0.665041     0.490614     0.550075 
    0.608759     0.387509     0.400879 
    0.466631     0.614804     0.669892 
    0.510902     0.698956     0.524752 
    0.408345     0.475106     0.676917 
    0.559573     0.474154     0.684667 
    0.695854     0.508439     0.377522 
    0.593744     0.340378     0.586718 
    0.491195     0.307245     0.463519 
    0.370813     0.416516     0.496833 
    0.374003     0.591533     0.519259 
    0.457314     0.431731     0.350571 
    0.461305     0.609471     0.378016 
    0.253670     0.508903     0.470683 
    0.330163     0.527068     0.337685 
    0.589397     0.603455     0.599649 
    0.566551     0.518333     0.348534 
    0.472071     0.371733     0.607202 
EA53809 16.754 15.882 15.628 90.00 90.00 90.00 Sym.group:    0
1.0
   16.753861     0.000000     0.000000
    0.000000    15.881821     0.000000
    0.000000     0.000000    15.627700
   W   B
  20   5
Direct
    0.666229     0.399352     0.415762 
    0.574901     0.466639     0.656332 
    0.692394     0.399543     0.574789 
    0.462539     0.662840     0.456963 
    0.685783     0.655835     0.534294 
    0.553807     0.617589     0.592907 
    0.594779     0.555456     0.416220 
    0.590579     0.479644     0.283934 
    0.736760     0.519895     0.468441 
    0.470493     0.491458     0.517274 
    0.328097     0.641561     0.397689 
    0.433245     0.525903     0.356804 
    0.514306     0.384858     0.377580 
    0.358084     0.389481     0.418643 
    0.444804     0.264852     0.446873 
    0.548473     0.347745     0.536999 
    0.328499     0.467550     0.569094 
    0.428017     0.533385     0.690832 
    0.384197     0.638034     0.581391 
    0.441313     0.388066     0.671103 
    0.590311     0.686960     0.459464 
    0.667105     0.534075     0.586690 
    0.286506     0.582687     0.512430 
    0.404898     0.350325     0.543735 
    0.313881     0.516266     0.433756 
EA54407 16.115 14.918 14.011 90.00 90.00 90.00 Sym.group:    0
1.0
   16.115316     0.000000     0.000000
    0.000000    14.917848     0.000000
    0.000000     0.000000    14.010912
   W   B
  16   4
Direct
    0.489248     0.496640     0.484334 
    0.562995     0.456519     0.328049 
    0.707025     0.534827     0.547676 
    0.582937     0.532196     0.658041 
    0.562482     0.337463     0.450729 
    0.404518     0.319637     0.483463 
    0.514235     0.387619     0.633960 
    0.663694     0.383407     0.582423 
    0.590885     0.653547     0.524283 
    0.368592     0.571199     0.379476 
    0.515857     0.631709     0.358763 
    0.350694     0.415010     0.609843 
    0.349878     0.578178     0.554068 
    0.280379     0.448241     0.456708 
    0.450717     0.710316     0.483279 
    0.399750     0.409165     0.344353 
    0.628335     0.552890     0.419990 
    0.657467     0.443326     0.440164 
    0.475413     0.618459     0.605255 
    0.444897     0.519652     0.655140 
EA54731 15.409 14.808 14.457 90.00 90.00 90.00 Sym.group:    0
1.0
   15.409211     0.000000     0.000000
    0.000000    14.807987     0.000000
    0.000000     0.000000    14.457486
   W   B
  19   1
Direct
    0.527899     0.497217     0.501877 
    0.425058     0.489763     0.339679 
    0.272611     0.472644     0.564699 
    0.405305     0.504781     0.654795 
    0.410312     0.638371     0.406875 
    0.576336     0.676644     0.453088 
    0.475425     0.640250     0.589887 
    0.314277     0.632210     0.542305 
    0.425756     0.367032     0.554718 
    0.651269     0.416601     0.394859 
    0.496517     0.345159     0.391433 
    0.669305     0.612927     0.575830 
    0.682908     0.447873     0.559331 
    0.581734     0.287735     0.515699 
    0.584551     0.560735     0.330536 
    0.321424     0.380918     0.426026 
    0.573505     0.546573     0.697005 
    0.720663     0.570786     0.411080 
    0.564179     0.383567     0.654219 
    0.320966     0.528216     0.436060 
EA54833 16.954 15.716 15.968 90.00 90.00 90.00 Sym.group:    0
1.0
   16.954417     0.000000     0.000000
    0.000000    15.715800     0.000000
    0.000000     0.000000    15.967830
   W   B
  20   5
Direct
    0.624467     0.385221     0.570428 
    0.729727     0.422113     0.466026 
    0.723868     0.571162     0.451429 
    0.577570     0.532197     0.613887 
    0.495324     0.598022     0.347685 
    0.582680     0.630438     0.471705 
    0.532389     0.351879     0.324799 
    0.590116     0.462443     0.425187 
    0.450110     0.526577     0.501941 
    0.320516     0.642056     0.552859 
    0.349559     0.515498     0.635473 
    0.440948     0.708354     0.467673 
    0.359033     0.621376     0.383852 
    0.453621     0.650921     0.617713 
    0.295536     0.495517     0.473789 
    0.472642     0.408446     0.637910 
    0.466593     0.542415     0.726404 
    0.327079     0.349704     0.433092 
    0.417124     0.443077     0.353128 
    0.476999     0.352692     0.478025 
    0.702605     0.502765     0.571121 
    0.529148     0.297464     0.588338 
    0.679812     0.607111     0.565638 
    0.533077     0.476807     0.293682 
    0.369459     0.405746     0.548215 
EA55322 16.445 15.948 14.648 90.00 90.00 90.00 Sym.group:    0
1.0
   16.444578     0.000000     0.000000
    0.000000    15.947554     0.000000
    0.000000     0.000000    14.647856
   W   B
  16   5
Direct
    0.556692     0.644681     0.414128 
    0.590204     0.473085     0.364358 
    0.724253     0.468654     0.438836 
    0.416529     0.450917     0.338801 
    0.488590     0.499397     0.503897 
    0.374131     0.366124     0.480482 
    0.389580     0.602929     0.435999 
    0.497135     0.307224     0.548249 
    0.284870     0.483964     0.410224 
    0.332837     0.494794     0.570311 
    0.461278     0.522953     0.702347 
    0.565061     0.434174     0.649847 
    0.570856     0.605439     0.600084 
    0.493650     0.728257     0.524137 
    0.403546     0.635589     0.605259 
    0.623684     0.373602     0.498014 
    0.647083     0.567821     0.478178 
    0.482225     0.563798     0.336575 
    0.660872     0.498528     0.565845 
    0.505261     0.369288     0.416143 
    0.431665     0.408780     0.618287 
EA55787 16.023 14.179 14.765 90.00 90.00 90.00 Sym.group:    0
1.0
   16.023014     0.000000     0.000000
    0.000000    14.179418     0.000000
    0.000000     0.000000    14.765372
   W   B
  18   1
Direct
    0.624543     0.640951     0.496364 
    0.477406     0.652097     0.409579 
    0.618453     0.595168     0.340086 
    0.698576     0.484589     0.437065 
    0.652631     0.469838     0.602488 
    0.460865     0.654963     0.589072 
    0.340798     0.681191     0.490647 
    0.472412     0.499743     0.320407 
    0.334892     0.527072     0.409116 
    0.418225     0.354028     0.588527 
    0.286306     0.383647     0.490434 
    0.595284     0.397662     0.349890 
    0.570532     0.312628     0.489560 
    0.522505     0.491230     0.506605 
    0.494000     0.490649     0.693003 
    0.357653     0.518340     0.578075 
    0.595978     0.614237     0.666828 
    0.428832     0.355764     0.420296 
    0.550112     0.376205     0.621960 
EA55846 16.305 15.284 14.569 90.00 90.00 90.00 Sym.group:    0
1.0
   16.304584     0.000000     0.000000
    0.000000    15.283864     0.000000
    0.000000     0.000000    14.569462
   W   B
  20   5
Direct
    0.719701     0.575589     0.463575 
    0.698338     0.443176     0.587529 
    0.586732     0.499822     0.494212 
    0.526128     0.597137     0.638113 
    0.652581     0.334372     0.461927 
    0.383015     0.650583     0.644996 
    0.520150     0.426948     0.651396 
    0.380214     0.501103     0.696409 
    0.485832     0.330948     0.511750 
    0.619064     0.300087     0.611172 
    0.619383     0.663291     0.379907 
    0.487399     0.576871     0.330666 
    0.533306     0.407374     0.361071 
    0.428971     0.508348     0.505987 
    0.415467     0.282700     0.371728 
    0.291026     0.525640     0.550561 
    0.322476     0.363618     0.472511 
    0.335401     0.594720     0.375899 
    0.371453     0.440432     0.337665 
    0.484901     0.666400     0.474908 
    0.665404     0.586451     0.599856 
    0.388309     0.392609     0.600478 
    0.614544     0.652578     0.529315 
    0.619828     0.527207     0.343999 
    0.350375     0.651998     0.504365 
EA56333 15.556 15.087 14.488 90.00 90.00 90.00 Sym.group:    0
1.0
   15.556109     0.000000     0.000000
    0.000000    15.087207     0.000000
    0.000000     0.000000    14.488323
   W   B
  19   2
Direct
    0.651039     0.410776     0.593769 
    0.594207     0.293512     0.472453 
    0.692017     0.416580     0.433239 
    0.699193     0.579589     0.495886 
    0.440679     0.371615     0.425844 
    0.445745     0.658463     0.452409 
    0.564356     0.420868     0.325058 
    0.574104     0.579252     0.321354 
    0.548118     0.511245     0.491463 
    0.566134     0.673575     0.589401 
    0.660806     0.562449     0.659266 
    0.416195     0.521976     0.336701 
    0.321053     0.347437     0.535832 
    0.375506     0.513792     0.538957 
    0.492041     0.354172     0.589946 
    0.361280     0.409139     0.681796 
    0.495542     0.519113     0.669080 
    0.295727     0.591454     0.406918 
    0.411305     0.660101     0.616657 
    0.589337     0.655595     0.445434 
    0.305616     0.449298     0.418534 
EA56693 16.611 14.437 14.608 90.00 90.00 90.00 Sym.group:    0
1.0
   16.611233     0.000000     0.000000
    0.000000    14.437428     0.000000
    0.000000     0.000000    14.608033
   W   B
  17   4
Direct
    0.636302     0.607200     0.574083 
    0.643602     0.435182     0.591708 
    0.529560     0.331814     0.593387 
    0.743727     0.508968     0.483689 
    0.494768     0.311062     0.422593 
    0.676580     0.600857     0.385364 
    0.623464     0.411589     0.418678 
    0.495323     0.494270     0.509465 
    0.371546     0.426734     0.391231 
    0.501373     0.655008     0.637831 
    0.548696     0.663316     0.452366 
    0.319514     0.484335     0.550364 
    0.526189     0.495916     0.693406 
    0.386619     0.643827     0.518032 
    0.288817     0.575887     0.409374 
    0.385926     0.316834     0.526737 
    0.433668     0.587762     0.359095 
    0.421645     0.422990     0.633721 
    0.411862     0.543142     0.636590 
    0.499046     0.447009     0.350518 
    0.561775     0.536299     0.361769 
EA57028 16.797 14.326 14.249 90.00 90.00 90.00 Sym.group:    0
1.0
   16.796620     0.000000     0.000000
    0.000000    14.325645     0.000000
    0.000000     0.000000    14.248922
   W   B
  16   5
Direct
    0.356410     0.515344     0.621000 
    0.374925     0.632788     0.489609 
    0.500500     0.681910     0.422496 
    0.259595     0.517742     0.481026 
    0.528154     0.550876     0.307841 
    0.308206     0.370885     0.496424 
    0.385830     0.502692     0.370770 
    0.504920     0.508482     0.504791 
    0.630702     0.440296     0.383034 
    0.488646     0.508799     0.704608 
    0.428288     0.368036     0.599511 
    0.678546     0.524740     0.522977 
    0.485493     0.660211     0.616093 
    0.597823     0.406621     0.630580 
    0.643003     0.624247     0.382360 
    0.547520     0.323328     0.490402 
    0.593184     0.641988     0.528711 
    0.589891     0.567517     0.624770 
    0.500371     0.409619     0.369332 
    0.427314     0.374372     0.440456 
    0.670678     0.369505     0.513206 
EA57373 15.411 15.320 14.396 90.00 90.00 90.00 Sym.group:    0
1.0
   15.410984     0.000000     0.000000
    0.000000    15.320052     0.000000
    0.000000     0.000000    14.395523
   W   B
  16   5
Direct
    0.315865     0.541908     0.505892 
    0.328121     0.374833     0.587480 
    0.482058     0.487909     0.495297 
    0.582294     0.355078     0.401458 
    0.481048     0.454893     0.305508 
    0.344955     0.413427     0.402721 
    0.441920     0.314121     0.493508 
    0.521411     0.609861     0.351814 
    0.593943     0.359165     0.570200 
    0.718901     0.435520     0.446039 
    0.712760     0.468737     0.602677 
    0.526936     0.717306     0.482659 
    0.434209     0.642727     0.601001 
    0.640124     0.584841     0.498750 
    0.555602     0.516818     0.646759 
    0.374727     0.502385     0.666282 
    0.391267     0.549450     0.371635 
    0.600916     0.495337     0.385302 
    0.414740     0.629989     0.448980 
    0.465112     0.392013     0.629691 
    0.573089     0.653682     0.606344 
EA57709 15.451 15.417 14.434 90.00 90.00 90.00 Sym.group:    0
1.0
   15.451176     0.000000     0.000000
    0.000000    15.416812     0.000000
    0.000000     0.000000    14.433530
   W   B
  16   5
Direct
    0.309842     0.459488     0.506849 
    0.477767     0.503249     0.495838 
    0.561998     0.647407     0.401525 
    0.483481     0.539244     0.302459 
    0.351799     0.588410     0.401850 
    0.432987     0.691456     0.501202 
    0.531941     0.391857     0.357064 
    0.579380     0.648708     0.573040 
    0.709182     0.587533     0.447021 
    0.705561     0.551513     0.601799 
    0.554728     0.285337     0.479826 
    0.442413     0.356343     0.614395 
    0.643697     0.427323     0.503190 
    0.555541     0.493049     0.650559 
    0.375020     0.491902     0.662783 
    0.401426     0.327909     0.455026 
    0.393209     0.449102     0.372062 
    0.603706     0.511709     0.385848 
    0.451461     0.604470     0.620810 
    0.579978     0.354486     0.609379 
    0.354885     0.589502     0.557478 
EA57919 14.711 16.294 15.031 90.00 90.00 90.00 Sym.group:    0
1.0
   14.711356     0.000000     0.000000
    0.000000    16.293868     0.000000
    0.000000     0.000000    15.031169
   W   B
  18   5
Direct
    0.426469     0.596379     0.627186 
    0.697099     0.388050     0.584947 
    0.577157     0.505394     0.605181 
    0.244245     0.429019     0.504702 
    0.569083     0.358796     0.493094 
    0.270657     0.550758     0.579352 
    0.402166     0.433288     0.612450 
    0.388152     0.368238     0.457043 
    0.539948     0.367279     0.675805 
    0.520983     0.660553     0.503805 
    0.643125     0.564844     0.422982 
    0.733143     0.426544     0.431061 
    0.588009     0.430423     0.346661 
    0.681480     0.646241     0.560984 
    0.477920     0.505527     0.459260 
    0.318398     0.526392     0.394131 
    0.413545     0.444956     0.289595 
    0.486641     0.572721     0.298847 
    0.568660     0.638250     0.643972 
    0.457825     0.312179     0.575104 
    0.414097     0.636592     0.397561 
    0.715061     0.516454     0.539994 
    0.366136     0.621122     0.496283 
EA58239 16.372 15.824 15.043 90.00 90.00 90.00 Sym.group:    0
1.0
   16.372101     0.000000     0.000000
    0.000000    15.823526     0.000000
    0.000000     0.000000    15.042967
   W   B
  19   5
Direct
    0.270738     0.452711     0.480665 
    0.412732     0.503456     0.520300 
    0.486942     0.435562     0.351064 
    0.370796     0.352756     0.439319 
    0.458679     0.587286     0.363019 
    0.429591     0.712522     0.464905 
    0.374439     0.634743     0.607801 
    0.361681     0.478817     0.674812 
    0.319046     0.617966     0.445548 
    0.534457     0.312592     0.430314 
    0.623410     0.544658     0.350437 
    0.716881     0.483869     0.485502 
    0.565851     0.495203     0.498953 
    0.529651     0.638871     0.579050 
    0.507513     0.510685     0.678487 
    0.648756     0.429376     0.645165 
    0.494051     0.368332     0.587006 
    0.672224     0.572556     0.627413 
    0.659902     0.385591     0.378187 
    0.356397     0.484145     0.374356 
    0.357059     0.379785     0.576777 
    0.654888     0.612683     0.484538 
    0.629556     0.364989     0.520481 
    0.564756     0.640850     0.435905 
EA58849 15.534 14.675 14.396 90.00 90.00 90.00 Sym.group:    0
1.0
   15.533728     0.000000     0.000000
    0.000000    14.674941     0.000000
    0.000000     0.000000    14.395524
   W   B
  17   2
Direct
    0.544216     0.575510     0.707231 
    0.476674     0.707830     0.427378 
    0.365240     0.591320     0.409389 
    0.273245     0.445975     0.444920 
    0.599975     0.642528     0.554428 
    0.611976     0.634191     0.383004 
    0.435662     0.639803     0.581881 
    0.402312     0.398909     0.371054 
    0.512566     0.307005     0.474297 
    0.490984     0.537387     0.321702 
    0.513068     0.501872     0.495619 
    0.547833     0.386385     0.638350 
    0.370493     0.370989     0.551302 
    0.420826     0.482196     0.675526 
    0.692852     0.494380     0.439631 
    0.665135     0.492630     0.608714 
    0.591534     0.391375     0.361913 
    0.354142     0.520295     0.543410 
    0.631269     0.379420     0.510252 
EA58948 16.662 14.789 14.204 90.00 90.00 90.00 Sym.group:    0
1.0
   16.661603     0.000000     0.000000
    0.000000    14.788538     0.000000
    0.000000     0.000000    14.204035
   W   B
  19   4
Direct
    0.501283     0.330362     0.486469 
    0.632582     0.345779     0.572254 
    0.644010     0.625930     0.584281 
    0.644080     0.384189     0.396504 
    0.570002     0.508446     0.476207 
    0.603434     0.507802     0.292159 
    0.599383     0.693178     0.442776 
    0.274821     0.475881     0.539223 
    0.346393     0.337104     0.424236 
    0.475663     0.420222     0.340414 
    0.481872     0.606426     0.363010 
    0.346295     0.640380     0.436107 
    0.404966     0.510049     0.680801 
    0.479871     0.658806     0.559844 
    0.420696     0.498454     0.507804 
    0.364095     0.354381     0.594106 
    0.326386     0.628220     0.608427 
    0.313497     0.482509     0.365568 
    0.702736     0.567471     0.417109 
    0.617746     0.483168     0.626362 
    0.532301     0.544667     0.637061 
    0.523530     0.426106     0.613886 
    0.694362     0.470468     0.535391 
EA59520 16.114 14.045 14.456 90.00 90.00 90.00 Sym.group:    0
1.0
   16.113898     0.000000     0.000000
    0.000000    14.045347     0.000000
    0.000000     0.000000    14.455599
   W   B
  17   2
Direct
    0.310444     0.484538     0.601986 
    0.491713     0.668268     0.378475 
    0.561421     0.661843     0.544272 
    0.711999     0.618340     0.544305 
    0.360084     0.521600     0.407162 
    0.490747     0.517630     0.302274 
    0.399764     0.649401     0.533160 
    0.722949     0.457470     0.507925 
    0.605819     0.364215     0.583233 
    0.628791     0.577648     0.398978 
    0.497423     0.497613     0.496025 
    0.454379     0.378624     0.634811 
    0.606287     0.526250     0.647751 
    0.441462     0.551688     0.669744 
    0.461526     0.350987     0.353790 
    0.365390     0.365462     0.490594 
    0.605808     0.394904     0.406166 
    0.281467     0.591003     0.505945 
    0.502530     0.322515     0.493407 
EA59585 16.555 14.739 13.961 90.00 90.00 90.00 Sym.group:    0
1.0
   16.555160     0.000000     0.000000
    0.000000    14.738586     0.000000
    0.000000     0.000000    13.960560
   W   B
  20   4
Direct
    0.733789     0.485772     0.400025 
    0.659945     0.318751     0.495837 
    0.616875     0.489305     0.514504 
    0.575519     0.544820     0.340262 
    0.691672     0.635951     0.415143 
    0.508429     0.339729     0.490552 
    0.322600     0.482363     0.350116 
    0.462272     0.424152     0.325984 
    0.622766     0.385393     0.337763 
    0.603954     0.361842     0.651865 
    0.678971     0.616622     0.603017 
    0.408684     0.714983     0.542735 
    0.311792     0.597364     0.503135 
    0.529193     0.625708     0.628481 
    0.381695     0.343155     0.586728 
    0.450625     0.511258     0.485618 
    0.480476     0.459818     0.659849 
    0.410782     0.624732     0.361599 
    0.349677     0.330276     0.421208 
    0.533556     0.678317     0.456970 
    0.347798     0.487927     0.611288 
    0.396862     0.587296     0.631915 
    0.309942     0.444703     0.507616 
    0.612126     0.509767     0.677788 
EA60086 16.150 14.523 14.769 90.00 90.00 90.00 Sym.group:    0
1.0
   16.150170     0.000000     0.000000
    0.000000    14.523241     0.000000
    0.000000     0.000000    14.769266
   W   B
  19   2
Direct
    0.585124     0.544590     0.372711 
    0.532280     0.372557     0.350396 
    0.381005     0.355140     0.428860 
    0.277617     0.395933     0.535129 
    0.322297     0.522962     0.427394 
    0.535689     0.317627     0.506764 
    0.477494     0.497040     0.492622 
    0.413784     0.369513     0.614492 
    0.429466     0.635854     0.356282 
    0.349879     0.536742     0.606837 
    0.364427     0.678387     0.493269 
    0.671252     0.376735     0.399898 
    0.648835     0.638480     0.607040 
    0.530555     0.684991     0.476678 
    0.688807     0.502556     0.507485 
    0.573141     0.456805     0.626538 
    0.678808     0.666670     0.449948 
    0.491169     0.617679     0.628129 
    0.453008     0.484961     0.731901 
    0.437759     0.483663     0.344089 
    0.657602     0.361115     0.543537 
EA60438 15.725 14.926 14.362 90.00 90.00 90.00 Sym.group:    0
1.0
   15.725291     0.000000     0.000000
    0.000000    14.925518     0.000000
    0.000000     0.000000    14.362335
   W   B
  16   5
Direct
    0.648378     0.387053     0.544619 
    0.544361     0.445712     0.674200 
    0.410624     0.560010     0.642475 
    0.410825     0.403062     0.559777 
    0.523316     0.342700     0.437629 
    0.528238     0.516791     0.502408 
    0.618664     0.670165     0.535656 
    0.688710     0.524576     0.438102 
    0.667082     0.375552     0.366994 
    0.596131     0.641113     0.366678 
    0.432149     0.599038     0.365455 
    0.457689     0.671613     0.520411 
    0.276909     0.425532     0.471077 
    0.552781     0.479289     0.325001 
    0.565606     0.612443     0.681909 
    0.528277     0.292284     0.609116 
    0.327342     0.516104     0.379977 
    0.650450     0.530870     0.597018 
    0.355909     0.553616     0.494173 
    0.419453     0.449930     0.402765 
    0.297107     0.502551     0.584558 
EA60770 15.716 14.902 14.366 90.00 90.00 90.00 Sym.group:    0
1.0
   15.715693     0.000000     0.000000
    0.000000    14.901676     0.000000
    0.000000     0.000000    14.366041
   W   B
  17   4
Direct
    0.652221     0.612207     0.544356 
    0.549567     0.560527     0.679068 
    0.403818     0.445883     0.647448 
    0.412649     0.609552     0.582365 
    0.520589     0.658282     0.439012 
    0.524284     0.494592     0.510422 
    0.597808     0.338096     0.501829 
    0.681848     0.474192     0.437063 
    0.666759     0.632952     0.371496 
    0.610167     0.358867     0.331654 
    0.453805     0.385623     0.393255 
    0.307313     0.609216     0.453169 
    0.554026     0.519452     0.329821 
    0.555676     0.385541     0.665059 
    0.539181     0.713263     0.608772 
    0.273886     0.495522     0.563543 
    0.309566     0.456880     0.386886 
    0.649862     0.465993     0.595272 
    0.356531     0.386871     0.512752 
    0.421034     0.542345     0.401710 
    0.459411     0.354142     0.545050 
EA61026 15.798 15.185 14.458 90.00 90.00 90.00 Sym.group:    0
1.0
   15.798383     0.000000     0.000000
    0.000000    15.185109     0.000000
    0.000000     0.000000    14.457827
   W   B
  18   4
Direct
    0.395985     0.269176     0.469102 
    0.399102     0.623507     0.546395 
    0.512457     0.667000     0.669468 
    0.454217     0.514304     0.668513 
    0.359567     0.423312     0.534947 
    0.287169     0.532157     0.635552 
    0.386864     0.535818     0.383929 
    0.434566     0.696889     0.383800 
    0.650877     0.454254     0.384827 
    0.544076     0.330989     0.421246 
    0.661012     0.385099     0.552823 
    0.626566     0.564192     0.614482 
    0.516098     0.495555     0.501126 
    0.496656     0.334511     0.585045 
    0.553599     0.679224     0.497785 
    0.548149     0.594150     0.345956 
    0.752684     0.502386     0.510538 
    0.396402     0.371327     0.347784 
    0.288159     0.546703     0.495869 
    0.656418     0.586796     0.458858 
    0.571633     0.435434     0.651624 
    0.507746     0.457217     0.340331 
