EA39584 15.183 14.408 13.898 90.00 90.00 90.00 Sym.group:    0
1.0
   15.183255     0.000000     0.000000
    0.000000    14.408112     0.000000
    0.000000     0.000000    13.897788
   W   B
  11  11
Direct
    0.403639     0.546857     0.370163 
    0.409053     0.376672     0.399986 
    0.445550     0.534169     0.656603 
    0.328119     0.604037     0.538636 
    0.449381     0.361986     0.588573 
    0.526249     0.510497     0.494684 
    0.543904     0.680087     0.424002 
    0.660958     0.640832     0.550087 
    0.553732     0.418533     0.322679 
    0.695557     0.478296     0.573285 
    0.673005     0.543806     0.400755 
    0.308797     0.473691     0.467205 
    0.335569     0.459090     0.595088 
    0.323182     0.369387     0.521702 
    0.464557     0.654783     0.553090 
    0.406642     0.682080     0.448902 
    0.538086     0.340286     0.459094 
    0.563556     0.439590     0.651445 
    0.592460     0.552165     0.650839 
    0.638761     0.398428     0.448978 
    0.543781     0.565809     0.325071 
    0.595459     0.368923     0.559137 
EA39568 14.835 14.697 14.445 90.00 90.00 90.00 Sym.group:    0
1.0
   14.835500     0.000000     0.000000
    0.000000    14.697109     0.000000
    0.000000     0.000000    14.445383
   W   B
  11  12
Direct
    0.514242     0.497945     0.510151 
    0.610627     0.669564     0.490091 
    0.385744     0.350115     0.479036 
    0.386143     0.576799     0.639298 
    0.635088     0.415446     0.371432 
    0.677501     0.493640     0.525391 
    0.545355     0.516179     0.701697 
    0.505840     0.627817     0.364382 
    0.414996     0.670733     0.503830 
    0.433384     0.407459     0.645180 
    0.451878     0.448762     0.352767 
    0.322834     0.472464     0.433771 
    0.618011     0.357840     0.510475 
    0.623391     0.601120     0.617207 
    0.311692     0.568737     0.502590 
    0.513253     0.327262     0.551695 
    0.579167     0.521562     0.298600 
    0.369317     0.572723     0.397967 
    0.588152     0.396359     0.616757 
    0.323263     0.464398     0.553460 
    0.643787     0.563737     0.390511 
    0.528598     0.338204     0.432965 
    0.517738     0.641139     0.610749 
EA24785 15.156 14.111 14.767 90.00 90.00 90.00 Sym.group:    0
1.0
   15.156294     0.000000     0.000000
    0.000000    14.111381     0.000000
    0.000000     0.000000    14.767048
   W   B
  11  13
Direct
    0.495981     0.497645     0.501198 
    0.648238     0.415076     0.562892 
    0.709944     0.615403     0.578381 
    0.542151     0.677514     0.574582 
    0.382092     0.670104     0.512910 
    0.516411     0.317172     0.606092 
    0.443515     0.564113     0.653528 
    0.648732     0.631002     0.435305 
    0.385869     0.588526     0.368465 
    0.624562     0.454395     0.391009 
    0.361149     0.418122     0.413681 
    0.540225     0.446735     0.664764 
    0.456189     0.311893     0.471467 
    0.568281     0.331915     0.467926 
    0.391325     0.357849     0.549981 
    0.297243     0.542642     0.482394 
    0.594550     0.544706     0.635842 
    0.335547     0.458418     0.558874 
    0.310832     0.568395     0.592437 
    0.504173     0.663807     0.429066 
    0.532541     0.575928     0.351430 
    0.481001     0.472590     0.335949 
    0.499431     0.366919     0.380620 
    0.730017     0.509133     0.481208 
EA39474 15.292 14.429 14.246 90.00 90.00 90.00 Sym.group:    0
1.0
   15.292088     0.000000     0.000000
    0.000000    14.428678     0.000000
    0.000000     0.000000    14.245749
   W   B
  11  14
Direct
    0.501665     0.488550     0.488910 
    0.722151     0.539669     0.507715 
    0.344550     0.400340     0.434762 
    0.577085     0.660998     0.479857 
    0.372581     0.381760     0.601788 
    0.425905     0.509207     0.316703 
    0.408365     0.545674     0.651508 
    0.426809     0.661792     0.402773 
    0.501945     0.348723     0.355852 
    0.636848     0.429018     0.595085 
    0.659927     0.409174     0.409764 
    0.497851     0.427818     0.667246 
    0.446647     0.664986     0.554969 
    0.311522     0.506791     0.540041 
    0.629401     0.584181     0.608996 
    0.454580     0.316196     0.494246 
    0.633337     0.553815     0.388011 
    0.549384     0.527026     0.673767 
    0.566706     0.482559     0.323356 
    0.510082     0.338294     0.594306 
    0.529355     0.631642     0.621779 
    0.331186     0.549883     0.428878 
    0.352764     0.614818     0.526737 
    0.541765     0.597842     0.338989 
    0.567591     0.329245     0.493961 
EA39419 15.921 13.850 15.107 90.00 90.00 90.00 Sym.group:    0
1.0
   15.921490     0.000000     0.000000
    0.000000    13.850157     0.000000
    0.000000     0.000000    15.106984
   W   B
  11  15
Direct
    0.496535     0.638669     0.495679 
    0.411947     0.498626     0.580778 
    0.503844     0.357623     0.505000 
    0.597669     0.503211     0.403901 
    0.588381     0.504092     0.582398 
    0.402574     0.496874     0.403320 
    0.502565     0.364033     0.688618 
    0.683670     0.360580     0.498067 
    0.672435     0.656446     0.497669 
    0.320640     0.645828     0.493969 
    0.322975     0.349031     0.495483 
    0.503012     0.384619     0.358096 
    0.498333     0.612790     0.350965 
    0.498518     0.509747     0.701045 
    0.607123     0.342609     0.607465 
    0.705841     0.509386     0.499916 
    0.591927     0.663222     0.604147 
    0.293610     0.496630     0.497707 
    0.408359     0.335585     0.396463 
    0.500447     0.496412     0.309822 
    0.400771     0.657464     0.388479 
    0.600073     0.341950     0.397611 
    0.593990     0.662751     0.390231 
    0.399089     0.657654     0.601909 
    0.399372     0.337110     0.606496 
    0.496299     0.617059     0.644765 
EA39569 14.416 14.378 14.436 90.00 90.00 90.00 Sym.group:    0
1.0
   14.416489     0.000000     0.000000
    0.000000    14.377889     0.000000
    0.000000     0.000000    14.436053
   W   B
  12  11
Direct
    0.367624     0.359995     0.457899 
    0.636457     0.412435     0.379720 
    0.364483     0.493864     0.352867 
    0.637745     0.585869     0.371854 
    0.361345     0.635947     0.446780 
    0.635780     0.644943     0.532966 
    0.364626     0.592409     0.609974 
    0.628848     0.504863     0.651194 
    0.372923     0.418762     0.621855 
    0.630967     0.357600     0.552627 
    0.502811     0.512234     0.488866 
    0.527223     0.370800     0.695173 
    0.482541     0.325271     0.559553 
    0.521061     0.331913     0.450354 
    0.484942     0.391215     0.359650 
    0.517832     0.494253     0.322265 
    0.483100     0.600125     0.349597 
    0.515240     0.669832     0.435154 
    0.483405     0.674901     0.544897 
    0.519482     0.611086     0.633197 
    0.480231     0.513987     0.684347 
    0.310837     0.497798     0.500263 
    0.670501     0.499897     0.498947 
EA20016 15.902 14.746 13.762 90.00 90.00 90.00 Sym.group:    0
1.0
   15.902139     0.000000     0.000000
    0.000000    14.746258     0.000000
    0.000000     0.000000    13.762154
   W   B
  12  12
Direct
    0.474501     0.710968     0.533008 
    0.389663     0.508499     0.360120 
    0.484250     0.504115     0.506838 
    0.410439     0.596440     0.651533 
    0.306498     0.492458     0.545087 
    0.574417     0.452482     0.347615 
    0.403183     0.423830     0.658129 
    0.722629     0.457970     0.573775 
    0.724500     0.480078     0.401084 
    0.432489     0.351336     0.383837 
    0.621603     0.593437     0.459482 
    0.585027     0.388776     0.618862 
    0.515839     0.584960     0.345979 
    0.437519     0.647440     0.397773 
    0.544430     0.618651     0.616446 
    0.534010     0.693729     0.397793 
    0.309259     0.400780     0.423690 
    0.522714     0.512577     0.675179 
    0.373940     0.616626     0.491438 
    0.359320     0.355372     0.520679 
    0.547744     0.356713     0.469129 
    0.462977     0.337262     0.541161 
    0.648138     0.381378     0.471410 
    0.614916     0.534125     0.609954 
EA39475 15.950 15.024 14.237 90.00 90.00 90.00 Sym.group:    0
1.0
   15.950375     0.000000     0.000000
    0.000000    15.024165     0.000000
    0.000000     0.000000    14.237196
   W   B
  12  13
Direct
    0.489198     0.491015     0.500412 
    0.386835     0.612442     0.380214 
    0.465052     0.353222     0.361577 
    0.651555     0.412356     0.512617 
    0.585557     0.642979     0.544657 
    0.265358     0.577409     0.494347 
    0.413096     0.640257     0.556282 
    0.504403     0.712358     0.415679 
    0.346357     0.470594     0.586897 
    0.600042     0.465518     0.354662 
    0.587808     0.513271     0.670634 
    0.334952     0.456411     0.403583 
    0.586476     0.328736     0.410789 
    0.550784     0.384054     0.612502 
    0.471647     0.436823     0.669572 
    0.603922     0.609048     0.395610 
    0.685911     0.539858     0.572010 
    0.446218     0.359330     0.593388 
    0.510030     0.630207     0.670074 
    0.672434     0.548313     0.457599 
    0.459155     0.492462     0.327944 
    0.517508     0.585141     0.335402 
    0.397306     0.357745     0.492399 
    0.446407     0.544076     0.674160 
    0.521988     0.336373     0.506986 
EA39420 15.926 13.963 15.103 90.00 90.00 90.00 Sym.group:    0
1.0
   15.925874     0.000000     0.000000
    0.000000    13.963007     0.000000
    0.000000     0.000000    15.102611
   W   B
  12  14
Direct
    0.504458     0.365194     0.534014 
    0.589979     0.522712     0.578243 
    0.494087     0.637163     0.475125 
    0.402004     0.472659     0.406725 
    0.409318     0.515728     0.579252 
    0.597794     0.480840     0.405738 
    0.504759     0.401778     0.704584 
    0.495634     0.684152     0.643938 
    0.315297     0.634445     0.461795 
    0.321014     0.350816     0.524659 
    0.686232     0.361668     0.520724 
    0.678391     0.646767     0.460896 
    0.497743     0.577287     0.337004 
    0.502746     0.353692     0.385303 
    0.500104     0.547881     0.694084 
    0.387316     0.679594     0.566399 
    0.290222     0.492748     0.495572 
    0.396788     0.361757     0.634539 
    0.709818     0.505637     0.493209 
    0.591213     0.633419     0.363367 
    0.500261     0.454204     0.316598 
    0.599300     0.322456     0.428310 
    0.401423     0.625591     0.362207 
    0.408193     0.315895     0.431205 
    0.613146     0.369081     0.632105 
    0.602762     0.686834     0.564404 
EA39371 14.516 14.259 14.384 90.00 90.00 90.00 Sym.group:    0
1.0
   14.515971     0.000000     0.000000
    0.000000    14.258876     0.000000
    0.000000     0.000000    14.384047
   W   B
  12  15
Direct
    0.578000     0.442052     0.375710 
    0.432167     0.569836     0.397148 
    0.574950     0.635343     0.511165 
    0.431541     0.552533     0.613925 
    0.577857     0.423151     0.612618 
    0.433115     0.375777     0.491596 
    0.416258     0.728589     0.518547 
    0.578773     0.601033     0.707550 
    0.418647     0.370111     0.687197 
    0.579705     0.267753     0.483555 
    0.418882     0.401709     0.295142 
    0.577085     0.633411     0.309335 
    0.500028     0.301734     0.366242 
    0.495884     0.521937     0.257649 
    0.498163     0.718395     0.397667 
    0.494730     0.699095     0.637631 
    0.500362     0.482227     0.739714 
    0.495674     0.278932     0.602813 
    0.666862     0.568455     0.399605 
    0.327077     0.618127     0.507934 
    0.668214     0.551707     0.608397 
    0.326750     0.433150     0.597681 
    0.667675     0.378129     0.490991 
    0.328513     0.447939     0.392590 
    0.323660     0.499914     0.499476 
    0.521730     0.499144     0.499568 
    0.667697     0.499818     0.498552 
EA18709 16.020 13.699 14.368 90.00 90.00 90.00 Sym.group:    0
1.0
   16.019552     0.000000     0.000000
    0.000000    13.699379     0.000000
    0.000000     0.000000    14.368139
   W   B
  13  11
Direct
    0.440126     0.451352     0.357156 
    0.352676     0.528957     0.645222 
    0.321273     0.654664     0.525886 
    0.468020     0.373092     0.607623 
    0.463362     0.654927     0.589232 
    0.454540     0.635241     0.413180 
    0.546277     0.511077     0.490062 
    0.619958     0.688801     0.520542 
    0.577320     0.521727     0.288001 
    0.617591     0.428134     0.652322 
    0.692692     0.545338     0.408531 
    0.610113     0.376320     0.372489 
    0.712377     0.553010     0.576142 
    0.342123     0.406179     0.555458 
    0.498685     0.341386     0.458267 
    0.397620     0.348765     0.471870 
    0.324116     0.424606     0.435448 
    0.500613     0.515725     0.652438 
    0.288407     0.504833     0.515733 
    0.589648     0.644633     0.382671 
    0.586364     0.587155     0.634017 
    0.585155     0.345435     0.527439 
    0.339167     0.543772     0.414204 
    0.671778     0.414868     0.506067 
EA39477 14.961 14.850 14.612 90.00 90.00 90.00 Sym.group:    0
1.0
   14.960717     0.000000     0.000000
    0.000000    14.849896     0.000000
    0.000000     0.000000    14.611730
   W   B
  13  12
Direct
    0.498052     0.520232     0.505333 
    0.697234     0.480900     0.516546 
    0.604597     0.333058     0.507760 
    0.381945     0.628821     0.407422 
    0.316066     0.554827     0.564034 
    0.539450     0.621717     0.340678 
    0.507609     0.356292     0.370598 
    0.432671     0.315893     0.517716 
    0.444594     0.579014     0.675500 
    0.389452     0.423293     0.646550 
    0.423561     0.496412     0.313396 
    0.642578     0.637579     0.491491 
    0.622301     0.564895     0.648887 
    0.320009     0.495217     0.424697 
    0.420646     0.661401     0.550446 
    0.619179     0.418668     0.629879 
    0.640729     0.420171     0.391308 
    0.521813     0.359535     0.629179 
    0.529037     0.664670     0.586262 
    0.503688     0.684894     0.474553 
    0.572061     0.480019     0.321005 
    0.652183     0.534066     0.382271 
    0.528814     0.458255     0.688829 
    0.324523     0.417528     0.509893 
    0.367208     0.392646     0.405766 
EA39421 14.246 13.626 13.255 90.00 90.00 90.00 Sym.group:    0
1.0
   14.245538     0.000000     0.000000
    0.000000    13.626128     0.000000
    0.000000     0.000000    13.255380
   W   B
  13  13
Direct
    0.580774     0.399584     0.561995 
    0.421774     0.497204     0.614513 
    0.582932     0.606562     0.565868 
    0.417601     0.603172     0.436259 
    0.578229     0.499650     0.378008 
    0.420226     0.397755     0.438234 
    0.409184     0.503215     0.257155 
    0.585031     0.296236     0.378423 
    0.403511     0.290782     0.617387 
    0.587348     0.492923     0.744104 
    0.410729     0.697677     0.628493 
    0.587588     0.703302     0.385584 
    0.720054     0.537373     0.640020 
    0.311413     0.609326     0.563263 
    0.689663     0.604817     0.439778 
    0.312893     0.498803     0.370382 
    0.688517     0.382823     0.438775 
    0.310027     0.390785     0.563576 
    0.497438     0.609515     0.710454 
    0.495715     0.731934     0.505557 
    0.498045     0.621644     0.293812 
    0.499596     0.387394     0.287985 
    0.496106     0.267138     0.495769 
    0.492460     0.376712     0.700134 
    0.296126     0.500222     0.499705 
    0.707023     0.493452     0.484765 
EA8030 15.148 15.732 15.148 90.00 90.00 90.00 Sym.group:    0
1.0
   15.147704     0.000000     0.000000
    0.000000    15.732154     0.000000
    0.000000     0.000000    15.147704
   W   B
  13  14
Direct
    0.500029     0.499981     0.500155 
    0.364969     0.627489     0.493824 
    0.366384     0.373828     0.501793 
    0.633681     0.626240     0.498312 
    0.634882     0.372557     0.506507 
    0.503015     0.365209     0.370050 
    0.632126     0.503466     0.632542 
    0.502553     0.626284     0.361393 
    0.367756     0.496588     0.367473 
    0.496739     0.634697     0.629942 
    0.361891     0.504308     0.629813 
    0.497794     0.373677     0.638699 
    0.638405     0.495729     0.369980 
    0.316823     0.500346     0.497742 
    0.682869     0.499552     0.502115 
    0.496545     0.505141     0.672538 
    0.503415     0.494789     0.327478 
    0.500231     0.331496     0.505645 
    0.499751     0.668498     0.494435 
    0.642063     0.633062     0.355320 
    0.362213     0.632433     0.351105 
    0.637174     0.641107     0.640188 
    0.357415     0.641543     0.635949 
    0.642519     0.358442     0.363885 
    0.362746     0.358912     0.359793 
    0.637904     0.367637     0.648760 
    0.358109     0.366989     0.644565 
EA29245 16.573 14.799 14.317 90.00 90.00 90.00 Sym.group:    0
1.0
   16.572770     0.000000     0.000000
    0.000000    14.798879     0.000000
    0.000000     0.000000    14.317043
   W   B
  13  15
Direct
    0.422352     0.673388     0.356740 
    0.402840     0.448418     0.675411 
    0.281013     0.519231     0.616013 
    0.359754     0.369683     0.527645 
    0.317498     0.632830     0.501109 
    0.466135     0.503905     0.322253 
    0.602970     0.358058     0.534091 
    0.479246     0.488430     0.510892 
    0.721609     0.460325     0.524616 
    0.610353     0.696102     0.573036 
    0.535758     0.580901     0.660266 
    0.562349     0.619539     0.401146 
    0.466621     0.676833     0.528492 
    0.543823     0.394095     0.400522 
    0.349264     0.553422     0.379735 
    0.362783     0.440802     0.392336 
    0.476954     0.343065     0.597661 
    0.395808     0.589472     0.629319 
    0.481043     0.319285     0.483183 
    0.304074     0.492259     0.470136 
    0.438983     0.370175     0.391750 
    0.664897     0.570247     0.607708 
    0.624354     0.468481     0.628693 
    0.670306     0.522451     0.401500 
    0.595095     0.483626     0.336608 
    0.651880     0.410716     0.405668 
    0.677533     0.592894     0.490529 
    0.534705     0.421364     0.652947 
EA39478 15.979 14.597 14.470 90.00 90.00 90.00 Sym.group:    0
1.0
   15.979116     0.000000     0.000000
    0.000000    14.597211     0.000000
    0.000000     0.000000    14.470140
   W   B
  14  11
Direct
    0.501854     0.473768     0.509030 
    0.431827     0.679497     0.372297 
    0.477727     0.668662     0.535548 
    0.450374     0.292959     0.484204 
    0.604995     0.332953     0.559245 
    0.346672     0.417389     0.408765 
    0.368545     0.570923     0.624630 
    0.532437     0.580279     0.671643 
    0.676991     0.426141     0.428279 
    0.657823     0.510007     0.576781 
    0.354922     0.402241     0.579051 
    0.446920     0.526202     0.317001 
    0.584983     0.597511     0.417930 
    0.256905     0.530845     0.514003 
    0.482457     0.354043     0.622640 
    0.560677     0.348005     0.417465 
    0.611632     0.661583     0.566966 
    0.345785     0.638783     0.488885 
    0.726062     0.558789     0.447637 
    0.561775     0.450309     0.355053 
    0.471406     0.381492     0.363690 
    0.339122     0.566139     0.395975 
    0.695143     0.640662     0.509719 
    0.558955     0.433482     0.661582 
    0.454010     0.457339     0.671981 
EA3810 15.689 14.013 15.444 90.00 90.00 90.00 Sym.group:    0
1.0
   15.689126     0.000000     0.000000
    0.000000    14.012671     0.000000
    0.000000     0.000000    15.444300
   W   B
  14  12
Direct
    0.424758     0.452550     0.397422 
    0.565544     0.383632     0.501541 
    0.575513     0.551495     0.597370 
    0.436435     0.621639     0.502821 
    0.418438     0.455598     0.582660 
    0.582469     0.542830     0.411207 
    0.551835     0.364169     0.676987 
    0.418711     0.613509     0.686275 
    0.274413     0.520464     0.484901 
    0.725128     0.466460     0.507108 
    0.597196     0.718589     0.488536 
    0.512315     0.507068     0.268038 
    0.570129     0.361534     0.318657 
    0.525544     0.720310     0.625539 
    0.442025     0.610218     0.358618 
    0.469111     0.303196     0.592110 
    0.493756     0.491959     0.706054 
    0.326112     0.583208     0.594544 
    0.323928     0.388225     0.490443 
    0.668287     0.409830     0.398139 
    0.681894     0.603958     0.509175 
    0.512372     0.690133     0.391522 
    0.343425     0.588063     0.392679 
    0.483627     0.308875     0.409620 
    0.658298     0.415953     0.611850 
    0.418740     0.326536     0.496186 
EA39373 15.823 15.823 15.823 90.00 90.00 90.00 Sym.group:    0
1.0
   15.823011     0.000000     0.000000
    0.000000    15.823011     0.000000
    0.000000     0.000000    15.823011
   W   B
  14  13
Direct
    0.507170     0.494488     0.505367 
    0.381212     0.457316     0.370481 
    0.618721     0.547279     0.629976 
    0.621507     0.549077     0.370545 
    0.380274     0.450128     0.631366 
    0.333287     0.570847     0.494573 
    0.449355     0.617280     0.371099 
    0.428853     0.330562     0.501312 
    0.550195     0.379447     0.369657 
    0.573687     0.667805     0.501599 
    0.549861     0.381647     0.629301 
    0.666994     0.428916     0.503126 
    0.451223     0.618600     0.631074 
    0.296754     0.588242     0.342824 
    0.676667     0.425777     0.364850 
    0.573701     0.676445     0.636751 
    0.425312     0.322769     0.636093 
    0.679143     0.424293     0.638066 
    0.323493     0.573518     0.633212 
    0.425963     0.325170     0.365715 
    0.574812     0.676511     0.366629 
    0.442180     0.649006     0.501778 
    0.561203     0.346049     0.499272 
    0.351645     0.438320     0.501415 
    0.654099     0.561777     0.500231 
    0.503702     0.499014     0.335118 
    0.498986     0.499717     0.668568 
EA39328 16.782 15.777 14.461 90.00 90.00 90.00 Sym.group:    0
1.0
   16.782154     0.000000     0.000000
    0.000000    15.776710     0.000000
    0.000000     0.000000    14.461116
   W   B
  14  14
Direct
    0.485489     0.541547     0.495918 
    0.392274     0.680327     0.535902 
    0.543330     0.595635     0.331762 
    0.613903     0.645786     0.486975 
    0.383804     0.518273     0.317641 
    0.516812     0.648327     0.653922 
    0.609784     0.461009     0.419087 
    0.694811     0.584045     0.365586 
    0.400447     0.425556     0.610705 
    0.432427     0.384846     0.427318 
    0.328709     0.530973     0.486894 
    0.507760     0.303745     0.565842 
    0.611933     0.526938     0.617508 
    0.287302     0.417145     0.371727 
    0.405577     0.633303     0.398342 
    0.488094     0.685410     0.432789 
    0.512180     0.727585     0.533848 
    0.499705     0.469394     0.337645 
    0.700411     0.535493     0.505152 
    0.679213     0.430071     0.545347 
    0.406724     0.569587     0.627075 
    0.526360     0.416359     0.655606 
    0.613491     0.380205     0.617880 
    0.379248     0.309037     0.539836 
    0.554069     0.331005     0.432305 
    0.312601     0.387144     0.510798 
    0.626241     0.344915     0.507796 
    0.487301     0.516340     0.668794 
EA35950 17.398 15.190 13.445 90.00 90.00 90.00 Sym.group:    0
1.0
   17.397869     0.000000     0.000000
    0.000000    15.190426     0.000000
    0.000000     0.000000    13.445006
   W   B
  14  15
Direct
    0.526835     0.612810     0.375893 
    0.397315     0.662351     0.498546 
    0.368474     0.569131     0.651713 
    0.414783     0.310870     0.457772 
    0.369422     0.394855     0.616528 
    0.438049     0.493380     0.485511 
    0.304391     0.542366     0.393184 
    0.510818     0.398058     0.357918 
    0.526434     0.604966     0.600087 
    0.525471     0.354624     0.581136 
    0.681039     0.589974     0.401611 
    0.596045     0.485020     0.481319 
    0.675587     0.396268     0.615542 
    0.729306     0.410047     0.457420 
    0.403877     0.609761     0.348536 
    0.514102     0.711634     0.487131 
    0.320047     0.412144     0.464603 
    0.286109     0.601516     0.537969 
    0.291943     0.492927     0.549111 
    0.423787     0.507535     0.311914 
    0.371835     0.419015     0.356518 
    0.657457     0.616239     0.556907 
    0.567485     0.475733     0.664656 
    0.623697     0.330508     0.468720 
    0.605294     0.680825     0.483635 
    0.539650     0.277352     0.445934 
    0.716261     0.528193     0.549674 
    0.644179     0.537522     0.644281 
    0.470305     0.474377     0.656234 
EA39422 16.874 14.236 14.954 90.00 90.00 90.00 Sym.group:    0
1.0
   16.873890     0.000000     0.000000
    0.000000    14.235556     0.000000
    0.000000     0.000000    14.954128
   W   B
  15  11
Direct
    0.542164     0.500429     0.499091 
    0.591433     0.491445     0.692477 
    0.376258     0.544073     0.568494 
    0.508716     0.625251     0.624743 
    0.623253     0.335717     0.454603 
    0.462682     0.419969     0.639972 
    0.701448     0.573486     0.473009 
    0.639557     0.465528     0.351785 
    0.481730     0.378765     0.377998 
    0.510737     0.541065     0.307737 
    0.383181     0.523670     0.398068 
    0.472404     0.661345     0.448013 
    0.324136     0.687160     0.456631 
    0.272644     0.412340     0.493074 
    0.696554     0.448269     0.584581 
    0.638178     0.594968     0.598997 
    0.583472     0.371298     0.592411 
    0.504489     0.344563     0.520477 
    0.595272     0.654185     0.512049 
    0.731166     0.421700     0.447992 
    0.340612     0.396668     0.604389 
    0.267753     0.558451     0.473720 
    0.398507     0.697456     0.568662 
    0.355857     0.365229     0.403191 
    0.402995     0.372556     0.508242 
    0.594805     0.614414     0.399594 
EA33547 16.879 15.366 14.300 90.00 90.00 90.00 Sym.group:    0
1.0
   16.878928     0.000000     0.000000
    0.000000    15.365532     0.000000
    0.000000     0.000000    14.299905
   W   B
  15  12
Direct
    0.390027     0.523022     0.393499 
    0.285829     0.516140     0.531528 
    0.731333     0.575166     0.522909 
    0.626409     0.688595     0.471729 
    0.624155     0.611355     0.622048 
    0.481919     0.651533     0.514492 
    0.471545     0.593344     0.679010 
    0.516494     0.479199     0.501375 
    0.583922     0.302868     0.485586 
    0.678424     0.426314     0.435724 
    0.431500     0.354927     0.392903 
    0.666449     0.443942     0.599423 
    0.536768     0.343054     0.632805 
    0.525965     0.612705     0.354724 
    0.383301     0.392438     0.553183 
    0.405907     0.660564     0.385537 
    0.363869     0.618122     0.592499 
    0.345852     0.634492     0.476742 
    0.369627     0.519385     0.643605 
    0.560037     0.388631     0.368054 
    0.497599     0.469236     0.323856 
    0.312086     0.416628     0.426653 
    0.552010     0.484168     0.664478 
    0.460165     0.279610     0.520883 
    0.592149     0.490937     0.348882 
    0.453710     0.457020     0.660670 
    0.652949     0.566606     0.397205 
EA39329 16.379 15.628 14.940 90.00 90.00 90.00 Sym.group:    0
1.0
   16.379356     0.000000     0.000000
    0.000000    15.628217     0.000000
    0.000000     0.000000    14.940229
   W   B
  15  13
Direct
    0.617715     0.516360     0.636622 
    0.365465     0.641973     0.506359 
    0.512809     0.658204     0.593324 
    0.554954     0.604404     0.331322 
    0.496945     0.534323     0.495073 
    0.647229     0.532677     0.434173 
    0.487200     0.279177     0.393417 
    0.550693     0.381864     0.541067 
    0.547845     0.423106     0.346897 
    0.710316     0.413462     0.558205 
    0.283330     0.388474     0.535721 
    0.397494     0.410065     0.423466 
    0.532762     0.408534     0.709891 
    0.405309     0.433172     0.627827 
    0.411072     0.291693     0.542440 
    0.722648     0.547637     0.552830 
    0.489906     0.683893     0.446464 
    0.588939     0.661270     0.465306 
    0.430889     0.626715     0.375887 
    0.403360     0.575394     0.625794 
    0.300921     0.511101     0.471858 
    0.649348     0.626598     0.550641 
    0.607956     0.310975     0.418366 
    0.665157     0.395925     0.423903 
    0.448845     0.519500     0.338016 
    0.489155     0.541001     0.677875 
    0.317151     0.532685     0.580456 
    0.364588     0.549814     0.396797 
EA33482 16.716 15.232 14.997 90.00 90.00 90.00 Sym.group:    0
1.0
   16.715909     0.000000     0.000000
    0.000000    15.231560     0.000000
    0.000000     0.000000    14.997485
   W   B
  15  14
Direct
    0.408896     0.569875     0.413832 
    0.517061     0.463702     0.517759 
    0.267733     0.500308     0.411495 
    0.369711     0.398135     0.487398 
    0.464781     0.541471     0.675850 
    0.568977     0.373355     0.658567 
    0.486882     0.431429     0.349439 
    0.669385     0.373108     0.536386 
    0.594414     0.589332     0.415632 
    0.660995     0.436974     0.371555 
    0.526484     0.641306     0.558214 
    0.639195     0.519555     0.622862 
    0.698617     0.654662     0.522340 
    0.484661     0.703747     0.378709 
    0.639674     0.675493     0.662060 
    0.579797     0.342152     0.426119 
    0.468640     0.322659     0.567921 
    0.363624     0.468010     0.620506 
    0.482508     0.322840     0.455734 
    0.341961     0.569097     0.639614 
    0.394124     0.635331     0.578485 
    0.559735     0.301407     0.529728 
    0.359425     0.443994     0.344470 
    0.438436     0.401043     0.635635 
    0.313839     0.523283     0.539919 
    0.696390     0.513233     0.488837 
    0.419173     0.699866     0.495066 
    0.582008     0.511276     0.288497 
    0.502875     0.573357     0.307373 
EA39294 17.025 15.495 14.824 90.00 90.00 90.00 Sym.group:    0
1.0
   17.025447     0.000000     0.000000
    0.000000    15.495386     0.000000
    0.000000     0.000000    14.824118
   W   B
  15  15
Direct
    0.361430     0.490801     0.340114 
    0.420090     0.490507     0.505648 
    0.475190     0.503782     0.678868 
    0.509874     0.640268     0.576829 
    0.354645     0.604698     0.588488 
    0.479207     0.607227     0.375849 
    0.623340     0.642799     0.440109 
    0.682847     0.590048     0.598065 
    0.569340     0.499515     0.494958 
    0.676007     0.467174     0.375465 
    0.555958     0.340781     0.400304 
    0.624747     0.444586     0.642008 
    0.512865     0.456359     0.306573 
    0.438735     0.311195     0.511546 
    0.316557     0.381697     0.443269 
    0.354948     0.616087     0.432731 
    0.347382     0.471327     0.644490 
    0.292649     0.541348     0.465610 
    0.288413     0.478934     0.555203 
    0.418331     0.686968     0.482640 
    0.512921     0.716954     0.455716 
    0.709068     0.466043     0.523718 
    0.506227     0.374744     0.629869 
    0.569336     0.346230     0.547507 
    0.581072     0.577139     0.683459 
    0.729197     0.556158     0.467997 
    0.654671     0.379139     0.500942 
    0.410763     0.388461     0.631614 
    0.429081     0.367975     0.373616 
    0.595105     0.561055     0.326798 
