EA9    19.318 16.077 11.847 90.00 90.00 90.00 Sym.group:    0
1.0
   19.318093     0.000000     0.000000
    0.000000    16.076712     0.000000
    0.000000     0.000000    11.847148
   W   B
  15  15
Direct
    0.612187     0.524102     0.581292 
    0.395968     0.481699     0.593510 
    0.678992     0.647170     0.510614 
    0.325191     0.352064     0.515847 
    0.684778     0.417680     0.421043 
    0.312843     0.570657     0.414559 
    0.552947     0.694701     0.510948 
    0.463177     0.324376     0.527118 
    0.215412     0.468169     0.484407 
    0.782835     0.535549     0.486532 
    0.272971     0.565809     0.604871 
    0.721615     0.422100     0.606115 
    0.402806     0.435295     0.385766 
    0.596956     0.561595     0.386819 
    0.524160     0.380339     0.341118 
    0.494601     0.617134     0.409968 
    0.617610     0.364910     0.534802 
    0.375047     0.622551     0.553583 
    0.443844     0.672442     0.497396 
    0.565951     0.285414     0.487850 
    0.495947     0.520138     0.356589 
    0.482596     0.609668     0.596712 
    0.492969     0.419869     0.632811 
    0.708383     0.552742     0.371242 
    0.295843     0.437665     0.381797 
    0.422115     0.566787     0.434413 
    0.555548     0.441641     0.476291 
    0.280757     0.437098     0.622017 
    0.722546     0.556660     0.626082 
    0.503403     0.513974     0.647891 
EA449  14.144 13.866 14.073 90.00 90.00 90.00 Sym.group:    0
1.0
   14.143910     0.000000     0.000000
    0.000000    13.865725     0.000000
    0.000000     0.000000    14.072978
   W   B
  12  15
Direct
    0.395984     0.344855     0.591985 
    0.398404     0.363640     0.382895 
    0.397397     0.570438     0.335815 
    0.397259     0.678886     0.515690 
    0.397816     0.541432     0.673602 
    0.603636     0.345181     0.591451 
    0.600920     0.364181     0.383418 
    0.602300     0.570453     0.336279 
    0.602533     0.679149     0.515858 
    0.601945     0.541584     0.673608 
    0.407768     0.498461     0.500107 
    0.593515     0.499901     0.500920 
    0.716665     0.592625     0.444794 
    0.716964     0.581667     0.569730 
    0.716474     0.458051     0.598533 
    0.716356     0.392501     0.490534 
    0.716070     0.475433     0.396121 
    0.283806     0.592376     0.444816 
    0.283575     0.581405     0.569583 
    0.283781     0.458096     0.598400 
    0.283778     0.392431     0.490605 
    0.284070     0.475492     0.396137 
    0.499729     0.456490     0.310849 
    0.500005     0.667616     0.400433 
    0.499947     0.649002     0.627138 
    0.499830     0.424117     0.676581 
    0.499475     0.304541     0.484114 
EA898  15.644 14.797 14.421 90.00 90.00 90.00 Sym.group:    0
1.0
   15.643651     0.000000     0.000000
    0.000000    14.796505     0.000000
    0.000000     0.000000    14.420574
   W   B
  12  13
Direct
    0.500189     0.500334     0.499766 
    0.723113     0.519342     0.542365 
    0.478978     0.593721     0.649847 
    0.354613     0.406343     0.563134 
    0.553864     0.329236     0.436039 
    0.667640     0.642613     0.457680 
    0.634512     0.489231     0.379686 
    0.696944     0.373196     0.489310 
    0.513358     0.647228     0.384738 
    0.339627     0.588162     0.544662 
    0.472102     0.425057     0.680909 
    0.404380     0.399452     0.373810 
    0.551412     0.665585     0.532581 
    0.361076     0.512797     0.673616 
    0.319716     0.486720     0.443029 
    0.392183     0.558915     0.390087 
    0.576250     0.380297     0.581587 
    0.417274     0.301880     0.479537 
    0.387557     0.670571     0.429336 
    0.533117     0.411111     0.316627 
    0.479991     0.326118     0.568105 
    0.610788     0.592121     0.593490 
    0.593821     0.487175     0.633531 
    0.447789     0.679235     0.524247 
    0.489705     0.513557     0.332284 
EA1137 16.021 16.059 14.703 90.00 90.00 90.00 Sym.group:    0
1.0
   16.020818     0.000000     0.000000
    0.000000    16.059471     0.000000
    0.000000     0.000000    14.702982
   W   B
  15  11
Direct
    0.478721     0.514250     0.483028 
    0.459894     0.700180     0.440006 
    0.335777     0.618959     0.488453 
    0.634773     0.542004     0.442552 
    0.525208     0.547150     0.309374 
    0.387316     0.537296     0.636159 
    0.571455     0.665096     0.554526 
    0.258090     0.473588     0.418363 
    0.337322     0.395561     0.569465 
    0.468817     0.377555     0.660580 
    0.473772     0.290466     0.521020 
    0.373269     0.370536     0.417391 
    0.601503     0.381312     0.527749 
    0.527658     0.401205     0.370038 
    0.573637     0.512717     0.634845 
    0.415027     0.601511     0.364732 
    0.432737     0.660288     0.578766 
    0.493409     0.619251     0.658571 
    0.377264     0.505735     0.364369 
    0.277010     0.514267     0.551629 
    0.678034     0.587239     0.582133 
    0.721823     0.433451     0.479701 
    0.630675     0.470808     0.307422 
    0.667492     0.409829     0.391979 
    0.701312     0.488489     0.567798 
    0.598003     0.381258     0.679348 
EA1475 15.921 13.850 15.107 90.00 90.00 90.00 Sym.group:    0
1.0
   15.921490     0.000000     0.000000
    0.000000    13.850157     0.000000
    0.000000     0.000000    15.106984
   W   B
  11  15
Direct
    0.496535     0.638669     0.495679 
    0.411947     0.498626     0.580778 
    0.503844     0.357623     0.505000 
    0.597669     0.503211     0.403901 
    0.588381     0.504092     0.582398 
    0.402574     0.496874     0.403320 
    0.502565     0.364033     0.688618 
    0.683670     0.360580     0.498067 
    0.672435     0.656446     0.497669 
    0.320640     0.645828     0.493969 
    0.322975     0.349031     0.495483 
    0.503012     0.384619     0.358096 
    0.498333     0.612790     0.350965 
    0.498518     0.509747     0.701045 
    0.607123     0.342609     0.607465 
    0.705841     0.509386     0.499916 
    0.591927     0.663222     0.604147 
    0.293610     0.496630     0.497707 
    0.408359     0.335585     0.396463 
    0.500447     0.496412     0.309822 
    0.400771     0.657464     0.388479 
    0.600073     0.341950     0.397611 
    0.593990     0.662751     0.390231 
    0.399089     0.657654     0.601909 
    0.399372     0.337110     0.606496 
    0.496299     0.617059     0.644765 
EA1838 16.613 14.340 14.991 90.00 90.00 90.00 Sym.group:    0
1.0
   16.612842     0.000000     0.000000
    0.000000    14.340006     0.000000
    0.000000     0.000000    14.990706
   W   B
  15  11
Direct
    0.537180     0.502795     0.497809 
    0.587372     0.454464     0.687996 
    0.383966     0.528092     0.579321 
    0.513644     0.610245     0.646370 
    0.626469     0.346634     0.433126 
    0.461024     0.383835     0.623899 
    0.711646     0.577631     0.495982 
    0.648282     0.482289     0.347047 
    0.477451     0.401312     0.360316 
    0.517141     0.560519     0.306818 
    0.617789     0.653975     0.391689 
    0.382671     0.543450     0.409747 
    0.478739     0.671768     0.477445 
    0.326236     0.690341     0.484143 
    0.265478     0.418961     0.477560 
    0.635152     0.561471     0.608394 
    0.584509     0.364674     0.571002 
    0.502809     0.341976     0.493752 
    0.598424     0.651817     0.543409 
    0.724995     0.434494     0.467763 
    0.336593     0.377819     0.578666 
    0.271525     0.561765     0.495560 
    0.399335     0.682204     0.597557 
    0.349931     0.387657     0.380329 
    0.663823     0.441653     0.562093 
    0.397818     0.368158     0.482208 
EA2141 15.689 14.013 15.444 90.00 90.00 90.00 Sym.group:    0
1.0
   15.689126     0.000000     0.000000
    0.000000    14.012671     0.000000
    0.000000     0.000000    15.444300
   W   B
  14  12
Direct
    0.424758     0.452550     0.397422 
    0.565544     0.383632     0.501541 
    0.575513     0.551495     0.597370 
    0.436435     0.621639     0.502821 
    0.418438     0.455598     0.582660 
    0.582469     0.542830     0.411207 
    0.551835     0.364169     0.676987 
    0.418711     0.613509     0.686275 
    0.274413     0.520464     0.484901 
    0.725128     0.466460     0.507108 
    0.597196     0.718589     0.488536 
    0.512315     0.507068     0.268038 
    0.570129     0.361534     0.318657 
    0.525544     0.720310     0.625539 
    0.442025     0.610218     0.358618 
    0.469111     0.303196     0.592110 
    0.493756     0.491959     0.706054 
    0.326112     0.583208     0.594544 
    0.323928     0.388225     0.490443 
    0.668287     0.409830     0.398139 
    0.681894     0.603958     0.509175 
    0.512372     0.690133     0.391522 
    0.343425     0.588063     0.392679 
    0.483627     0.308875     0.409620 
    0.658298     0.415953     0.611850 
    0.418740     0.326536     0.496186 
EA2551 14.961 14.850 14.612 90.00 90.00 90.00 Sym.group:    0
1.0
   14.960717     0.000000     0.000000
    0.000000    14.849896     0.000000
    0.000000     0.000000    14.611730
   W   B
  13  12
Direct
    0.498052     0.520232     0.505333 
    0.697234     0.480900     0.516546 
    0.604597     0.333058     0.507760 
    0.381945     0.628821     0.407422 
    0.316066     0.554827     0.564034 
    0.539450     0.621717     0.340678 
    0.507609     0.356292     0.370598 
    0.432671     0.315893     0.517716 
    0.444594     0.579014     0.675500 
    0.389452     0.423293     0.646550 
    0.423561     0.496412     0.313396 
    0.642578     0.637579     0.491491 
    0.622301     0.564895     0.648887 
    0.320009     0.495217     0.424697 
    0.420646     0.661401     0.550446 
    0.619179     0.418668     0.629879 
    0.640729     0.420171     0.391308 
    0.521813     0.359535     0.629179 
    0.529037     0.664670     0.586262 
    0.503688     0.684894     0.474553 
    0.572061     0.480019     0.321005 
    0.652183     0.534066     0.382271 
    0.528814     0.458255     0.688829 
    0.324523     0.417528     0.509893 
    0.367208     0.392646     0.405766 
EA3000 15.711 14.960 14.141 90.00 90.00 90.00 Sym.group:    0
1.0
   15.710694     0.000000     0.000000
    0.000000    14.959845     0.000000
    0.000000     0.000000    14.140979
   W   B
  11  11
Direct
    0.490036     0.440739     0.420879 
    0.505233     0.591512     0.331945 
    0.341482     0.501826     0.381261 
    0.258706     0.463129     0.516886 
    0.638835     0.507738     0.389969 
    0.411106     0.484322     0.578751 
    0.366003     0.339749     0.472241 
    0.435965     0.310861     0.621920 
    0.532342     0.283235     0.479740 
    0.564408     0.397386     0.608312 
    0.533496     0.642639     0.600093 
    0.646135     0.585676     0.527924 
    0.580729     0.636075     0.453079 
    0.483716     0.675125     0.457303 
    0.394292     0.630513     0.416873 
    0.326366     0.587457     0.499131 
    0.412175     0.640682     0.541593 
    0.529748     0.525268     0.678262 
    0.672520     0.474755     0.539584 
    0.625215     0.534435     0.630719 
    0.644411     0.383008     0.479567 
    0.607081     0.363871     0.373968 
EA3213 15.979 14.597 14.470 90.00 90.00 90.00 Sym.group:    0
1.0
   15.979116     0.000000     0.000000
    0.000000    14.597211     0.000000
    0.000000     0.000000    14.470140
   W   B
  14  11
Direct
    0.501854     0.473768     0.509030 
    0.431827     0.679497     0.372297 
    0.477727     0.668662     0.535548 
    0.450374     0.292959     0.484204 
    0.604995     0.332953     0.559245 
    0.346672     0.417389     0.408765 
    0.368545     0.570923     0.624630 
    0.532437     0.580279     0.671643 
    0.676991     0.426141     0.428279 
    0.657823     0.510007     0.576781 
    0.354922     0.402241     0.579051 
    0.446920     0.526202     0.317001 
    0.584983     0.597511     0.417930 
    0.256905     0.530845     0.514003 
    0.482457     0.354043     0.622640 
    0.560677     0.348005     0.417465 
    0.611632     0.661583     0.566966 
    0.345785     0.638783     0.488885 
    0.726062     0.558789     0.447637 
    0.561775     0.450309     0.355053 
    0.471406     0.381492     0.363690 
    0.339122     0.566139     0.395975 
    0.695143     0.640662     0.509719 
    0.558955     0.433482     0.661582 
    0.454010     0.457339     0.671981 
EA3672 15.251 14.716 13.972 90.00 90.00 90.00 Sym.group:    0
1.0
   15.251354     0.000000     0.000000
    0.000000    14.716192     0.000000
    0.000000     0.000000    13.972121
   W   B
  11  11
Direct
    0.487107     0.449426     0.427776 
    0.560106     0.595657     0.338294 
    0.652824     0.454305     0.392075 
    0.375615     0.563665     0.374954 
    0.561601     0.452837     0.595669 
    0.575087     0.302886     0.478237 
    0.483859     0.288290     0.613382 
    0.399958     0.306029     0.454562 
    0.384169     0.418786     0.601567 
    0.508245     0.640297     0.608316 
    0.699484     0.610248     0.419342 
    0.390976     0.629979     0.520395 
    0.476968     0.649650     0.452010 
    0.583770     0.664035     0.476220 
    0.691623     0.503652     0.531976 
    0.631976     0.594362     0.563088 
    0.458886     0.523799     0.679714 
    0.328580     0.534807     0.520924 
    0.378270     0.570396     0.622289 
    0.328125     0.440239     0.456121 
    0.362155     0.416932     0.347504 
    0.680615     0.389723     0.525583 
EA3756 15.919 14.925 15.642 90.00 90.00 90.00 Sym.group:    0
1.0
   15.919375     0.000000     0.000000
    0.000000    14.924620     0.000000
    0.000000     0.000000    15.642399
   W   B
  14  13
Direct
    0.574044     0.331847     0.363646 
    0.409877     0.609736     0.409819 
    0.632901     0.483745     0.400152 
    0.490921     0.476185     0.324813 
    0.304603     0.405204     0.504319 
    0.425261     0.327717     0.402747 
    0.482014     0.479570     0.493423 
    0.432155     0.599629     0.609486 
    0.388086     0.430771     0.640995 
    0.535144     0.680118     0.497297 
    0.596552     0.547482     0.592528 
    0.506967     0.506082     0.721906 
    0.543192     0.373300     0.627604 
    0.334309     0.458577     0.358780 
    0.549497     0.606375     0.376366 
    0.290452     0.545582     0.465934 
    0.311690     0.533108     0.571977 
    0.704944     0.461028     0.520250 
    0.401351     0.706653     0.515115 
    0.666494     0.660072     0.523112 
    0.667944     0.409714     0.602883 
    0.647164     0.627779     0.422053 
    0.322643     0.634507     0.521391 
    0.710563     0.568447     0.489118 
    0.428770     0.331914     0.543601 
    0.615982     0.385732     0.503238 
    0.526476     0.319127     0.497452 
EA4065 14.516 14.259 14.384 90.00 90.00 90.00 Sym.group:    0
1.0
   14.515971     0.000000     0.000000
    0.000000    14.258876     0.000000
    0.000000     0.000000    14.384047
   W   B
  12  15
Direct
    0.578000     0.442052     0.375710 
    0.432167     0.569836     0.397148 
    0.574950     0.635343     0.511165 
    0.431541     0.552533     0.613925 
    0.577857     0.423151     0.612618 
    0.433115     0.375777     0.491596 
    0.416258     0.728589     0.518547 
    0.578773     0.601033     0.707550 
    0.418647     0.370111     0.687197 
    0.579705     0.267753     0.483555 
    0.418882     0.401709     0.295142 
    0.577085     0.633411     0.309335 
    0.500028     0.301734     0.366242 
    0.495884     0.521937     0.257649 
    0.498163     0.718395     0.397667 
    0.494730     0.699095     0.637631 
    0.500362     0.482227     0.739714 
    0.495674     0.278932     0.602813 
    0.666862     0.568455     0.399605 
    0.327077     0.618127     0.507934 
    0.668214     0.551707     0.608397 
    0.326750     0.433150     0.597681 
    0.667675     0.378129     0.490991 
    0.328513     0.447939     0.392590 
    0.323660     0.499914     0.499476 
    0.521730     0.499144     0.499568 
    0.667697     0.499818     0.498552 
EA4388 16.782 15.777 14.461 90.00 90.00 90.00 Sym.group:    0
1.0
   16.782154     0.000000     0.000000
    0.000000    15.776710     0.000000
    0.000000     0.000000    14.461116
   W   B
  14  14
Direct
    0.485489     0.541547     0.495918 
    0.392274     0.680327     0.535902 
    0.543330     0.595635     0.331762 
    0.613903     0.645786     0.486975 
    0.383804     0.518273     0.317641 
    0.516812     0.648327     0.653922 
    0.609784     0.461009     0.419087 
    0.694811     0.584045     0.365586 
    0.400447     0.425556     0.610705 
    0.432427     0.384846     0.427318 
    0.328709     0.530973     0.486894 
    0.507760     0.303745     0.565842 
    0.611933     0.526938     0.617508 
    0.287302     0.417145     0.371727 
    0.405577     0.633303     0.398342 
    0.488094     0.685410     0.432789 
    0.512180     0.727585     0.533848 
    0.499705     0.469394     0.337645 
    0.700411     0.535493     0.505152 
    0.679213     0.430071     0.545347 
    0.406724     0.569587     0.627075 
    0.526360     0.416359     0.655606 
    0.613491     0.380205     0.617880 
    0.379248     0.309037     0.539836 
    0.554069     0.331005     0.432305 
    0.312601     0.387144     0.510798 
    0.626241     0.344915     0.507796 
    0.487301     0.516340     0.668794 
EA4687 16.360 15.518 14.382 90.00 90.00 90.00 Sym.group:    0
1.0
   16.360040     0.000000     0.000000
    0.000000    15.517887     0.000000
    0.000000     0.000000    14.382314
   W   B
  15  15
Direct
    0.497914     0.339563     0.471461 
    0.400615     0.394638     0.615155 
    0.641950     0.295472     0.562929 
    0.611231     0.475044     0.395747 
    0.649031     0.405877     0.675060 
    0.714176     0.426117     0.509527 
    0.265048     0.387927     0.517288 
    0.342562     0.629753     0.463015 
    0.381169     0.536240     0.331706 
    0.469629     0.512425     0.508246 
    0.479881     0.691781     0.546271 
    0.610897     0.545489     0.587058 
    0.461882     0.583148     0.679321 
    0.692497     0.606318     0.453937 
    0.311838     0.528445     0.590048 
    0.368753     0.324163     0.482974 
    0.558017     0.356434     0.342428 
    0.631838     0.332435     0.417882 
    0.479903     0.434333     0.353787 
    0.380005     0.415444     0.412571 
    0.519063     0.455947     0.659715 
    0.534963     0.351376     0.624907 
    0.508350     0.545247     0.346903 
    0.617911     0.685883     0.549088 
    0.567558     0.664812     0.651885 
    0.591305     0.610184     0.355640 
    0.575271     0.680171     0.441878 
    0.475602     0.635474     0.404972 
    0.296356     0.493515     0.436280 
    0.364783     0.656348     0.612324 
EA5057 16.925 15.527 14.485 90.00 90.00 90.00 Sym.group:    0
1.0
   16.924983     0.000000     0.000000
    0.000000    15.527230     0.000000
    0.000000     0.000000    14.484551
   W   B
  15  13
Direct
    0.677187     0.457611     0.571029 
    0.622065     0.569315     0.421891 
    0.448240     0.367117     0.590163 
    0.311621     0.464741     0.367633 
    0.492594     0.674238     0.454597 
    0.565534     0.574071     0.598223 
    0.441609     0.511199     0.492846 
    0.625415     0.709090     0.492854 
    0.373194     0.601618     0.352087 
    0.413797     0.354845     0.409708 
    0.439622     0.529930     0.684066 
    0.548491     0.426361     0.370622 
    0.762327     0.530912     0.459027 
    0.439106     0.674197     0.616526 
    0.587462     0.319807     0.617453 
    0.530329     0.315751     0.480584 
    0.691824     0.600096     0.550128 
    0.686895     0.429675     0.419263 
    0.551529     0.436825     0.526108 
    0.304219     0.522151     0.506795 
    0.336639     0.412455     0.509767 
    0.345563     0.466755     0.605011 
    0.431885     0.476237     0.321971 
    0.340851     0.578687     0.596978 
    0.623931     0.360140     0.475764 
    0.551695     0.440638     0.659637 
    0.496229     0.558555     0.351442 
    0.360147     0.636984     0.497829 
EA5461 17.053 15.679 14.236 90.00 90.00 90.00 Sym.group:    0
1.0
   17.052849     0.000000     0.000000
    0.000000    15.678633     0.000000
    0.000000     0.000000    14.236374
   W   B
  14  13
Direct
    0.362991     0.314589     0.410887 
    0.371014     0.454801     0.347208 
    0.478913     0.324446     0.538242 
    0.463312     0.511021     0.487394 
    0.532184     0.461476     0.641345 
    0.339800     0.617072     0.419227 
    0.468746     0.631197     0.634708 
    0.316640     0.470823     0.504093 
    0.591652     0.423891     0.472585 
    0.545160     0.473725     0.309936 
    0.680771     0.541586     0.596134 
    0.641410     0.590270     0.432947 
    0.498168     0.676685     0.466019 
    0.706352     0.392024     0.592180 
    0.480718     0.378775     0.394104 
    0.597614     0.331367     0.589853 
    0.351673     0.345272     0.550760 
    0.352996     0.592263     0.573541 
    0.399318     0.514871     0.637839 
    0.382889     0.686893     0.532898 
    0.405406     0.412040     0.614896 
    0.665920     0.469528     0.356335 
    0.442412     0.589179     0.344879 
    0.583377     0.588693     0.671797 
    0.715730     0.466164     0.459467 
    0.535251     0.598473     0.352745 
    0.589584     0.642876     0.567980 
EA5698 16.707 15.208 14.888 90.00 90.00 90.00 Sym.group:    0
1.0
   16.706632     0.000000     0.000000
    0.000000    15.208163     0.000000
    0.000000     0.000000    14.888436
   W   B
  15  14
Direct
    0.642743     0.664693     0.471743 
    0.608093     0.438877     0.355274 
    0.486679     0.491870     0.671006 
    0.577834     0.507413     0.518505 
    0.516800     0.642182     0.609976 
    0.595379     0.335621     0.501895 
    0.723712     0.415118     0.455977 
    0.440886     0.628689     0.351506 
    0.424543     0.524380     0.489904 
    0.315563     0.487872     0.367313 
    0.388104     0.689379     0.525803 
    0.454643     0.472817     0.307768 
    0.309401     0.395323     0.512499 
    0.279579     0.560395     0.543120 
    0.440461     0.293146     0.505793 
    0.687733     0.545257     0.417105 
    0.589594     0.578858     0.373900 
    0.590820     0.407778     0.636088 
    0.704328     0.542487     0.538238 
    0.506501     0.356194     0.612269 
    0.645738     0.614324     0.601363 
    0.499157     0.368740     0.399253 
    0.678079     0.434295     0.586043 
    0.513600     0.646098     0.465750 
    0.326570     0.618890     0.418469 
    0.411371     0.390038     0.606769 
    0.386758     0.588206     0.631521 
    0.358031     0.481412     0.625870 
    0.397302     0.379649     0.399282 
EA6017 16.258 15.736 14.104 90.00 90.00 90.00 Sym.group:    0
1.0
   16.257931     0.000000     0.000000
    0.000000    15.735849     0.000000
    0.000000     0.000000    14.103852
   W   B
  15  14
Direct
    0.629132     0.598314     0.370377 
    0.595432     0.317922     0.538535 
    0.593360     0.474647     0.507724 
    0.344957     0.360729     0.535391 
    0.375692     0.543900     0.338489 
    0.521364     0.531665     0.667357 
    0.429253     0.508729     0.505530 
    0.649855     0.624581     0.548279 
    0.476893     0.380979     0.626667 
    0.548611     0.722550     0.442364 
    0.401220     0.673219     0.474919 
    0.413692     0.643623     0.653864 
    0.516536     0.473105     0.343961 
    0.394105     0.373748     0.373826 
    0.753681     0.534751     0.440852 
    0.719429     0.496792     0.577858 
    0.636472     0.422122     0.645760 
    0.665093     0.461001     0.363171 
    0.298035     0.462280     0.434875 
    0.616120     0.371522     0.391991 
    0.466499     0.298260     0.489395 
    0.656135     0.524629     0.662147 
    0.288317     0.485839     0.552186 
    0.514274     0.639298     0.558273 
    0.364179     0.472412     0.640346 
    0.491178     0.620407     0.367156 
    0.319444     0.584217     0.585024 
    0.297918     0.566755     0.467640 
    0.523123     0.332005     0.396046 
EA6345 16.802 15.844 13.927 90.00 90.00 90.00 Sym.group:    0
1.0
   16.801824     0.000000     0.000000
    0.000000    15.844061     0.000000
    0.000000     0.000000    13.926913
   W   B
  15  14
Direct
    0.622814     0.589924     0.359481 
    0.596084     0.323348     0.559481 
    0.592005     0.477526     0.511192 
    0.355669     0.361637     0.551732 
    0.381351     0.523317     0.326336 
    0.517342     0.546975     0.670393 
    0.433659     0.505710     0.502916 
    0.638635     0.632827     0.537005 
    0.480457     0.391475     0.640826 
    0.539071     0.714738     0.421907 
    0.402850     0.663137     0.456061 
    0.408913     0.651085     0.641247 
    0.520255     0.461816     0.343883 
    0.402996     0.359997     0.386241 
    0.746241     0.540453     0.438360 
    0.713044     0.523582     0.579366 
    0.612613     0.432789     0.663305 
    0.665293     0.454829     0.369620 
    0.310307     0.450880     0.434721 
    0.618822     0.367468     0.406422 
    0.473407     0.301844     0.509752 
    0.644599     0.535953     0.661145 
    0.297291     0.483859     0.549522 
    0.508123     0.633200     0.543457 
    0.369616     0.496262     0.645130 
    0.489196     0.607926     0.347384 
    0.323227     0.583307     0.573716 
    0.307020     0.555740     0.454577 
    0.529100     0.328393     0.414824 
EA6915 16.020 13.699 14.368 90.00 90.00 90.00 Sym.group:    0
1.0
   16.019552     0.000000     0.000000
    0.000000    13.699379     0.000000
    0.000000     0.000000    14.368139
   W   B
  13  11
Direct
    0.440126     0.451352     0.357156 
    0.352676     0.528957     0.645222 
    0.321273     0.654664     0.525886 
    0.468020     0.373092     0.607623 
    0.463362     0.654927     0.589232 
    0.454540     0.635241     0.413180 
    0.546277     0.511077     0.490062 
    0.619958     0.688801     0.520542 
    0.577320     0.521727     0.288001 
    0.617591     0.428134     0.652322 
    0.692692     0.545338     0.408531 
    0.610113     0.376320     0.372489 
    0.712377     0.553010     0.576142 
    0.342123     0.406179     0.555458 
    0.498685     0.341386     0.458267 
    0.397620     0.348765     0.471870 
    0.324116     0.424606     0.435448 
    0.500613     0.515725     0.652438 
    0.288407     0.504833     0.515733 
    0.589648     0.644633     0.382671 
    0.586364     0.587155     0.634017 
    0.585155     0.345435     0.527439 
    0.339167     0.543772     0.414204 
    0.671778     0.414868     0.506067 
EA7089 16.879 15.366 14.300 90.00 90.00 90.00 Sym.group:    0
1.0
   16.878928     0.000000     0.000000
    0.000000    15.365532     0.000000
    0.000000     0.000000    14.299905
   W   B
  15  12
Direct
    0.390027     0.523022     0.393499 
    0.285829     0.516140     0.531528 
    0.731333     0.575166     0.522909 
    0.626409     0.688595     0.471729 
    0.624155     0.611355     0.622048 
    0.481919     0.651533     0.514492 
    0.471545     0.593344     0.679010 
    0.516494     0.479199     0.501375 
    0.583922     0.302868     0.485586 
    0.678424     0.426314     0.435724 
    0.431500     0.354927     0.392903 
    0.666449     0.443942     0.599423 
    0.536768     0.343054     0.632805 
    0.525965     0.612705     0.354724 
    0.383301     0.392438     0.553183 
    0.405907     0.660564     0.385537 
    0.363869     0.618122     0.592499 
    0.345852     0.634492     0.476742 
    0.369627     0.519385     0.643605 
    0.560037     0.388631     0.368054 
    0.497599     0.469236     0.323856 
    0.312086     0.416628     0.426653 
    0.552010     0.484168     0.664478 
    0.460165     0.279610     0.520883 
    0.592149     0.490937     0.348882 
    0.453710     0.457020     0.660670 
    0.652949     0.566606     0.397205 
EA7309 17.182 14.383 14.777 90.00 90.00 90.00 Sym.group:    0
1.0
   17.182408     0.000000     0.000000
    0.000000    14.383110     0.000000
    0.000000     0.000000    14.777124
   W   B
  15  15
Direct
    0.626092     0.661350     0.532756 
    0.714547     0.571271     0.434781 
    0.301821     0.501814     0.434791 
    0.280756     0.468657     0.629968 
    0.314460     0.616483     0.572051 
    0.375120     0.577281     0.310588 
    0.480502     0.609776     0.620931 
    0.578011     0.643021     0.372456 
    0.421286     0.463812     0.562486 
    0.602048     0.489060     0.310184 
    0.517394     0.327829     0.605928 
    0.446342     0.442434     0.377445 
    0.564668     0.492555     0.490376 
    0.651727     0.403447     0.610076 
    0.691289     0.406429     0.419942 
    0.349354     0.646487     0.429925 
    0.535533     0.469440     0.648751 
    0.504694     0.678375     0.489193 
    0.413365     0.680999     0.510900 
    0.375489     0.548118     0.685131 
    0.448530     0.656716     0.398136 
    0.699072     0.551226     0.588420 
    0.608870     0.551380     0.637772 
    0.412549     0.319856     0.497843 
    0.318012     0.366300     0.529167 
    0.600710     0.330455     0.492998 
    0.347849     0.362028     0.424509 
    0.564649     0.367763     0.382818 
    0.505376     0.327634     0.463127 
    0.749886     0.468004     0.536551 
EA7710 15.148 15.732 15.148 90.00 90.00 90.00 Sym.group:    0
1.0
   15.147704     0.000000     0.000000
    0.000000    15.732154     0.000000
    0.000000     0.000000    15.147704
   W   B
  13  14
Direct
    0.500029     0.499981     0.500155 
    0.364969     0.627489     0.493824 
    0.366384     0.373828     0.501793 
    0.633681     0.626240     0.498312 
    0.634882     0.372557     0.506507 
    0.503015     0.365209     0.370050 
    0.632126     0.503466     0.632542 
    0.502553     0.626284     0.361393 
    0.367756     0.496588     0.367473 
    0.496739     0.634697     0.629942 
    0.361891     0.504308     0.629813 
    0.497794     0.373677     0.638699 
    0.638405     0.495729     0.369980 
    0.316823     0.500346     0.497742 
    0.682869     0.499552     0.502115 
    0.496545     0.505141     0.672538 
    0.503415     0.494789     0.327478 
    0.500231     0.331496     0.505645 
    0.499751     0.668498     0.494435 
    0.642063     0.633062     0.355320 
    0.362213     0.632433     0.351105 
    0.637174     0.641107     0.640188 
    0.357415     0.641543     0.635949 
    0.642519     0.358442     0.363885 
    0.362746     0.358912     0.359793 
    0.637904     0.367637     0.648760 
    0.358109     0.366989     0.644565 
EA8236 16.190 14.739 13.722 90.00 90.00 90.00 Sym.group:    0
1.0
   16.189822     0.000000     0.000000
    0.000000    14.739071     0.000000
    0.000000     0.000000    13.721901
   W   B
  11  12
Direct
    0.461514     0.630635     0.405265 
    0.379346     0.406160     0.481233 
    0.441799     0.626483     0.587791 
    0.528067     0.357251     0.395648 
    0.535875     0.491279     0.507155 
    0.592478     0.623648     0.660756 
    0.491603     0.352825     0.614609 
    0.641340     0.453176     0.642602 
    0.682076     0.589030     0.526452 
    0.620052     0.316430     0.533249 
    0.296114     0.511882     0.592281 
    0.423674     0.482420     0.609225 
    0.279352     0.518826     0.449417 
    0.447062     0.486537     0.358127 
    0.342115     0.608521     0.479727 
    0.357525     0.538575     0.376328 
    0.449847     0.279293     0.482384 
    0.561470     0.657905     0.510048 
    0.594573     0.606330     0.401694 
    0.546697     0.517381     0.338071 
    0.511672     0.500847     0.674982 
    0.675380     0.442013     0.483408 
    0.640367     0.502554     0.389548 
EA8513 15.401 14.155 14.317 90.00 90.00 90.00 Sym.group:    0
1.0
   15.400583     0.000000     0.000000
    0.000000    14.155440     0.000000
    0.000000     0.000000    14.317410
   W   B
  12  12
Direct
    0.408104     0.605412     0.639640 
    0.340494     0.582343     0.396859 
    0.375815     0.347957     0.510543 
    0.474215     0.487301     0.498923 
    0.565726     0.315456     0.494199 
    0.475501     0.670533     0.471885 
    0.656154     0.650805     0.507994 
    0.611158     0.627823     0.355299 
    0.395387     0.436641     0.324726 
    0.521669     0.494749     0.696966 
    0.576369     0.438712     0.356860 
    0.295569     0.512147     0.554267 
    0.335934     0.660777     0.524540 
    0.469882     0.335020     0.393769 
    0.402312     0.437373     0.635147 
    0.697581     0.508293     0.542002 
    0.670505     0.412286     0.478246 
    0.627393     0.542887     0.619899 
    0.542915     0.620222     0.598864 
    0.480271     0.562878     0.352421 
    0.608794     0.426280     0.585213 
    0.681873     0.520654     0.425662 
    0.293604     0.436382     0.422494 
    0.492774     0.367070     0.613580 
EA8795 15.304 14.020 14.357 90.00 90.00 90.00 Sym.group:    0
1.0
   15.304445     0.000000     0.000000
    0.000000    14.020416     0.000000
    0.000000     0.000000    14.356821
   W   B
  12  12
Direct
    0.488622     0.621181     0.675838 
    0.399251     0.655416     0.392911 
    0.320220     0.395484     0.440356 
    0.389377     0.491664     0.697390 
    0.458972     0.509815     0.507478 
    0.558111     0.456101     0.652884 
    0.474735     0.462875     0.338263 
    0.644484     0.499016     0.350497 
    0.597547     0.347119     0.399126 
    0.395591     0.355028     0.590012 
    0.506964     0.693270     0.508604 
    0.351278     0.637343     0.584220 
    0.341081     0.519361     0.358104 
    0.532602     0.348606     0.542932 
    0.308577     0.551390     0.465120 
    0.696373     0.546663     0.488677 
    0.679048     0.477410     0.581161 
    0.638533     0.370438     0.548664 
    0.618507     0.616119     0.453436 
    0.533215     0.604293     0.374351 
    0.457610     0.351737     0.445922 
    0.603809     0.575118     0.568297 
    0.698271     0.429652     0.471288 
    0.307224     0.484902     0.564467 
EA9127 17.273 14.879 14.164 90.00 90.00 90.00 Sym.group:    0
1.0
   17.272881     0.000000     0.000000
    0.000000    14.879187     0.000000
    0.000000     0.000000    14.164000
   W   B
  12  12
Direct
    0.627130     0.469209     0.566134 
    0.621198     0.545529     0.410364 
    0.491725     0.487420     0.690800 
    0.429144     0.634327     0.570760 
    0.405952     0.439365     0.347806 
    0.462340     0.608976     0.383385 
    0.569196     0.370912     0.413566 
    0.275920     0.587906     0.527310 
    0.323237     0.426889     0.490155 
    0.359036     0.498115     0.641927 
    0.485359     0.480519     0.507631 
    0.346529     0.692546     0.439253 
    0.545972     0.639398     0.497914 
    0.634554     0.619400     0.551071 
    0.736656     0.491861     0.471559 
    0.685089     0.412093     0.429937 
    0.716391     0.581502     0.523980 
    0.552678     0.591352     0.612140 
    0.522918     0.487085     0.335013 
    0.423604     0.367100     0.590525 
    0.428832     0.339274     0.452868 
    0.339627     0.552193     0.396121 
    0.494500     0.310911     0.528769 
    0.522412     0.366115     0.621011 
EA9373 14.924 15.545 15.413 90.00 90.00 90.00 Sym.group:    0
1.0
   14.924417     0.000000     0.000000
    0.000000    15.544940     0.000000
    0.000000     0.000000    15.413156
   W   B
  13  12
Direct
    0.500611     0.500619     0.498767 
    0.323331     0.456312     0.574031 
    0.323171     0.543677     0.426087 
    0.677444     0.414898     0.499488 
    0.677314     0.584971     0.500689 
    0.455534     0.612694     0.351214 
    0.577110     0.620224     0.627590 
    0.543718     0.315457     0.518869 
    0.422739     0.455439     0.328631 
    0.455692     0.387471     0.648650 
    0.423144     0.544378     0.671173 
    0.544069     0.684622     0.481645 
    0.576719     0.379552     0.372517 
    0.348859     0.404969     0.442545 
    0.349026     0.594994     0.557534 
    0.651118     0.498245     0.611938 
    0.650880     0.501726     0.388095 
    0.599773     0.599406     0.379891 
    0.558297     0.487180     0.674878 
    0.399955     0.346377     0.521926 
    0.441532     0.345953     0.418940 
    0.600023     0.400597     0.620371 
    0.441706     0.653942     0.581107 
    0.400157     0.653505     0.478097 
    0.558080     0.512791     0.325327 
EA9712 14.527 14.979 14.628 90.00 90.00 90.00 Sym.group:    0
1.0
   14.527314     0.000000     0.000000
    0.000000    14.978650     0.000000
    0.000000     0.000000    14.627696
   W   B
  14  11
Direct
    0.504107     0.502224     0.499479 
    0.460350     0.682858     0.451435 
    0.316648     0.576859     0.442651 
    0.628847     0.408535     0.625768 
    0.587775     0.319974     0.474974 
    0.324688     0.406136     0.460401 
    0.620579     0.433400     0.354576 
    0.588295     0.575054     0.662807 
    0.324501     0.502585     0.596941 
    0.625554     0.652817     0.515627 
    0.581822     0.609482     0.348385 
    0.461699     0.361550     0.358120 
    0.473981     0.446057     0.689890 
    0.499521     0.715910     0.617037 
    0.383386     0.633167     0.566903 
    0.428047     0.588526     0.341064 
    0.686479     0.432912     0.491096 
    0.499106     0.335107     0.597925 
    0.439077     0.318426     0.501616 
    0.679557     0.536763     0.440467 
    0.436818     0.585934     0.655562 
    0.688803     0.524956     0.557117 
    0.491647     0.498561     0.309771 
    0.381463     0.484502     0.345431 
    0.387247     0.367704     0.594958 
EA10155 14.193 14.200 12.858 90.00 90.00 90.00 Sym.group:    0
1.0
   14.193162     0.000000     0.000000
    0.000000    14.199910     0.000000
    0.000000     0.000000    12.858264
   W   B
  11  11
Direct
    0.376228     0.413284     0.353037 
    0.458008     0.352704     0.646202 
    0.547050     0.359466     0.353155 
    0.624508     0.408253     0.645648 
    0.649867     0.507894     0.352128 
    0.618956     0.596777     0.645496 
    0.544094     0.649224     0.351975 
    0.452077     0.642548     0.643965 
    0.374043     0.589219     0.351896 
    0.347419     0.501676     0.647625 
    0.578034     0.277340     0.526963 
    0.649921     0.401439     0.477471 
    0.677056     0.508063     0.523138 
    0.643369     0.611746     0.477900 
    0.552668     0.677114     0.516095 
    0.441043     0.669596     0.477759 
    0.350419     0.605661     0.518112 
    0.317775     0.499078     0.480985 
    0.355329     0.396026     0.524179 
    0.442597     0.329524     0.478301 
    0.498129     0.503475     0.329082 
    0.501411     0.499895     0.678885 
EA10470 15.167 14.161 13.600 90.00 90.00 90.00 Sym.group:    0
1.0
   15.166619     0.000000     0.000000
    0.000000    14.161073     0.000000
    0.000000     0.000000    13.600162
   W   B
  11  11
Direct
    0.466964     0.640779     0.355963 
    0.365453     0.579311     0.622510 
    0.374977     0.491015     0.342224 
    0.375148     0.405105     0.622909 
    0.481295     0.354627     0.357790 
    0.544618     0.358856     0.646348 
    0.634048     0.417286     0.376260 
    0.627888     0.508287     0.656231 
    0.624414     0.597332     0.375886 
    0.527758     0.646785     0.644863 
    0.275985     0.487433     0.498661 
    0.373592     0.385806     0.463230 
    0.459930     0.335675     0.517568 
    0.565704     0.334400     0.488611 
    0.644262     0.401476     0.536059 
    0.668902     0.510333     0.501533 
    0.631970     0.615505     0.535356 
    0.547425     0.672680     0.487148 
    0.442401     0.659350     0.515543 
    0.362479     0.598337     0.461370 
    0.519328     0.500312     0.327063 
    0.485459     0.499306     0.666874 
EA10777 14.874 14.107 14.037 90.00 90.00 90.00 Sym.group:    0
1.0
   14.873632     0.000000     0.000000
    0.000000    14.107227     0.000000
    0.000000     0.000000    14.036889
   W   B
  11  11
Direct
    0.690398     0.494136     0.424336 
    0.568348     0.405667     0.632949 
    0.587282     0.349379     0.443873 
    0.378966     0.387508     0.652538 
    0.438950     0.384223     0.357207 
    0.324753     0.530241     0.578503 
    0.434351     0.549006     0.313524 
    0.578045     0.621654     0.372462 
    0.713876     0.373842     0.558792 
    0.479469     0.499943     0.490611 
    0.459017     0.293854     0.546269 
    0.350401     0.390874     0.493721 
    0.332055     0.488426     0.429181 
    0.354856     0.603153     0.441373 
    0.450823     0.661188     0.444867 
    0.532419     0.662000     0.525288 
    0.626664     0.597888     0.519830 
    0.684706     0.515908     0.580506 
    0.455704     0.522686     0.657613 
    0.565144     0.471179     0.333902 
    0.440659     0.627052     0.589370 
    0.553115     0.570193     0.613285 
EA10804 15.849 15.796 14.537 90.00 90.00 90.00 Sym.group:    0
1.0
   15.849451     0.000000     0.000000
    0.000000    15.795966     0.000000
    0.000000     0.000000    14.536827
   W   B
  15  14
Direct
    0.473334     0.504753     0.498341 
    0.475657     0.595944     0.660913 
    0.599789     0.456866     0.393655 
    0.445449     0.432235     0.674848 
    0.489353     0.551855     0.298221 
    0.333842     0.408391     0.551395 
    0.484137     0.702516     0.532662 
    0.736127     0.524087     0.434361 
    0.343843     0.485074     0.372874 
    0.697919     0.478434     0.589125 
    0.622622     0.606964     0.508807 
    0.414741     0.285685     0.644906 
    0.324171     0.537085     0.664484 
    0.569018     0.369378     0.573079 
    0.384898     0.636235     0.408990 
    0.316848     0.544578     0.507740 
    0.405206     0.370618     0.421946 
    0.614087     0.596146     0.357316 
    0.514051     0.346316     0.426535 
    0.526633     0.646112     0.403810 
    0.573772     0.489893     0.660060 
    0.466997     0.424813     0.347553 
    0.367735     0.627461     0.563347 
    0.691885     0.382644     0.483857 
    0.362170     0.585529     0.271750 
    0.584878     0.678380     0.632410 
    0.444160     0.322089     0.514737 
    0.620830     0.584047     0.663906 
    0.615851     0.325869     0.438370 
EA11146 17.301 14.554 14.387 90.00 90.00 90.00 Sym.group:    0
1.0
   17.300692     0.000000     0.000000
    0.000000    14.553818     0.000000
    0.000000     0.000000    14.387017
   W   B
  14  14
Direct
    0.482695     0.495746     0.483608 
    0.299813     0.578725     0.461756 
    0.543099     0.661786     0.475677 
    0.625952     0.514437     0.578229 
    0.392720     0.496570     0.631688 
    0.455185     0.335490     0.564626 
    0.708588     0.368199     0.544629 
    0.632775     0.434650     0.398157 
    0.487950     0.440738     0.316463 
    0.239462     0.460550     0.555148 
    0.399299     0.660982     0.570531 
    0.519024     0.606880     0.652209 
    0.752059     0.505131     0.485064 
    0.346523     0.409067     0.448281 
    0.288766     0.583801     0.609998 
    0.574531     0.556721     0.344678 
    0.676298     0.642600     0.506805 
    0.419099     0.635638     0.425400 
    0.482996     0.591083     0.348721 
    0.650996     0.582210     0.414372 
    0.334642     0.367032     0.592948 
    0.532253     0.343733     0.422158 
    0.520193     0.447503     0.653071 
    0.441326     0.328247     0.407663 
    0.597074     0.375248     0.632602 
    0.393933     0.534817     0.361307 
    0.580145     0.371028     0.518405 
    0.622605     0.671390     0.595812 
EA11447 16.791 16.196 14.312 90.00 90.00 90.00 Sym.group:    0
1.0
   16.790788     0.000000     0.000000
    0.000000    16.196332     0.000000
    0.000000     0.000000    14.311870
   W   B
  14  15
Direct
    0.520182     0.540105     0.509984 
    0.652719     0.472885     0.566510 
    0.612180     0.663355     0.579471 
    0.420685     0.429163     0.598034 
    0.704816     0.445426     0.402367 
    0.474239     0.604261     0.670357 
    0.553722     0.388306     0.440699 
    0.466984     0.694954     0.499096 
    0.475624     0.617662     0.343064 
    0.351713     0.585969     0.555351 
    0.320170     0.333655     0.524929 
    0.399874     0.469263     0.419324 
    0.336667     0.628167     0.401047 
    0.613526     0.567712     0.318310 
    0.533653     0.483098     0.668431 
    0.653942     0.577847     0.462725 
    0.501831     0.321872     0.562530 
    0.584474     0.655319     0.432464 
    0.547989     0.388247     0.630959 
    0.595800     0.562102     0.667393 
    0.678197     0.350369     0.491898 
    0.512550     0.726418     0.633517 
    0.298205     0.462648     0.541984 
    0.512681     0.483943     0.337027 
    0.268600     0.519996     0.444161 
    0.262591     0.419093     0.442880 
    0.433546     0.336538     0.472144 
    0.602985     0.437890     0.314555 
    0.609853     0.333741     0.568788 
EA11777 16.670 15.770 14.299 90.00 90.00 90.00 Sym.group:    0
1.0
   16.669932     0.000000     0.000000
    0.000000    15.769762     0.000000
    0.000000     0.000000    14.299169
   W   B
  15  14
Direct
    0.522647     0.540804     0.507652 
    0.649519     0.460494     0.579178 
    0.627536     0.657293     0.572648 
    0.418330     0.428695     0.600627 
    0.693867     0.435454     0.400092 
    0.485804     0.614272     0.672331 
    0.542283     0.379843     0.452579 
    0.482688     0.700408     0.488616 
    0.483693     0.619292     0.336426 
    0.365529     0.601453     0.552965 
    0.304515     0.346454     0.521598 
    0.394197     0.477051     0.420763 
    0.345338     0.652198     0.400368 
    0.618486     0.556439     0.313209 
    0.474499     0.284190     0.574325 
    0.535339     0.484256     0.667432 
    0.661953     0.564899     0.460323 
    0.597352     0.650505     0.423468 
    0.545427     0.383549     0.635662 
    0.603468     0.560270     0.669817 
    0.668829     0.340905     0.497184 
    0.532501     0.730551     0.623442 
    0.298171     0.480654     0.544305 
    0.508542     0.480929     0.339876 
    0.272227     0.545168     0.445837 
    0.255530     0.442607     0.444057 
    0.414792     0.340197     0.455411 
    0.591293     0.423349     0.318489 
    0.605647     0.317825     0.581321 
EA12065 15.281 14.538 16.220 90.00 90.00 90.00 Sym.group:    0
1.0
   15.280769     0.000000     0.000000
    0.000000    14.538460     0.000000
    0.000000     0.000000    16.220182
   W   B
  15  15
Direct
    0.692959     0.419530     0.381429 
    0.593909     0.489031     0.491407 
    0.767527     0.408104     0.508603 
    0.526836     0.333526     0.430731 
    0.640128     0.307487     0.537147 
    0.589807     0.570197     0.630120 
    0.496403     0.402304     0.608985 
    0.296961     0.370417     0.554463 
    0.675731     0.662188     0.516119 
    0.496076     0.483132     0.348059 
    0.633129     0.598755     0.370205 
    0.421825     0.489974     0.497115 
    0.489600     0.648728     0.474251 
    0.293959     0.610853     0.440260 
    0.342517     0.640479     0.581833 
    0.736280     0.544189     0.456432 
    0.719932     0.533641     0.565638 
    0.503700     0.262684     0.548329 
    0.371296     0.378411     0.419429 
    0.411640     0.312664     0.507240 
    0.653020     0.430938     0.611532 
    0.503141     0.630562     0.336061 
    0.352718     0.490065     0.370320 
    0.350190     0.487886     0.624424 
    0.275480     0.515085     0.542499 
    0.279618     0.459058     0.447800 
    0.444792     0.548908     0.640848 
    0.400991     0.598166     0.358528 
    0.475590     0.662375     0.619537 
    0.564246     0.710662     0.580655 
EA12642 15.712 14.396 13.669 90.00 90.00 90.00 Sym.group:    0
1.0
   15.712232     0.000000     0.000000
    0.000000    14.395789     0.000000
    0.000000     0.000000    13.669096
   W   B
  12  11
Direct
    0.541809     0.328834     0.404904 
    0.504536     0.500447     0.492597 
    0.520939     0.417078     0.683180 
    0.661834     0.480265     0.602948 
    0.618811     0.645852     0.548563 
    0.458479     0.669053     0.601615 
    0.714136     0.537272     0.444624 
    0.599341     0.472222     0.325596 
    0.471489     0.586935     0.317189 
    0.336070     0.516140     0.405003 
    0.377345     0.356710     0.452925 
    0.277868     0.458758     0.557375 
    0.426593     0.524624     0.639419 
    0.539823     0.560743     0.653764 
    0.481950     0.341309     0.552567 
    0.587511     0.362740     0.552879 
    0.655026     0.402722     0.463217 
    0.401576     0.407969     0.602854 
    0.408472     0.633345     0.458161 
    0.353258     0.583059     0.553074 
    0.595613     0.611479     0.395925 
    0.511060     0.666180     0.451868 
    0.456459     0.436263     0.339751 
EA12973 15.802 14.108 14.286 90.00 90.00 90.00 Sym.group:    0
1.0
   15.801566     0.000000     0.000000
    0.000000    14.107615     0.000000
    0.000000     0.000000    14.285983
   W   B
  11  12
Direct
    0.560594     0.339359     0.465086 
    0.637160     0.412136     0.603112 
    0.647871     0.630341     0.437573 
    0.741632     0.510048     0.504665 
    0.466704     0.393325     0.627091 
    0.295685     0.387038     0.555562 
    0.310940     0.547645     0.477384 
    0.412574     0.534698     0.345720 
    0.400940     0.291711     0.492136 
    0.498050     0.503303     0.496499 
    0.532488     0.666854     0.557387 
    0.555140     0.527652     0.653400 
    0.687404     0.387696     0.455303 
    0.630237     0.477598     0.401509 
    0.632054     0.563386     0.578946 
    0.396645     0.618230     0.571598 
    0.365603     0.506908     0.612335 
    0.507806     0.643532     0.401758 
    0.418102     0.651694     0.460567 
    0.559056     0.550535     0.350089 
    0.343397     0.410002     0.416564 
    0.444592     0.388473     0.383553 
    0.455323     0.557836     0.652164 
EA13292 15.771 15.724 14.130 90.00 90.00 90.00 Sym.group:    0
1.0
   15.770946     0.000000     0.000000
    0.000000    15.724059     0.000000
    0.000000     0.000000    14.130028
   W   B
  11  12
Direct
    0.647203     0.536097     0.607344 
    0.508552     0.479016     0.492467 
    0.616048     0.456580     0.345539 
    0.477243     0.371033     0.355325 
    0.349064     0.474791     0.377593 
    0.608586     0.328720     0.444698 
    0.582519     0.391423     0.622113 
    0.419917     0.420533     0.631860 
    0.507864     0.635833     0.598758 
    0.431668     0.619721     0.437831 
    0.357458     0.351523     0.475670 
    0.429987     0.553630     0.681561 
    0.485255     0.519863     0.333726 
    0.627229     0.641777     0.515112 
    0.649371     0.549770     0.452000 
    0.667966     0.446361     0.493344 
    0.549016     0.684031     0.455675 
    0.319945     0.473538     0.531083 
    0.312237     0.569684     0.483014 
    0.487298     0.331824     0.523181 
    0.525741     0.509674     0.680896 
    0.562409     0.589101     0.382644 
    0.377423     0.565479     0.578567 
EA13613 14.645 14.747 13.963 90.00 90.00 90.00 Sym.group:    0
1.0
   14.644763     0.000000     0.000000
    0.000000    14.746777     0.000000
    0.000000     0.000000    13.963373
   W   B
  11  12
Direct
    0.350887     0.540307     0.608801 
    0.494584     0.476291     0.503143 
    0.382015     0.379879     0.390385 
    0.647771     0.458300     0.360161 
    0.475469     0.286446     0.520549 
    0.613302     0.494226     0.644606 
    0.462618     0.663567     0.539513 
    0.538454     0.608360     0.384028 
    0.634699     0.359872     0.509207 
    0.349276     0.367782     0.566255 
    0.708769     0.604654     0.406185 
    0.571668     0.637700     0.636321 
    0.497382     0.466102     0.331563 
    0.324407     0.617202     0.485975 
    0.330533     0.498496     0.460441 
    0.394858     0.642781     0.397942 
    0.684820     0.498226     0.505764 
    0.538602     0.366619     0.636020 
    0.484350     0.570873     0.668801 
    0.405314     0.530466     0.360260 
    0.613724     0.609537     0.527642 
    0.529051     0.366036     0.387717 
    0.467446     0.456278     0.668722 
EA13932 14.885 14.730 13.868 90.00 90.00 90.00 Sym.group:    0
1.0
   14.884756     0.000000     0.000000
    0.000000    14.729786     0.000000
    0.000000     0.000000    13.867984
   W   B
  11  12
Direct
    0.643957     0.551451     0.616622 
    0.506001     0.477144     0.493115 
    0.625967     0.402710     0.382111 
    0.356104     0.456733     0.359271 
    0.543100     0.280448     0.480321 
    0.393552     0.469669     0.643678 
    0.522100     0.664284     0.557439 
    0.453439     0.612865     0.392108 
    0.383022     0.350059     0.496905 
    0.640615     0.377581     0.566861 
    0.285416     0.589643     0.424096 
    0.419475     0.614403     0.652603 
    0.502520     0.480800     0.321995 
    0.659436     0.637666     0.499361 
    0.666615     0.522188     0.463725 
    0.587973     0.658190     0.412499 
    0.306971     0.476536     0.512898 
    0.496286     0.355459     0.610738 
    0.513252     0.561783     0.683305 
    0.589003     0.549404     0.360495 
    0.382131     0.588148     0.541115 
    0.483011     0.372050     0.365142 
    0.540054     0.450788     0.663597 
EA14136 15.308 14.823 14.434 90.00 90.00 90.00 Sym.group:    0
1.0
   15.307671     0.000000     0.000000
    0.000000    14.823137     0.000000
    0.000000     0.000000    14.434339
   W   B
  11  14
Direct
    0.527893     0.582692     0.347698 
    0.470272     0.422700     0.327346 
    0.584392     0.324662     0.428176 
    0.671514     0.541790     0.563540 
    0.378679     0.652025     0.545191 
    0.509540     0.479185     0.500349 
    0.601269     0.440153     0.678564 
    0.363696     0.389679     0.570906 
    0.362704     0.553038     0.413553 
    0.516159     0.597847     0.635901 
    0.529807     0.320737     0.590991 
    0.616975     0.638228     0.461137 
    0.610776     0.677712     0.566414 
    0.672638     0.437334     0.450625 
    0.607091     0.454187     0.356093 
    0.655245     0.385597     0.550894 
    0.442989     0.337362     0.455619 
    0.650598     0.543618     0.413517 
    0.276582     0.450842     0.471398 
    0.437297     0.680420     0.417139 
    0.518987     0.684975     0.498500 
    0.462016     0.455934     0.660432 
    0.295730     0.526619     0.553125 
    0.356172     0.398697     0.416494 
    0.380981     0.523968     0.626398 
EA14570 16.260 14.944 13.927 90.00 90.00 90.00 Sym.group:    0
1.0
   16.259795     0.000000     0.000000
    0.000000    14.944307     0.000000
    0.000000     0.000000    13.926750
   W   B
  12  11
Direct
    0.467603     0.503631     0.490916 
    0.734255     0.529851     0.500437 
    0.336878     0.403791     0.413606 
    0.352825     0.406376     0.586676 
    0.478937     0.322707     0.472138 
    0.522331     0.605785     0.639490 
    0.612103     0.507305     0.368051 
    0.302098     0.544368     0.510882 
    0.490835     0.627051     0.348188 
    0.477636     0.442088     0.325764 
    0.606472     0.626441     0.487548 
    0.594587     0.446041     0.573357 
    0.469010     0.469719     0.657610 
    0.591345     0.369523     0.401521 
    0.479856     0.369215     0.613798 
    0.681667     0.404197     0.456741 
    0.611768     0.315168     0.502694 
    0.659788     0.569687     0.619168 
    0.397880     0.634919     0.571683 
    0.388545     0.638608     0.447439 
    0.374967     0.548091     0.370445 
    0.390416     0.544035     0.639393 
    0.478197     0.671400     0.502459 
EA14862 15.988 14.170 13.918 90.00 90.00 90.00 Sym.group:    0
1.0
   15.987962     0.000000     0.000000
    0.000000    14.170236     0.000000
    0.000000     0.000000    13.918202
   W   B
  12  11
Direct
    0.530496     0.490002     0.492599 
    0.287693     0.622489     0.500410 
    0.620853     0.327444     0.438431 
    0.617944     0.366003     0.603110 
    0.458336     0.315745     0.519082 
    0.520630     0.639671     0.613130 
    0.385039     0.525142     0.364313 
    0.706252     0.470661     0.497221 
    0.536221     0.588238     0.322132 
    0.490762     0.402411     0.344423 
    0.432628     0.662175     0.461778 
    0.398545     0.494727     0.590942 
    0.531298     0.491991     0.663500 
    0.367571     0.385842     0.424844 
    0.489456     0.387352     0.644948 
    0.300213     0.469090     0.478535 
    0.332829     0.367853     0.534407 
    0.378177     0.650736     0.606520 
    0.643025     0.605311     0.536565 
    0.644686     0.582283     0.415468 
    0.627623     0.473106     0.362741 
    0.628917     0.524719     0.622542 
    0.570809     0.657009     0.462357 
EA15071 16.299 14.417 14.094 90.00 90.00 90.00 Sym.group:    0
1.0
   16.298979     0.000000     0.000000
    0.000000    14.417002     0.000000
    0.000000     0.000000    14.093587
   W   B
  11  14
Direct
    0.507865     0.614697     0.312497 
    0.418638     0.646066     0.594647 
    0.385179     0.559403     0.423236 
    0.362820     0.485333     0.610629 
    0.479962     0.304395     0.440050 
    0.489496     0.448967     0.322337 
    0.492737     0.377861     0.615943 
    0.522857     0.501124     0.499160 
    0.582461     0.640428     0.596536 
    0.693170     0.534750     0.566542 
    0.637987     0.530711     0.371521 
    0.482270     0.661640     0.463011 
    0.381220     0.361879     0.520356 
    0.306597     0.430675     0.474822 
    0.263131     0.522597     0.509413 
    0.297367     0.614710     0.553635 
    0.380504     0.396685     0.400895 
    0.591616     0.332646     0.515023 
    0.592458     0.383427     0.403315 
    0.586063     0.493017     0.657999 
    0.629314     0.405147     0.598087 
    0.664936     0.417282     0.481366 
    0.583208     0.657752     0.434009 
    0.677808     0.642080     0.469445 
    0.490334     0.536729     0.665525 
EA15473 15.280 15.178 14.247 90.00 90.00 90.00 Sym.group:    0
1.0
   15.279990     0.000000     0.000000
    0.000000    15.178407     0.000000
    0.000000     0.000000    14.246781
   W   B
  11  12
Direct
    0.634004     0.560451     0.382568 
    0.504344     0.485983     0.503959 
    0.622420     0.454383     0.648378 
    0.569617     0.306491     0.564218 
    0.485981     0.655932     0.412090 
    0.411057     0.607180     0.605015 
    0.404965     0.356307     0.517964 
    0.653578     0.410045     0.471442 
    0.291867     0.504817     0.544810 
    0.493710     0.518892     0.723927 
    0.559538     0.439083     0.310684 
    0.602155     0.641845     0.504115 
    0.653723     0.548055     0.540000 
    0.519577     0.687063     0.557391 
    0.525569     0.347435     0.427909 
    0.517483     0.573794     0.297015 
    0.377854     0.572458     0.449311 
    0.485086     0.392256     0.644366 
    0.437814     0.403578     0.375391 
    0.391203     0.456904     0.634906 
    0.435702     0.520129     0.350858 
    0.357688     0.463407     0.419644 
    0.565070     0.593508     0.614038 
EA15791 15.086 15.199 14.267 90.00 90.00 90.00 Sym.group:    0
1.0
   15.086002     0.000000     0.000000
    0.000000    15.199056     0.000000
    0.000000     0.000000    14.267314
   W   B
  11  12
Direct
    0.663943     0.541607     0.402272 
    0.505836     0.489844     0.498757 
    0.591756     0.407963     0.647708 
    0.537097     0.290349     0.552212 
    0.503794     0.654250     0.434837 
    0.433043     0.618424     0.600810 
    0.651395     0.389128     0.475216 
    0.417540     0.546317     0.332425 
    0.326420     0.460510     0.457069 
    0.582397     0.586594     0.661818 
    0.325145     0.630978     0.433973 
    0.471768     0.486657     0.663590 
    0.634372     0.623676     0.520520 
    0.656210     0.516233     0.557635 
    0.560754     0.692324     0.567276 
    0.527649     0.350909     0.413215 
    0.560565     0.565213     0.314658 
    0.443891     0.387331     0.604469 
    0.549950     0.454102     0.350429 
    0.443248     0.410649     0.369651 
    0.377905     0.483049     0.604519 
    0.305963     0.556847     0.562138 
    0.429359     0.357043     0.474801 
EA16114 14.474 15.211 14.115 90.00 90.00 90.00 Sym.group:    0
1.0
   14.474091     0.000000     0.000000
    0.000000    15.211028     0.000000
    0.000000     0.000000    14.114998
   W   B
  11  12
Direct
    0.535561     0.488545     0.298301 
    0.620743     0.604702     0.397198 
    0.624038     0.410164     0.639047 
    0.511573     0.496442     0.488868 
    0.703245     0.508346     0.527417 
    0.386639     0.643950     0.552443 
    0.439224     0.506147     0.650058 
    0.437863     0.640942     0.383798 
    0.537726     0.722525     0.494125 
    0.365637     0.377269     0.571005 
    0.536054     0.349664     0.380346 
    0.396731     0.500111     0.369395 
    0.639587     0.379150     0.491270 
    0.648454     0.450063     0.394301 
    0.537779     0.335840     0.539977 
    0.593455     0.545408     0.637710 
    0.321333     0.566031     0.439388 
    0.521098     0.630397     0.616687 
    0.318807     0.457090     0.449448 
    0.625301     0.624995     0.555866 
    0.310642     0.518085     0.552137 
    0.401531     0.387183     0.425082 
    0.486979     0.356951     0.646130 
EA16463 14.847 15.026 14.423 90.00 90.00 90.00 Sym.group:    0
1.0
   14.847229     0.000000     0.000000
    0.000000    15.026294     0.000000
    0.000000     0.000000    14.423188
   W   B
  11  12
Direct
    0.504806     0.511105     0.297766 
    0.444944     0.647158     0.387344 
    0.329837     0.456774     0.607768 
    0.485278     0.507641     0.488915 
    0.316669     0.582169     0.490311 
    0.641324     0.592394     0.580649 
    0.522495     0.477132     0.654576 
    0.624745     0.601272     0.409522 
    0.552176     0.719582     0.507630 
    0.553016     0.335956     0.573734 
    0.442114     0.380347     0.366332 
    0.627719     0.457681     0.389760 
    0.340232     0.439010     0.459780 
    0.369682     0.510119     0.369689 
    0.408276     0.365926     0.520778 
    0.403368     0.576747     0.619678 
    0.694689     0.493885     0.482291 
    0.505046     0.628430     0.620636 
    0.657821     0.389436     0.482935 
    0.423459     0.664183     0.542704 
    0.655896     0.446443     0.585650 
    0.570952     0.359000     0.423525 
    0.425452     0.357609     0.638027 
EA16725 15.156 14.111 14.767 90.00 90.00 90.00 Sym.group:    0
1.0
   15.156294     0.000000     0.000000
    0.000000    14.111381     0.000000
    0.000000     0.000000    14.767048
   W   B
  11  13
Direct
    0.495981     0.497645     0.501198 
    0.648238     0.415076     0.562892 
    0.709944     0.615403     0.578381 
    0.542151     0.677514     0.574582 
    0.382092     0.670104     0.512910 
    0.516411     0.317172     0.606092 
    0.443515     0.564113     0.653528 
    0.648732     0.631002     0.435305 
    0.385869     0.588526     0.368465 
    0.624562     0.454395     0.391009 
    0.361149     0.418122     0.413681 
    0.540225     0.446735     0.664764 
    0.456189     0.311893     0.471467 
    0.568281     0.331915     0.467926 
    0.391325     0.357849     0.549981 
    0.297243     0.542642     0.482394 
    0.594550     0.544706     0.635842 
    0.335547     0.458418     0.558874 
    0.310832     0.568395     0.592437 
    0.504173     0.663807     0.429066 
    0.532541     0.575928     0.351430 
    0.481001     0.472590     0.335949 
    0.499431     0.366919     0.380620 
    0.730017     0.509133     0.481208 
EA17140 15.090 14.330 13.842 90.00 90.00 90.00 Sym.group:    0
1.0
   15.090404     0.000000     0.000000
    0.000000    14.329659     0.000000
    0.000000     0.000000    13.842364
   W   B
  11  11
Direct
    0.521903     0.494215     0.489037 
    0.693329     0.469406     0.442649 
    0.525035     0.366306     0.638345 
    0.649575     0.651797     0.445353 
    0.608789     0.546920     0.317865 
    0.555919     0.376163     0.350201 
    0.387375     0.395592     0.391675 
    0.474471     0.651867     0.436571 
    0.339044     0.567390     0.357985 
    0.441587     0.633369     0.619023 
    0.372461     0.376602     0.565651 
    0.555650     0.525389     0.643528 
    0.636671     0.443928     0.590772 
    0.658452     0.557332     0.567715 
    0.575045     0.636621     0.578850 
    0.606937     0.359881     0.503596 
    0.307540     0.492356     0.486873 
    0.345335     0.603627     0.510111 
    0.342003     0.521394     0.598927 
    0.465412     0.514449     0.329403 
    0.440696     0.487875     0.648911 
    0.496775     0.327523     0.486960 
EA17326 15.984 15.115 14.795 90.00 90.00 90.00 Sym.group:    0
1.0
   15.983946     0.000000     0.000000
    0.000000    15.115275     0.000000
    0.000000     0.000000    14.795051
   W   B
  14  11
Direct
    0.492277     0.493702     0.503486 
    0.737935     0.503107     0.479011 
    0.477869     0.321011     0.473941 
    0.350967     0.508842     0.394143 
    0.537527     0.643321     0.403800 
    0.489722     0.525405     0.305308 
    0.394422     0.650734     0.497120 
    0.538485     0.523010     0.678543 
    0.635871     0.376859     0.477874 
    0.570211     0.364055     0.625854 
    0.694541     0.486187     0.627670 
    0.341116     0.399857     0.555399 
    0.625033     0.622896     0.563665 
    0.389896     0.549441     0.649367 
    0.545366     0.408776     0.371228 
    0.409281     0.631752     0.349312 
    0.314304     0.538084     0.531767 
    0.488823     0.643766     0.612709 
    0.358562     0.364871     0.415500 
    0.439056     0.400819     0.356287 
    0.439943     0.320081     0.611363 
    0.438890     0.414941     0.665391 
    0.518468     0.708156     0.530009 
    0.607985     0.500173     0.396745 
    0.663450     0.600153     0.424510 
EA17796 15.183 14.408 13.898 90.00 90.00 90.00 Sym.group:    0
1.0
   15.183255     0.000000     0.000000
    0.000000    14.408112     0.000000
    0.000000     0.000000    13.897788
   W   B
  11  11
Direct
    0.403639     0.546857     0.370163 
    0.409053     0.376672     0.399986 
    0.445550     0.534169     0.656603 
    0.328119     0.604037     0.538636 
    0.449381     0.361986     0.588573 
    0.526249     0.510497     0.494684 
    0.543904     0.680087     0.424002 
    0.660958     0.640832     0.550087 
    0.553732     0.418533     0.322679 
    0.695557     0.478296     0.573285 
    0.673005     0.543806     0.400755 
    0.308797     0.473691     0.467205 
    0.335569     0.459090     0.595088 
    0.323182     0.369387     0.521702 
    0.464557     0.654783     0.553090 
    0.406642     0.682080     0.448902 
    0.538086     0.340286     0.459094 
    0.563556     0.439590     0.651445 
    0.592460     0.552165     0.650839 
    0.638761     0.398428     0.448978 
    0.543781     0.565809     0.325071 
    0.595459     0.368923     0.559137 
EA17977 15.733 14.388 14.692 90.00 90.00 90.00 Sym.group:    0
1.0
   15.732679     0.000000     0.000000
    0.000000    14.387863     0.000000
    0.000000     0.000000    14.692304
   W   B
  13  12
Direct
    0.505922     0.502232     0.505176 
    0.349826     0.490333     0.577807 
    0.548339     0.334313     0.622274 
    0.617546     0.410845     0.368296 
    0.422562     0.588653     0.347032 
    0.281009     0.548221     0.416416 
    0.372658     0.652181     0.504578 
    0.424477     0.629656     0.670218 
    0.408814     0.329374     0.499781 
    0.661554     0.426801     0.541962 
    0.594239     0.591058     0.633490 
    0.595143     0.582205     0.362520 
    0.476980     0.482323     0.704023 
    0.706058     0.508764     0.419136 
    0.552133     0.339131     0.475652 
    0.395995     0.441492     0.384852 
    0.591918     0.652433     0.495923 
    0.498819     0.669053     0.439229 
    0.487789     0.367293     0.385789 
    0.494313     0.467057     0.324502 
    0.672252     0.579446     0.499345 
    0.613695     0.450227     0.678215 
    0.505210     0.676903     0.556601 
    0.414137     0.367818     0.635990 
    0.308611     0.412186     0.451191 
EA18315 15.712 14.689 14.304 90.00 90.00 90.00 Sym.group:    0
1.0
   15.712193     0.000000     0.000000
    0.000000    14.689103     0.000000
    0.000000     0.000000    14.304104
   W   B
  13  12
Direct
    0.493492     0.504207     0.502186 
    0.633393     0.604224     0.535664 
    0.453573     0.647122     0.359715 
    0.416383     0.372950     0.366489 
    0.594060     0.343809     0.565484 
    0.722018     0.444179     0.564306 
    0.604782     0.492663     0.669608 
    0.528134     0.647289     0.677852 
    0.606558     0.554571     0.349786 
    0.343687     0.531258     0.408563 
    0.374463     0.591655     0.599465 
    0.422018     0.333322     0.535206 
    0.489638     0.702528     0.529038 
    0.311546     0.385711     0.456039 
    0.469855     0.503365     0.329570 
    0.628029     0.418226     0.435468 
    0.394810     0.445824     0.631029 
    0.494641     0.403522     0.650022 
    0.545069     0.422195     0.349874 
    0.539594     0.338461     0.431419 
    0.323846     0.452870     0.546668 
    0.362720     0.663923     0.470115 
    0.465501     0.513346     0.683102 
    0.579436     0.677105     0.416249 
    0.702753     0.505675     0.437084 
EA18745 14.416 14.378 14.436 90.00 90.00 90.00 Sym.group:    0
1.0
   14.416489     0.000000     0.000000
    0.000000    14.377889     0.000000
    0.000000     0.000000    14.436053
   W   B
  12  11
Direct
    0.367624     0.359995     0.457899 
    0.636457     0.412435     0.379720 
    0.364483     0.493864     0.352867 
    0.637745     0.585869     0.371854 
    0.361345     0.635947     0.446780 
    0.635780     0.644943     0.532966 
    0.364626     0.592409     0.609974 
    0.628848     0.504863     0.651194 
    0.372923     0.418762     0.621855 
    0.630967     0.357600     0.552627 
    0.502811     0.512234     0.488866 
    0.527223     0.370800     0.695173 
    0.482541     0.325271     0.559553 
    0.521061     0.331913     0.450354 
    0.484942     0.391215     0.359650 
    0.517832     0.494253     0.322265 
    0.483100     0.600125     0.349597 
    0.515240     0.669832     0.435154 
    0.483405     0.674901     0.544897 
    0.519482     0.611086     0.633197 
    0.480231     0.513987     0.684347 
    0.310837     0.497798     0.500263 
    0.670501     0.499897     0.498947 
EA19090 16.036 14.776 13.744 90.00 90.00 90.00 Sym.group:    0
1.0
   16.035807     0.000000     0.000000
    0.000000    14.775752     0.000000
    0.000000     0.000000    13.743682
   W   B
  11  11
Direct
    0.507812     0.606780     0.565546 
    0.445177     0.721526     0.444504 
    0.575314     0.630218     0.398120 
    0.423181     0.563962     0.387809 
    0.592090     0.458238     0.349132 
    0.568089     0.345686     0.473261 
    0.507164     0.439576     0.633515 
    0.379624     0.553352     0.669946 
    0.341309     0.408689     0.629469 
    0.441060     0.392024     0.363243 
    0.282696     0.527062     0.511912 
    0.644215     0.599270     0.531413 
    0.682083     0.537912     0.434197 
    0.682178     0.426286     0.468074 
    0.640520     0.416770     0.586827 
    0.618085     0.525434     0.623706 
    0.503482     0.479938     0.478000 
    0.700818     0.505670     0.550741 
    0.433620     0.361705     0.521340 
    0.372003     0.632059     0.528275 
    0.318265     0.467555     0.378992 
    0.341214     0.400290     0.471982 
EA19160 15.812 15.812 15.812 90.00 90.00 90.00 Sym.group:    0
1.0
   15.811677     0.000000     0.000000
    0.000000    15.811677     0.000000
    0.000000     0.000000    15.811677
   W   B
  14  13
Direct
    0.504275     0.497894     0.503738 
    0.674213     0.444037     0.503488 
    0.326198     0.555543     0.495435 
    0.445358     0.323694     0.500126 
    0.558432     0.673383     0.499032 
    0.615184     0.557201     0.628412 
    0.559592     0.385976     0.629793 
    0.617093     0.558822     0.371464 
    0.559358     0.383186     0.371455 
    0.385449     0.442073     0.631519 
    0.438784     0.612945     0.370916 
    0.384139     0.444991     0.370801 
    0.442178     0.615116     0.631191 
    0.289646     0.568474     0.344285 
    0.559005     0.682467     0.634188 
    0.682479     0.440658     0.366000 
    0.440800     0.318360     0.635217 
    0.684111     0.440900     0.638449 
    0.441991     0.317326     0.364826 
    0.318588     0.559063     0.636286 
    0.560230     0.681479     0.364261 
    0.503244     0.498772     0.336640 
    0.499787     0.500514     0.667679 
    0.357775     0.424153     0.501924 
    0.648603     0.575709     0.499662 
    0.427267     0.644980     0.502094 
    0.576221     0.352284     0.501116 
EA19491 15.844 14.961 14.161 90.00 90.00 90.00 Sym.group:    0
1.0
   15.844440     0.000000     0.000000
    0.000000    14.961290     0.000000
    0.000000     0.000000    14.161159
   W   B
  12  15
Direct
    0.542755     0.422636     0.645180 
    0.601661     0.515235     0.390073 
    0.601016     0.373714     0.483757 
    0.706447     0.515323     0.585226 
    0.443959     0.326608     0.400964 
    0.552144     0.590297     0.603275 
    0.397916     0.523690     0.680195 
    0.456967     0.505525     0.497227 
    0.324046     0.611362     0.549051 
    0.447958     0.703778     0.496230 
    0.429650     0.478267     0.325869 
    0.362816     0.382004     0.582167 
    0.669353     0.379303     0.627486 
    0.728376     0.556731     0.440980 
    0.657945     0.620530     0.490167 
    0.483271     0.328233     0.544800 
    0.547923     0.389652     0.338006 
    0.737354     0.450476     0.452874 
    0.732188     0.378940     0.536956 
    0.431420     0.659674     0.640443 
    0.488649     0.612009     0.373656 
    0.562294     0.646970     0.450695 
    0.320320     0.528248     0.410922 
    0.275343     0.490984     0.621695 
    0.335948     0.416693     0.427828 
    0.277960     0.477458     0.505527 
    0.384319     0.615660     0.398750 
EA19757 15.706 14.256 16.797 90.00 90.00 90.00 Sym.group:    0
1.0
   15.705637     0.000000     0.000000
    0.000000    14.255728     0.000000
    0.000000     0.000000    16.797445
   W   B
  15  15
Direct
    0.740327     0.545689     0.458358 
    0.476652     0.550061     0.354901 
    0.316220     0.621471     0.447737 
    0.270953     0.390556     0.410856 
    0.439331     0.377218     0.403907 
    0.582309     0.494986     0.489380 
    0.583648     0.312416     0.459727 
    0.420703     0.510469     0.513335 
    0.543475     0.481819     0.643899 
    0.717415     0.497768     0.591319 
    0.297575     0.561632     0.601185 
    0.335683     0.362853     0.544657 
    0.436786     0.231476     0.493964 
    0.498772     0.318294     0.596246 
    0.394393     0.692588     0.564761 
    0.644933     0.649243     0.496604 
    0.563914     0.637487     0.421838 
    0.451302     0.664472     0.444688 
    0.618728     0.541401     0.364436 
    0.543398     0.671445     0.522508 
    0.568375     0.431769     0.359100 
    0.348498     0.499948     0.372207 
    0.699958     0.397631     0.487893 
    0.671005     0.436715     0.392350 
    0.630776     0.375498     0.571334 
    0.615930     0.609705     0.591876 
    0.511667     0.627143     0.612695 
    0.246499     0.489332     0.500013 
    0.402095     0.451685     0.640754 
    0.428678     0.567233     0.647474 
EA20269 15.748 15.697 16.221 90.00 90.00 90.00 Sym.group:    0
1.0
   15.747861     0.000000     0.000000
    0.000000    15.696584     0.000000
    0.000000     0.000000    16.221410
   W   B
  14  11
Direct
    0.501934     0.510513     0.509309 
    0.458114     0.501832     0.322903 
    0.562944     0.364274     0.617302 
    0.456020     0.478619     0.676802 
    0.517949     0.638225     0.395209 
    0.456558     0.361079     0.394219 
    0.335740     0.464580     0.420433 
    0.535221     0.683995     0.541828 
    0.333858     0.471434     0.579739 
    0.600438     0.345390     0.459708 
    0.662545     0.597064     0.447392 
    0.395787     0.618128     0.609112 
    0.665512     0.465281     0.536583 
    0.663002     0.614316     0.602916 
    0.336425     0.581771     0.492985 
    0.658605     0.461719     0.398152 
    0.377767     0.362298     0.507507 
    0.587773     0.501348     0.646056 
    0.530689     0.593322     0.645823 
    0.423514     0.363777     0.603441 
    0.574236     0.421074     0.346737 
    0.384281     0.592196     0.400034 
    0.476744     0.319242     0.522698 
    0.594181     0.527465     0.342459 
    0.410162     0.661058     0.480652 
EA20608 15.214 14.987 14.932 90.00 90.00 90.00 Sym.group:    0
1.0
   15.213918     0.000000     0.000000
    0.000000    14.986513     0.000000
    0.000000     0.000000    14.931768
   W   B
  14  11
Direct
    0.489123     0.512209     0.488231 
    0.577093     0.412331     0.341025 
    0.475077     0.441738     0.688109 
    0.350576     0.548444     0.617164 
    0.591974     0.591525     0.356963 
    0.523318     0.309698     0.459181 
    0.412437     0.388443     0.364195 
    0.516682     0.697011     0.465095 
    0.302761     0.465907     0.483259 
    0.599092     0.367121     0.599740 
    0.667899     0.604822     0.507230 
    0.348359     0.631154     0.469432 
    0.618308     0.525683     0.642619 
    0.576410     0.691652     0.620415 
    0.373356     0.529743     0.369281 
    0.695164     0.460187     0.530448 
    0.384969     0.345537     0.502274 
    0.483960     0.584276     0.658220 
    0.441090     0.656526     0.581732 
    0.364465     0.401001     0.600445 
    0.653579     0.380737     0.463242 
    0.473273     0.514274     0.320060 
    0.457261     0.339208     0.589040 
    0.676815     0.484202     0.420286 
    0.446958     0.616570     0.362312 
EA21026 16.196 14.962 13.724 90.00 90.00 90.00 Sym.group:    0
1.0
   16.195828     0.000000     0.000000
    0.000000    14.962317     0.000000
    0.000000     0.000000    13.723786
   W   B
  11  12
Direct
    0.399037     0.531206     0.608836 
    0.393927     0.670376     0.472680 
    0.699351     0.512954     0.477342 
    0.529423     0.495123     0.491479 
    0.359031     0.519880     0.416074 
    0.487679     0.315749     0.490683 
    0.510837     0.649731     0.595125 
    0.350338     0.368809     0.540621 
    0.614126     0.569180     0.340160 
    0.492671     0.435194     0.328281 
    0.536442     0.499453     0.693390 
    0.462810     0.394455     0.623304 
    0.629061     0.427866     0.384614 
    0.474587     0.575880     0.343420 
    0.564559     0.377585     0.602085 
    0.641535     0.455854     0.606453 
    0.615345     0.629111     0.489119 
    0.292826     0.602015     0.533179 
    0.389349     0.374036     0.398243 
    0.274901     0.491724     0.539962 
    0.627339     0.572609     0.595508 
    0.629889     0.384737     0.500893 
    0.524939     0.646471     0.428549 
EA21385 13.220 13.179 12.765 90.00 90.00 90.00 Sym.group:    0
1.0
   13.219748     0.000000     0.000000
    0.000000    13.178571     0.000000
    0.000000     0.000000    12.764821
   W   B
  11  11
Direct
    0.498279     0.500670     0.512815 
    0.625041     0.403888     0.665305 
    0.543389     0.349476     0.354632 
    0.447629     0.351631     0.664427 
    0.372691     0.411326     0.354573 
    0.342911     0.504367     0.664692 
    0.377146     0.596391     0.353819 
    0.455224     0.652022     0.665223 
    0.552216     0.646470     0.355143 
    0.628747     0.588693     0.665029 
    0.656358     0.495967     0.353944 
    0.500586     0.500035     0.283072 
    0.445018     0.687606     0.490846 
    0.563640     0.679569     0.530861 
    0.660900     0.610304     0.491373 
    0.689903     0.494516     0.530798 
    0.654066     0.380902     0.490412 
    0.554025     0.316401     0.530624 
    0.434650     0.315077     0.491217 
    0.343082     0.392129     0.530352 
    0.305655     0.505610     0.490535 
    0.348844     0.616951     0.530305 
EA21714 15.109 14.346 14.256 90.00 90.00 90.00 Sym.group:    0
1.0
   15.108634     0.000000     0.000000
    0.000000    14.345825     0.000000
    0.000000     0.000000    14.255839
   W   B
  11  12
Direct
    0.509377     0.579882     0.682374 
    0.299824     0.506252     0.525703 
    0.518829     0.400734     0.660710 
    0.345184     0.358408     0.441947 
    0.637060     0.364351     0.553568 
    0.489669     0.407484     0.353724 
    0.688681     0.518026     0.485582 
    0.470422     0.586531     0.328250 
    0.515935     0.512273     0.496940 
    0.370444     0.354964     0.602093 
    0.597560     0.659065     0.429512 
    0.574045     0.312492     0.431331 
    0.631868     0.405971     0.395234 
    0.601894     0.512556     0.354402 
    0.459979     0.672385     0.454853 
    0.514727     0.668895     0.558598 
    0.409413     0.609823     0.565364 
    0.397551     0.505987     0.634474 
    0.626685     0.508843     0.626484 
    0.364443     0.499442     0.387586 
    0.616395     0.617754     0.579584 
    0.372520     0.603943     0.442926 
    0.487496     0.333940     0.508762 
EA21746 15.650 15.758 15.849 90.00 90.00 90.00 Sym.group:    0
1.0
   15.650236     0.000000     0.000000
    0.000000    15.757923     0.000000
    0.000000     0.000000    15.849391
   W   B
  14  15
Direct
    0.504029     0.489435     0.687994 
    0.597178     0.610787     0.617512 
    0.428071     0.413609     0.546510 
    0.283801     0.495054     0.433218 
    0.426380     0.597797     0.601287 
    0.556387     0.516105     0.499035 
    0.653647     0.446070     0.670512 
    0.508873     0.626965     0.379898 
    0.664392     0.380796     0.520032 
    0.605990     0.288719     0.399015 
    0.528324     0.273398     0.520985 
    0.428432     0.320875     0.412722 
    0.432131     0.480682     0.379743 
    0.588925     0.508607     0.316596 
    0.292705     0.437104     0.559506 
    0.349739     0.487521     0.641095 
    0.297429     0.541534     0.565389 
    0.411352     0.669991     0.478573 
    0.604910     0.658890     0.479854 
    0.323485     0.615804     0.497969 
    0.508461     0.678214     0.519940 
    0.313560     0.370886     0.478595 
    0.367207     0.608318     0.400838 
    0.650140     0.590736     0.402792 
    0.688580     0.600381     0.503417 
    0.699345     0.519176     0.566800 
    0.554404     0.380947     0.609513 
    0.694573     0.500063     0.453614 
    0.537552     0.391537     0.357048 
EA22219 16.059 14.979 14.317 90.00 90.00 90.00 Sym.group:    0
1.0
   16.059100     0.000000     0.000000
    0.000000    14.978603     0.000000
    0.000000     0.000000    14.317007
   W   B
  13  13
Direct
    0.404033     0.389666     0.418274 
    0.535088     0.302332     0.406917 
    0.548435     0.440082     0.316179 
    0.422396     0.546216     0.364866 
    0.479725     0.350727     0.581178 
    0.711741     0.446573     0.535829 
    0.568429     0.652043     0.593926 
    0.493111     0.506935     0.668446 
    0.713229     0.613205     0.537467 
    0.281487     0.482496     0.521499 
    0.684249     0.534956     0.387772 
    0.543893     0.496543     0.494880 
    0.477643     0.674767     0.455923 
    0.297564     0.483173     0.373015 
    0.610587     0.349124     0.527579 
    0.359994     0.601620     0.512532 
    0.299181     0.584219     0.417813 
    0.612658     0.649415     0.441953 
    0.558932     0.589193     0.359283 
    0.374859     0.436437     0.637823 
    0.348603     0.365063     0.554846 
    0.435443     0.625588     0.596081 
    0.598383     0.416912     0.625429 
    0.641971     0.393129     0.418272 
    0.365400     0.545385     0.619713 
    0.632964     0.524199     0.632507 
EA22406 15.867 15.596 14.338 90.00 90.00 90.00 Sym.group:    0
1.0
   15.867241     0.000000     0.000000
    0.000000    15.596414     0.000000
    0.000000     0.000000    14.338046
   W   B
  14  15
Direct
    0.506810     0.525825     0.697204 
    0.618275     0.420044     0.653760 
    0.409093     0.555761     0.529865 
    0.299653     0.482758     0.383266 
    0.429718     0.396077     0.596775 
    0.562315     0.484687     0.510506 
    0.638669     0.615924     0.671661 
    0.638106     0.649170     0.502150 
    0.568315     0.717634     0.363603 
    0.476686     0.720597     0.494360 
    0.410613     0.642034     0.373423 
    0.460086     0.483921     0.359061 
    0.612455     0.559226     0.348836 
    0.498721     0.336854     0.422855 
    0.269167     0.532847     0.524636 
    0.305763     0.481952     0.623236 
    0.307097     0.431070     0.522735 
    0.632908     0.351316     0.506183 
    0.369429     0.371983     0.456742 
    0.547414     0.328344     0.568788 
    0.296059     0.608484     0.446558 
    0.380777     0.370809     0.342525 
    0.666354     0.427910     0.411900 
    0.704101     0.427372     0.524507 
    0.699110     0.520556     0.581270 
    0.527302     0.618592     0.583901 
    0.701807     0.522003     0.459895 
    0.378525     0.494986     0.700722 
    0.584673     0.421263     0.339079 
EA22732 15.855 15.065 14.510 90.00 90.00 90.00 Sym.group:    0
1.0
   15.855236     0.000000     0.000000
    0.000000    15.064744     0.000000
    0.000000     0.000000    14.510340
   W   B
  15  13
Direct
    0.459173     0.447391     0.332584 
    0.521228     0.619380     0.372646 
    0.748153     0.568204     0.508466 
    0.588838     0.374587     0.436167 
    0.300163     0.491944     0.413014 
    0.363187     0.361679     0.555292 
    0.356955     0.669039     0.403472 
    0.589849     0.551325     0.544559 
    0.487948     0.552263     0.687020 
    0.444327     0.673139     0.544750 
    0.632101     0.692543     0.477633 
    0.682220     0.610428     0.348251 
    0.698934     0.484187     0.651959 
    0.436739     0.510667     0.494914 
    0.378482     0.571658     0.283092 
    0.597701     0.492279     0.351352 
    0.689408     0.476688     0.411607 
    0.694523     0.428558     0.516443 
    0.606801     0.389054     0.580005 
    0.454876     0.326402     0.439000 
    0.379461     0.470510     0.653261 
    0.301867     0.493503     0.573618 
    0.365347     0.579492     0.626776 
    0.571068     0.444509     0.675807 
    0.471720     0.416473     0.638967 
    0.313403     0.598361     0.527721 
    0.501758     0.342710     0.544880 
    0.363773     0.363029     0.406744 
EA23289 14.828 16.864 14.120 90.00 90.00 90.00 Sym.group:    0
1.0
   14.827976     0.000000     0.000000
    0.000000    16.864162     0.000000
    0.000000     0.000000    14.119627
   W   B
  11  12
Direct
    0.384449     0.610352     0.393621 
    0.505282     0.661424     0.513482 
    0.655483     0.623417     0.432460 
    0.622646     0.490760     0.362353 
    0.460452     0.490184     0.310733 
    0.617442     0.378647     0.492524 
    0.585061     0.477359     0.648535 
    0.399976     0.546069     0.648828 
    0.334162     0.422991     0.551605 
    0.444172     0.322162     0.523414 
    0.484321     0.499955     0.497843 
    0.360989     0.636184     0.544098 
    0.622884     0.589759     0.574333 
    0.732545     0.439785     0.469644 
    0.507714     0.386111     0.391241 
    0.339714     0.490518     0.416279 
    0.669611     0.507585     0.523909 
    0.531436     0.596579     0.643152 
    0.319494     0.549201     0.511317 
    0.396489     0.402519     0.410635 
    0.542376     0.358211     0.625574 
    0.453406     0.419343     0.642006 
    0.529896     0.600883     0.372413 
EA23602 16.060 14.405 14.247 90.00 90.00 90.00 Sym.group:    0
1.0
   16.060402     0.000000     0.000000
    0.000000    14.404614     0.000000
    0.000000     0.000000    14.246594
   W   B
  12  11
Direct
    0.725150     0.437517     0.490649 
    0.496944     0.374244     0.357009 
    0.719127     0.614148     0.477295 
    0.617157     0.516106     0.383172 
    0.562143     0.659059     0.487156 
    0.488884     0.497095     0.507149 
    0.381036     0.505350     0.369158 
    0.392907     0.395805     0.623334 
    0.424347     0.671888     0.586375 
    0.289818     0.454522     0.507974 
    0.505388     0.303476     0.522015 
    0.649983     0.533160     0.598530 
    0.612007     0.385162     0.565903 
    0.497238     0.600925     0.361780 
    0.426161     0.638009     0.438088 
    0.501220     0.508867     0.292124 
    0.454090     0.530862     0.660800 
    0.527897     0.390734     0.640708 
    0.530648     0.602098     0.628250 
    0.358193     0.545075     0.603793 
    0.340837     0.593133     0.493895 
    0.392665     0.371472     0.460956 
    0.606157     0.371294     0.443888 
EA23896 15.930 14.192 15.173 90.00 90.00 90.00 Sym.group:    0
1.0
   15.929620     0.000000     0.000000
    0.000000    14.192124     0.000000
    0.000000     0.000000    15.172971
   W   B
  12  11
Direct
    0.276447     0.525808     0.524056 
    0.386327     0.635631     0.465047 
    0.540288     0.600858     0.343599 
    0.315348     0.371505     0.461950 
    0.377614     0.492511     0.366736 
    0.514835     0.521517     0.486064 
    0.626352     0.450831     0.362165 
    0.579924     0.633016     0.599257 
    0.557830     0.348295     0.576867 
    0.691395     0.556474     0.479298 
    0.479566     0.355586     0.421596 
    0.403438     0.570421     0.622239 
    0.351474     0.428002     0.592443 
    0.612323     0.329257     0.448689 
    0.499338     0.459089     0.311312 
    0.513383     0.701708     0.484704 
    0.459466     0.700350     0.576626 
    0.450859     0.426862     0.628961 
    0.631453     0.478925     0.589161 
    0.667312     0.408778     0.505267 
    0.607588     0.667279     0.458708 
    0.420953     0.343718     0.552444 
    0.536486     0.493580     0.642807 
EA24122 16.345 14.235 14.307 90.00 90.00 90.00 Sym.group:    0
1.0
   16.344831     0.000000     0.000000
    0.000000    14.235076     0.000000
    0.000000     0.000000    14.307239
   W   B
  14  11
Direct
    0.460443     0.364203     0.582557 
    0.617094     0.403381     0.651390 
    0.683828     0.516478     0.401644 
    0.544691     0.497023     0.503894 
    0.601926     0.653913     0.361062 
    0.523318     0.488297     0.323185 
    0.567214     0.608037     0.641133 
    0.460247     0.657990     0.395308 
    0.391811     0.538156     0.618792 
    0.393685     0.501882     0.443060 
    0.334712     0.337504     0.430844 
    0.708980     0.526317     0.597492 
    0.481465     0.324138     0.412379 
    0.710711     0.381242     0.507288 
    0.334145     0.400198     0.574954 
    0.585181     0.331335     0.514857 
    0.608585     0.388490     0.401855 
    0.643688     0.626553     0.508087 
    0.365750     0.652884     0.513886 
    0.550331     0.679298     0.504212 
    0.407149     0.406565     0.319512 
    0.286382     0.588824     0.522583 
    0.505157     0.480900     0.674067 
    0.459704     0.665532     0.556872 
    0.273806     0.480858     0.539091 
EA24462 16.574 14.279 14.118 90.00 90.00 90.00 Sym.group:    0
1.0
   16.574450     0.000000     0.000000
    0.000000    14.278537     0.000000
    0.000000     0.000000    14.118295
   W   B
  13  12
Direct
    0.436370     0.399916     0.592478 
    0.601756     0.410840     0.671983 
    0.688940     0.473542     0.411552 
    0.544676     0.500029     0.509118 
    0.619151     0.602690     0.339655 
    0.522384     0.460639     0.325488 
    0.596122     0.615030     0.630706 
    0.480907     0.651827     0.376632 
    0.406551     0.581946     0.622991 
    0.396354     0.507253     0.434333 
    0.320913     0.352465     0.457016 
    0.707656     0.506157     0.595764 
    0.467423     0.311168     0.435207 
    0.320542     0.470505     0.572999 
    0.559106     0.330653     0.550577 
    0.646901     0.384653     0.527243 
    0.589641     0.365966     0.428270 
    0.664917     0.608943     0.489614 
    0.389838     0.655348     0.493606 
    0.575990     0.666620     0.479548 
    0.401181     0.388231     0.335882 
    0.300951     0.584959     0.523507 
    0.511719     0.509581     0.682184 
    0.486888     0.673296     0.538310 
    0.263121     0.487745     0.475339 
EA24746 14.855 15.077 14.809 90.00 90.00 90.00 Sym.group:    0
1.0
   14.854998     0.000000     0.000000
    0.000000    15.077305     0.000000
    0.000000     0.000000    14.809300
   W   B
  11  14
Direct
    0.511807     0.509192     0.490871 
    0.416045     0.699207     0.521791 
    0.639040     0.372105     0.442960 
    0.338107     0.550312     0.457872 
    0.620305     0.386819     0.608351 
    0.536799     0.441893     0.322541 
    0.451610     0.387166     0.627112 
    0.380993     0.406883     0.373194 
    0.665861     0.544337     0.392086 
    0.532678     0.638642     0.616389 
    0.568493     0.682328     0.446961 
    0.538857     0.496939     0.666600 
    0.346882     0.411129     0.516786 
    0.528172     0.310016     0.522488 
    0.349083     0.601011     0.602714 
    0.686858     0.487725     0.523565 
    0.440692     0.637125     0.392255 
    0.434114     0.530528     0.650051 
    0.532089     0.588269     0.341222 
    0.635873     0.528876     0.617312 
    0.341831     0.491421     0.594509 
    0.501478     0.327415     0.411616 
    0.419946     0.331114     0.493779 
    0.427084     0.540712     0.337064 
    0.655298     0.598836     0.529909 
EA24916 16.490 15.704 13.987 90.00 90.00 90.00 Sym.group:    0
1.0
   16.490043     0.000000     0.000000
    0.000000    15.703559     0.000000
    0.000000     0.000000    13.987146
   W   B
  14  13
Direct
    0.573375     0.451470     0.671255 
    0.554551     0.517258     0.499933 
    0.647430     0.370899     0.548578 
    0.603570     0.671619     0.518557 
    0.563341     0.499509     0.319566 
    0.721335     0.508846     0.544654 
    0.318999     0.603959     0.415926 
    0.426433     0.433923     0.597637 
    0.453630     0.391889     0.387186 
    0.281931     0.499721     0.532814 
    0.469246     0.642320     0.365079 
    0.446667     0.647305     0.544770 
    0.513615     0.308462     0.642341 
    0.406474     0.525581     0.283350 
    0.586680     0.381222     0.411374 
    0.548940     0.611647     0.643764 
    0.671667     0.559542     0.412946 
    0.664815     0.451411     0.416956 
    0.642243     0.580945     0.626204 
    0.599503     0.623227     0.374454 
    0.339646     0.463221     0.398697 
    0.467402     0.553246     0.659887 
    0.350247     0.384122     0.482198 
    0.316167     0.629130     0.567016 
    0.432943     0.314370     0.515619 
    0.367510     0.559012     0.633996 
    0.531639     0.316147     0.485242 
EA25215 15.808 15.808 15.808 90.00 90.00 90.00 Sym.group:    0
1.0
   15.807962     0.000000     0.000000
    0.000000    15.807962     0.000000
    0.000000     0.000000    15.807962
   W   B
  14  13
Direct
    0.499982     0.499745     0.504065 
    0.449440     0.320432     0.502900 
    0.550640     0.679830     0.503073 
    0.677448     0.452103     0.502545 
    0.322525     0.547578     0.502725 
    0.602183     0.557467     0.372044 
    0.435948     0.610005     0.635214 
    0.611409     0.565550     0.631873 
    0.441802     0.602280     0.369182 
    0.398084     0.442585     0.371440 
    0.558445     0.397537     0.369144 
    0.388414     0.434376     0.631838 
    0.563855     0.390012     0.635250 
    0.499879     0.500149     0.260448 
    0.499933     0.500031     0.666601 
    0.352111     0.414790     0.501797 
    0.647772     0.585172     0.501884 
    0.425478     0.632466     0.505517 
    0.574450     0.367557     0.505444 
    0.312356     0.555222     0.367937 
    0.313003     0.551750     0.637778 
    0.549617     0.689805     0.368688 
    0.549789     0.688521     0.639066 
    0.450461     0.310381     0.368544 
    0.450169     0.311528     0.639009 
    0.687829     0.444895     0.368050 
    0.686979     0.448230     0.637943 
EA25749 16.703 15.381 14.663 90.00 90.00 90.00 Sym.group:    0
1.0
   16.702833     0.000000     0.000000
    0.000000    15.380918     0.000000
    0.000000     0.000000    14.662769
   W   B
  12  12
Direct
    0.446595     0.596628     0.390471 
    0.399401     0.582400     0.603162 
    0.288596     0.401087     0.474112 
    0.405284     0.408815     0.613514 
    0.434650     0.348474     0.456781 
    0.293626     0.557303     0.459877 
    0.599703     0.396552     0.419047 
    0.509604     0.485558     0.697296 
    0.633921     0.583423     0.413220 
    0.510447     0.507639     0.510765 
    0.592194     0.622692     0.583584 
    0.564251     0.360918     0.594682 
    0.370257     0.665370     0.487095 
    0.468510     0.674530     0.517703 
    0.299678     0.489860     0.585373 
    0.374801     0.469294     0.390315 
    0.472464     0.450118     0.364702 
    0.543705     0.280297     0.475020 
    0.627842     0.491722     0.625866 
    0.668485     0.424365     0.543462 
    0.689758     0.538327     0.544378 
    0.706393     0.474471     0.452523 
    0.549259     0.511202     0.341822 
    0.550575     0.678952     0.455228 
EA25919 15.964 15.386 14.769 90.00 90.00 90.00 Sym.group:    0
1.0
   15.963969     0.000000     0.000000
    0.000000    15.385991     0.000000
    0.000000     0.000000    14.768555
   W   B
  15  11
Direct
    0.578132     0.521915     0.280121 
    0.524354     0.526902     0.504690 
    0.492345     0.375885     0.588869 
    0.519844     0.306595     0.425784 
    0.528872     0.515241     0.696878 
    0.637806     0.387692     0.515859 
    0.382116     0.514714     0.608807 
    0.251369     0.444839     0.503579 
    0.394768     0.432673     0.426622 
    0.383689     0.657932     0.511178 
    0.532407     0.695605     0.491073 
    0.243607     0.585511     0.547979 
    0.446233     0.582869     0.362314 
    0.485105     0.399523     0.291150 
    0.618527     0.624821     0.626341 
    0.589372     0.610460     0.388582 
    0.649391     0.616338     0.480047 
    0.655367     0.484975     0.635336 
    0.645808     0.508960     0.420261 
    0.600022     0.414265     0.374130 
    0.607051     0.397035     0.664710 
    0.679641     0.527090     0.534481 
    0.404271     0.305522     0.504560 
    0.317332     0.555320     0.429528 
    0.354223     0.377180     0.569427 
    0.478349     0.630138     0.617698 
EA26290 15.566 15.566 15.566 90.00 90.00 90.00 Sym.group:    0
1.0
   15.566242     0.000000     0.000000
    0.000000    15.566242     0.000000
    0.000000     0.000000    15.566242
   W   B
  13  12
Direct
    0.502518     0.495744     0.511390 
    0.455765     0.574987     0.329631 
    0.543643     0.575645     0.670254 
    0.454855     0.424500     0.670837 
    0.543911     0.425599     0.329366 
    0.425078     0.669892     0.455629 
    0.330074     0.544711     0.423722 
    0.574775     0.328844     0.455767 
    0.329736     0.455762     0.575004 
    0.574967     0.671175     0.543401 
    0.670598     0.455637     0.424199 
    0.424547     0.329110     0.543694 
    0.669518     0.545431     0.575252 
    0.592595     0.445360     0.644333 
    0.406383     0.444862     0.354856 
    0.593763     0.555748     0.354604 
    0.407498     0.554997     0.644554 
    0.554004     0.355501     0.593276 
    0.645064     0.406917     0.555036 
    0.445364     0.645249     0.592341 
    0.645341     0.593440     0.444167 
    0.444862     0.355149     0.405671 
    0.355098     0.593523     0.554072 
    0.555451     0.644937     0.405674 
    0.354591     0.407280     0.443271 
EA26428 16.695 15.421 14.507 90.00 90.00 90.00 Sym.group:    0
1.0
   16.694719     0.000000     0.000000
    0.000000    15.420926     0.000000
    0.000000     0.000000    14.506826
   W   B
  15  14
Direct
    0.549564     0.508846     0.509543 
    0.593144     0.617643     0.648766 
    0.658996     0.430047     0.376996 
    0.510829     0.646607     0.386421 
    0.468980     0.677110     0.562290 
    0.659843     0.379733     0.536934 
    0.276481     0.441841     0.500426 
    0.424498     0.410957     0.583430 
    0.447369     0.557918     0.683693 
    0.390102     0.558575     0.483042 
    0.370693     0.321287     0.446512 
    0.565277     0.456350     0.685382 
    0.341862     0.459245     0.346360 
    0.541183     0.325818     0.451217 
    0.710055     0.629095     0.549056 
    0.639105     0.581709     0.413470 
    0.701466     0.509735     0.483884 
    0.539834     0.337681     0.602666 
    0.599836     0.665409     0.494880 
    0.572755     0.530953     0.339881 
    0.333325     0.505100     0.631549 
    0.451257     0.426237     0.422486 
    0.344892     0.626704     0.611346 
    0.460305     0.278887     0.552686 
    0.532418     0.429361     0.347862 
    0.468135     0.516962     0.335676 
    0.398504     0.595281     0.337222 
    0.677456     0.506191     0.607221 
    0.271836     0.568719     0.569099 
EA26753 16.830 15.185 14.732 90.00 90.00 90.00 Sym.group:    0
1.0
   16.830370     0.000000     0.000000
    0.000000    15.185321     0.000000
    0.000000     0.000000    14.731628
   W   B
  15  14
Direct
    0.451920     0.505718     0.506300 
    0.387223     0.632128     0.616866 
    0.353499     0.376685     0.408069 
    0.471323     0.615871     0.351680 
    0.503552     0.691467     0.512623 
    0.363017     0.365149     0.581683 
    0.725444     0.481976     0.509899 
    0.584271     0.446597     0.601050 
    0.537119     0.608412     0.656650 
    0.599625     0.571656     0.463149 
    0.653476     0.335345     0.492547 
    0.440713     0.480663     0.690104 
    0.665750     0.456188     0.357324 
    0.484681     0.317881     0.499112 
    0.277890     0.602841     0.514067 
    0.349233     0.534863     0.404332 
    0.303699     0.467000     0.499679 
    0.488902     0.350528     0.647587 
    0.383691     0.646139     0.458673 
    0.421551     0.483377     0.343391 
    0.658387     0.569051     0.614948 
    0.561522     0.414145     0.431631 
    0.631074     0.673770     0.570797 
    0.571551     0.302710     0.603865 
    0.476066     0.393396     0.373064 
    0.528410     0.484876     0.339831 
    0.587017     0.568529     0.311806 
    0.329231     0.502603     0.606491 
    0.710162     0.620439     0.532782 
EA27043 16.747 15.211 14.791 90.00 90.00 90.00 Sym.group:    0
1.0
   16.746633     0.000000     0.000000
    0.000000    15.211445     0.000000
    0.000000     0.000000    14.791247
   W   B
  15  14
Direct
    0.552825     0.489933     0.510756 
    0.606007     0.368319     0.628182 
    0.653108     0.607603     0.405841 
    0.526222     0.379246     0.360003 
    0.491655     0.308691     0.524719 
    0.638850     0.629447     0.585315 
    0.275874     0.524623     0.510690 
    0.418741     0.557295     0.602332 
    0.456193     0.394242     0.663534 
    0.402477     0.431688     0.468908 
    0.352048     0.665914     0.488889 
    0.557368     0.522849     0.692516 
    0.333910     0.540911     0.354761 
    0.518044     0.670072     0.491017 
    0.718860     0.392721     0.522850 
    0.651235     0.459136     0.407324 
    0.701645     0.527910     0.507244 
    0.513586     0.656786     0.643401 
    0.614667     0.350334     0.465250 
    0.578302     0.507040     0.342540 
    0.339653     0.438449     0.613371 
    0.435355     0.620421     0.381448 
    0.361767     0.329218     0.571937 
    0.432831     0.703429     0.596183 
    0.532813     0.604702     0.360528 
    0.469822     0.513467     0.339523 
    0.411228     0.425981     0.317248 
    0.669766     0.493927     0.610441 
    0.285150     0.385646     0.533246 
EA27543 14.660 14.706 15.476 90.00 90.00 90.00 Sym.group:    0
1.0
   14.659619     0.000000     0.000000
    0.000000    14.706328     0.000000
    0.000000     0.000000    15.476326
   W   B
  13  12
Direct
    0.505607     0.489972     0.492164 
    0.382280     0.485334     0.344529 
    0.606202     0.601302     0.603552 
    0.656232     0.528357     0.377588 
    0.303743     0.569909     0.464736 
    0.376979     0.321594     0.387882 
    0.518406     0.297474     0.464318 
    0.714227     0.483005     0.528418 
    0.558626     0.672273     0.448192 
    0.533471     0.409502     0.335920 
    0.470748     0.484721     0.655883 
    0.630914     0.436613     0.665669 
    0.392321     0.338920     0.561567 
    0.686936     0.618981     0.484188 
    0.534458     0.351483     0.606023 
    0.422240     0.653159     0.511974 
    0.639967     0.393042     0.435926 
    0.513313     0.565824     0.346916 
    0.427937     0.614948     0.404979 
    0.340509     0.472853     0.571021 
    0.507003     0.709871     0.569348 
    0.463061     0.632618     0.634037 
    0.631171     0.362928     0.541753 
    0.373170     0.581667     0.588685 
    0.310479     0.423651     0.474736 
EA27715 15.109 14.746 14.746 90.00 90.00 90.00 Sym.group:    0
1.0
   15.108652     0.000000     0.000000
    0.000000    14.746402     0.000000
    0.000000     0.000000    14.746402
   W   B
  15  12
Direct
    0.560451     0.691840     0.527893 
    0.562871     0.528232     0.308100 
    0.561257     0.308625     0.471619 
    0.570603     0.473851     0.685505 
    0.545718     0.502578     0.496281 
    0.293889     0.515053     0.376807 
    0.296516     0.376731     0.480588 
    0.286990     0.484629     0.615930 
    0.294663     0.621893     0.513616 
    0.439443     0.583517     0.618183 
    0.437373     0.616508     0.411192 
    0.439391     0.413728     0.383753 
    0.439546     0.387076     0.587424 
    0.742501     0.499478     0.499142 
    0.412381     0.462323     0.737848 
    0.423474     0.707869     0.529129 
    0.423836     0.529702     0.288996 
    0.423358     0.292139     0.471370 
    0.661923     0.586049     0.431181 
    0.661432     0.432241     0.413924 
    0.660342     0.411907     0.564601 
    0.663857     0.574711     0.581971 
    0.581387     0.349409     0.609929 
    0.583913     0.615691     0.647819 
    0.576528     0.640687     0.392405 
    0.578802     0.392329     0.355651 
    0.377560     0.501204     0.499145 
EA27954 16.360 15.372 14.762 90.00 90.00 90.00 Sym.group:    0
1.0
   16.360399     0.000000     0.000000
    0.000000    15.372298     0.000000
    0.000000     0.000000    14.762101
   W   B
  15  14
Direct
    0.525180     0.372469     0.630250 
    0.682157     0.599948     0.425117 
    0.557900     0.705265     0.477950 
    0.541857     0.519393     0.496903 
    0.582046     0.534245     0.680748 
    0.599565     0.452344     0.346660 
    0.572168     0.620366     0.323021 
    0.635134     0.366598     0.510691 
    0.462610     0.388510     0.425896 
    0.340735     0.615732     0.588270 
    0.391088     0.461883     0.589572 
    0.306395     0.384092     0.470192 
    0.440458     0.525821     0.325754 
    0.346953     0.396211     0.311471 
    0.709600     0.516579     0.569651 
    0.517493     0.639417     0.603807 
    0.700450     0.463316     0.434714 
    0.649104     0.417580     0.647331 
    0.568363     0.311432     0.401562 
    0.467140     0.474336     0.708468 
    0.450798     0.573843     0.666432 
    0.421992     0.317855     0.546397 
    0.377813     0.586050     0.444236 
    0.461256     0.644655     0.404192 
    0.294184     0.527025     0.494565 
    0.314777     0.506137     0.385733 
    0.519507     0.285471     0.505666 
    0.624902     0.626988     0.570069 
    0.438375     0.666438     0.514683 
EA28392 14.246 13.626 13.255 90.00 90.00 90.00 Sym.group:    0
1.0
   14.245538     0.000000     0.000000
    0.000000    13.626128     0.000000
    0.000000     0.000000    13.255380
   W   B
  13  13
Direct
    0.580774     0.399584     0.561995 
    0.421774     0.497204     0.614513 
    0.582932     0.606562     0.565868 
    0.417601     0.603172     0.436259 
    0.578229     0.499650     0.378008 
    0.420226     0.397755     0.438234 
    0.409184     0.503215     0.257155 
    0.585031     0.296236     0.378423 
    0.403511     0.290782     0.617387 
    0.587348     0.492923     0.744104 
    0.410729     0.697677     0.628493 
    0.587588     0.703302     0.385584 
    0.720054     0.537373     0.640020 
    0.311413     0.609326     0.563263 
    0.689663     0.604817     0.439778 
    0.312893     0.498803     0.370382 
    0.688517     0.382823     0.438775 
    0.310027     0.390785     0.563576 
    0.497438     0.609515     0.710454 
    0.495715     0.731934     0.505557 
    0.498045     0.621644     0.293812 
    0.499596     0.387394     0.287985 
    0.496106     0.267138     0.495769 
    0.492460     0.376712     0.700134 
    0.296126     0.500222     0.499705 
    0.707023     0.493452     0.484765 
EA28619 16.603 14.933 14.235 90.00 90.00 90.00 Sym.group:    0
1.0
   16.603097     0.000000     0.000000
    0.000000    14.933352     0.000000
    0.000000     0.000000    14.235375
   W   B
  13  15
Direct
    0.592210     0.673705     0.370627 
    0.591506     0.430579     0.672636 
    0.718342     0.493289     0.617688 
    0.630425     0.359564     0.522447 
    0.690916     0.618404     0.508848 
    0.534850     0.511915     0.321670 
    0.386586     0.365800     0.523539 
    0.516262     0.482511     0.510775 
    0.276776     0.478569     0.519168 
    0.403658     0.697844     0.586122 
    0.469572     0.571683     0.665653 
    0.448592     0.628324     0.409757 
    0.545507     0.670145     0.542577 
    0.449460     0.403577     0.391129 
    0.654907     0.547893     0.383021 
    0.631467     0.438717     0.392098 
    0.510089     0.336054     0.587635 
    0.610753     0.572766     0.636134 
    0.505938     0.320549     0.470589 
    0.695980     0.479220     0.470617 
    0.552397     0.373249     0.382895 
    0.339729     0.576691     0.611465 
    0.373041     0.471423     0.625344 
    0.333887     0.543337     0.401435 
    0.406049     0.501651     0.333934 
    0.343175     0.430948     0.397555 
    0.330380     0.607580     0.495340 
    0.457549     0.414012     0.649299 
EA28956 16.573 14.799 14.317 90.00 90.00 90.00 Sym.group:    0
1.0
   16.572770     0.000000     0.000000
    0.000000    14.798879     0.000000
    0.000000     0.000000    14.317043
   W   B
  13  15
Direct
    0.422352     0.673388     0.356740 
    0.402840     0.448418     0.675411 
    0.281013     0.519231     0.616013 
    0.359754     0.369683     0.527645 
    0.317498     0.632830     0.501109 
    0.466135     0.503905     0.322253 
    0.602970     0.358058     0.534091 
    0.479246     0.488430     0.510892 
    0.721609     0.460325     0.524616 
    0.610353     0.696102     0.573036 
    0.535758     0.580901     0.660266 
    0.562349     0.619539     0.401146 
    0.466621     0.676833     0.528492 
    0.543823     0.394095     0.400522 
    0.349264     0.553422     0.379735 
    0.362783     0.440802     0.392336 
    0.476954     0.343065     0.597661 
    0.395808     0.589472     0.629319 
    0.481043     0.319285     0.483183 
    0.304074     0.492259     0.470136 
    0.438983     0.370175     0.391750 
    0.664897     0.570247     0.607708 
    0.624354     0.468481     0.628693 
    0.670306     0.522451     0.401500 
    0.595095     0.483626     0.336608 
    0.651880     0.410716     0.405668 
    0.677533     0.592894     0.490529 
    0.534705     0.421364     0.652947 
EA29248 15.930 15.273 14.789 90.00 90.00 90.00 Sym.group:    0
1.0
   15.930002     0.000000     0.000000
    0.000000    15.273088     0.000000
    0.000000     0.000000    14.788769
   W   B
  15  13
Direct
    0.365834     0.679373     0.596485 
    0.445109     0.432826     0.320395 
    0.295615     0.471894     0.365974 
    0.395284     0.365475     0.471843 
    0.289724     0.602377     0.457038 
    0.649452     0.374913     0.471941 
    0.517002     0.473454     0.492990 
    0.599317     0.710337     0.456958 
    0.539663     0.574036     0.347269 
    0.517662     0.629004     0.606566 
    0.444559     0.664914     0.454729 
    0.516725     0.465161     0.673208 
    0.360185     0.422177     0.634553 
    0.706596     0.618995     0.420098 
    0.593082     0.417108     0.299016 
    0.577489     0.357085     0.597515 
    0.313429     0.548165     0.590481 
    0.525660     0.337201     0.396003 
    0.395921     0.565657     0.361197 
    0.525278     0.313534     0.505679 
    0.300728     0.468249     0.512501 
    0.470311     0.346989     0.597773 
    0.641470     0.498551     0.408068 
    0.626097     0.542118     0.623453 
    0.645042     0.437937     0.606599 
    0.655025     0.619430     0.552782 
    0.684518     0.509239     0.522834 
    0.403223     0.553803     0.656053 
EA29537 16.860 15.329 14.406 90.00 90.00 90.00 Sym.group:    0
1.0
   16.860414     0.000000     0.000000
    0.000000    15.329389     0.000000
    0.000000     0.000000    14.405674
   W   B
  13  15
Direct
    0.660812     0.455124     0.627119 
    0.609485     0.352574     0.487224 
    0.725789     0.571301     0.530574 
    0.562361     0.365992     0.323242 
    0.424356     0.710215     0.455435 
    0.541636     0.626211     0.386887 
    0.636438     0.489328     0.373030 
    0.392120     0.548777     0.401858 
    0.398351     0.612877     0.585580 
    0.423998     0.477381     0.687409 
    0.382602     0.367228     0.575171 
    0.505977     0.475188     0.507168 
    0.534147     0.373305     0.671267 
    0.712235     0.441930     0.488514 
    0.618090     0.648230     0.510017 
    0.549389     0.514688     0.669341 
    0.605976     0.580214     0.600902 
    0.508473     0.501145     0.332313 
    0.670917     0.627852     0.415850 
    0.313281     0.657287     0.468227 
    0.308979     0.454484     0.487652 
    0.294195     0.561079     0.510181 
    0.497087     0.308718     0.545580 
    0.464247     0.340468     0.442030 
    0.314379     0.489470     0.597294 
    0.375703     0.401685     0.429127 
    0.446746     0.418927     0.355163 
    0.522230     0.628317     0.535841 
EA30068 16.287 14.712 14.106 90.00 90.00 90.00 Sym.group:    0
1.0
   16.287060     0.000000     0.000000
    0.000000    14.711977     0.000000
    0.000000     0.000000    14.106224
   W   B
  11  12
Direct
    0.519173     0.332299     0.406850 
    0.476567     0.592408     0.324575 
    0.622505     0.580094     0.377560 
    0.714080     0.448371     0.606365 
    0.648503     0.420134     0.437287 
    0.343118     0.589711     0.575484 
    0.348893     0.541004     0.412283 
    0.367016     0.375394     0.447424 
    0.579699     0.529810     0.649781 
    0.584980     0.360570     0.590462 
    0.495222     0.495754     0.487131 
    0.383647     0.442812     0.592208 
    0.432641     0.649945     0.470488 
    0.443455     0.533505     0.649301 
    0.454360     0.355481     0.557589 
    0.447138     0.446414     0.336935 
    0.533151     0.655133     0.457108 
    0.551207     0.462161     0.327711 
    0.289853     0.463741     0.536500 
    0.692680     0.552049     0.501031 
    0.477799     0.426582     0.651728 
    0.611961     0.619673     0.526681 
    0.482352     0.626956     0.577516 
EA30281 15.592 15.113 14.781 90.00 90.00 90.00 Sym.group:    0
1.0
   15.591589     0.000000     0.000000
    0.000000    15.113415     0.000000
    0.000000     0.000000    14.780622
   W   B
  14  11
Direct
    0.539944     0.499797     0.487604 
    0.606728     0.484047     0.642771 
    0.397934     0.571099     0.427452 
    0.463786     0.615693     0.616162 
    0.479027     0.364544     0.610701 
    0.447049     0.365339     0.433515 
    0.502656     0.471967     0.307973 
    0.576203     0.272055     0.488166 
    0.540834     0.624059     0.341643 
    0.694060     0.406385     0.505391 
    0.667365     0.521966     0.372236 
    0.634677     0.315152     0.627689 
    0.395851     0.724922     0.483959 
    0.311724     0.644376     0.575803 
    0.527348     0.657915     0.490159 
    0.472099     0.488337     0.679505 
    0.601365     0.617112     0.571054 
    0.628894     0.627702     0.458408 
    0.356099     0.405329     0.539993 
    0.385210     0.489796     0.612655 
    0.597989     0.387183     0.395626 
    0.370615     0.447307     0.338948 
    0.304555     0.507785     0.529459 
    0.679338     0.549569     0.523432 
    0.318649     0.440564     0.439696 
EA30635 16.046 15.051 14.685 90.00 90.00 90.00 Sym.group:    0
1.0
   16.045706     0.000000     0.000000
    0.000000    15.051076     0.000000
    0.000000     0.000000    14.685306
   W   B
  14  11
Direct
    0.500027     0.500263     0.500913 
    0.360216     0.418264     0.564571 
    0.433853     0.470610     0.316349 
    0.574594     0.661873     0.431688 
    0.496147     0.590278     0.683487 
    0.302810     0.425677     0.388581 
    0.433200     0.340509     0.427092 
    0.484528     0.298945     0.584383 
    0.628358     0.399570     0.591576 
    0.629475     0.591532     0.578019 
    0.363797     0.604221     0.570794 
    0.484367     0.416690     0.685691 
    0.589277     0.528769     0.327865 
    0.710655     0.576215     0.417814 
    0.497226     0.655607     0.554825 
    0.636378     0.438012     0.437461 
    0.371637     0.564305     0.414136 
    0.597805     0.499778     0.686257 
    0.565031     0.352061     0.473345 
    0.382704     0.511987     0.675842 
    0.292452     0.524136     0.483194 
    0.550559     0.401203     0.372509 
    0.439380     0.649888     0.458632 
    0.466223     0.600289     0.360431 
    0.709301     0.479316     0.514545 
EA30758 16.267 16.539 13.988 90.00 90.00 90.00 Sym.group:    0
1.0
   16.267111     0.000000     0.000000
    0.000000    16.538965     0.000000
    0.000000     0.000000    13.987904
   W   B
  14  14
Direct
    0.553824     0.531230     0.339801 
    0.704665     0.458772     0.369805 
    0.562709     0.382861     0.409067 
    0.752822     0.505678     0.521793 
    0.330776     0.442494     0.423830 
    0.473904     0.500364     0.497804 
    0.551894     0.647218     0.480591 
    0.568654     0.590983     0.655159 
    0.454273     0.368579     0.645947 
    0.416444     0.713178     0.476463 
    0.495107     0.279884     0.517343 
    0.323767     0.602407     0.421659 
    0.688863     0.601297     0.391406 
    0.424013     0.533725     0.669514 
    0.377884     0.342574     0.515401 
    0.662475     0.415410     0.511878 
    0.450473     0.432467     0.343903 
    0.426097     0.347651     0.408199 
    0.450522     0.614863     0.381249 
    0.355910     0.431761     0.577448 
    0.369717     0.616975     0.566936 
    0.328602     0.527187     0.546815 
    0.544761     0.462983     0.662213 
    0.659417     0.585667     0.545470 
    0.410715     0.525931     0.344461 
    0.458150     0.659399     0.609678 
    0.637424     0.480660     0.604227 
    0.566137     0.397804     0.561936 
EA31255 16.646 14.840 14.012 90.00 90.00 90.00 Sym.group:    0
1.0
   16.645759     0.000000     0.000000
    0.000000    14.839753     0.000000
    0.000000     0.000000    14.012277
   W   B
  14  11
Direct
    0.560871     0.419711     0.696672 
    0.702165     0.431056     0.362560 
    0.294623     0.490598     0.471764 
    0.468848     0.341777     0.574971 
    0.448187     0.437710     0.387978 
    0.618733     0.396091     0.514137 
    0.516512     0.524279     0.537880 
    0.509224     0.603167     0.694985 
    0.363526     0.576935     0.621307 
    0.581525     0.530924     0.355738 
    0.494459     0.708280     0.560381 
    0.688041     0.549856     0.487887 
    0.659838     0.525796     0.660109 
    0.386523     0.628359     0.460367 
    0.423153     0.300573     0.440493 
    0.521116     0.315779     0.430348 
    0.357283     0.368167     0.490686 
    0.578596     0.382983     0.360388 
    0.364494     0.432767     0.590030 
    0.438521     0.467902     0.667457 
    0.609653     0.642615     0.586148 
    0.360349     0.534786     0.343029 
    0.594133     0.651109     0.465380 
    0.507133     0.654628     0.406755 
    0.452497     0.584153     0.332549 
EA31387 15.445 16.169 14.525 90.00 90.00 90.00 Sym.group:    0
1.0
   15.444767     0.000000     0.000000
    0.000000    16.169025     0.000000
    0.000000     0.000000    14.525258
   W   B
  14  14
Direct
    0.435721     0.463653     0.359761 
    0.269382     0.540644     0.392372 
    0.408469     0.616230     0.407283 
    0.695785     0.569468     0.431912 
    0.538274     0.520283     0.495855 
    0.458688     0.344926     0.487043 
    0.441420     0.399730     0.648696 
    0.541283     0.628196     0.646055 
    0.604966     0.289850     0.476594 
    0.307870     0.383918     0.404528 
    0.615230     0.493834     0.318210 
    0.588348     0.474596     0.662466 
    0.287705     0.600931     0.543501 
    0.585567     0.664244     0.378746 
    0.618294     0.657014     0.524116 
    0.560153     0.382796     0.381143 
    0.657503     0.577425     0.586125 
    0.646961     0.391243     0.558652 
    0.684111     0.483227     0.549699 
    0.438716     0.533665     0.643892 
    0.336457     0.394746     0.552404 
    0.561129     0.339383     0.606713 
    0.339561     0.490781     0.608704 
    0.426876     0.613455     0.556415 
    0.276187     0.473466     0.516318 
    0.655713     0.425103     0.444247 
    0.509734     0.670515     0.505795 
    0.509896     0.576677     0.312756 
EA31668 15.834 15.417 14.477 90.00 90.00 90.00 Sym.group:    0
1.0
   15.834120     0.000000     0.000000
    0.000000    15.417032     0.000000
    0.000000     0.000000    14.477026
   W   B
  14  14
Direct
    0.505434     0.393284     0.338203 
    0.645829     0.480103     0.632210 
    0.539114     0.479993     0.489234 
    0.685823     0.558387     0.464319 
    0.522135     0.611813     0.611542 
    0.550213     0.638070     0.409685 
    0.494638     0.299797     0.477192 
    0.393567     0.524812     0.394027 
    0.355342     0.569849     0.564586 
    0.493145     0.369961     0.635917 
    0.409026     0.698347     0.486004 
    0.262039     0.655164     0.431196 
    0.224678     0.525380     0.460969 
    0.356918     0.361096     0.389106 
    0.612021     0.352813     0.553926 
    0.533799     0.494431     0.701635 
    0.680930     0.419473     0.497744 
    0.655582     0.435457     0.386765 
    0.668525     0.611566     0.602558 
    0.535321     0.727984     0.521772 
    0.629505     0.679826     0.526674 
    0.506746     0.533771     0.316750 
    0.606969     0.519379     0.340172 
    0.379191     0.345608     0.543373 
    0.326200     0.437014     0.509490 
    0.438076     0.499926     0.663442 
    0.372240     0.430848     0.615780 
    0.616994     0.345850     0.435729 
EA32166 15.347 15.268 14.605 90.00 90.00 90.00 Sym.group:    0
1.0
   15.347372     0.000000     0.000000
    0.000000    15.268268     0.000000
    0.000000     0.000000    14.605244
   W   B
  14  11
Direct
    0.502900     0.505029     0.486113 
    0.576074     0.656755     0.409882 
    0.328481     0.397100     0.476328 
    0.348319     0.426981     0.668065 
    0.696574     0.549958     0.473290 
    0.410007     0.640845     0.385573 
    0.482432     0.691054     0.541592 
    0.671101     0.412248     0.566844 
    0.406440     0.576875     0.656155 
    0.395051     0.476885     0.327697 
    0.637129     0.395494     0.405810 
    0.522555     0.458337     0.661363 
    0.468705     0.348383     0.400728 
    0.440284     0.326330     0.580212 
    0.616043     0.638300     0.554624 
    0.612465     0.527707     0.353353 
    0.313747     0.517204     0.559643 
    0.574652     0.326501     0.623069 
    0.572929     0.313759     0.509413 
    0.331340     0.536956     0.445989 
    0.535751     0.453361     0.320197 
    0.635584     0.543259     0.611086 
    0.362967     0.613769     0.523529 
    0.509570     0.561592     0.317732 
    0.548902     0.605321     0.641708 
EA32264 14.348 16.555 14.607 90.00 90.00 90.00 Sym.group:    0
1.0
   14.347524     0.000000     0.000000
    0.000000    16.555131     0.000000
    0.000000     0.000000    14.606813
   W   B
  15  15
Direct
    0.402594     0.338453     0.641799 
    0.412847     0.627859     0.597516 
    0.310379     0.554609     0.350751 
    0.265749     0.602097     0.514756 
    0.403340     0.482210     0.527867 
    0.488490     0.545585     0.359910 
    0.289279     0.354749     0.531100 
    0.363885     0.416526     0.367065 
    0.630504     0.656951     0.409449 
    0.741750     0.437338     0.434449 
    0.586928     0.511024     0.507992 
    0.658105     0.362447     0.549328 
    0.637544     0.463829     0.681461 
    0.765683     0.512289     0.584246 
    0.486349     0.341539     0.481460 
    0.512487     0.399140     0.349162 
    0.392476     0.625824     0.442613 
    0.501610     0.643913     0.475745 
    0.238535     0.479909     0.567698 
    0.302456     0.434459     0.651755 
    0.252782     0.474744     0.452852 
    0.310085     0.537218     0.640231 
    0.731664     0.571461     0.444219 
    0.655073     0.540273     0.358732 
    0.578620     0.648101     0.560344 
    0.694907     0.624007     0.538349 
    0.611768     0.449709     0.342663 
    0.520508     0.416474     0.603204 
    0.639100     0.582730     0.631837 
    0.614501     0.364536     0.401444 
EA32593 16.870 15.599 14.908 90.00 90.00 90.00 Sym.group:    0
1.0
   16.870079     0.000000     0.000000
    0.000000    15.599352     0.000000
    0.000000     0.000000    14.908150
   W   B
  15  13
Direct
    0.624509     0.562005     0.611445 
    0.346028     0.621666     0.538055 
    0.496019     0.653950     0.590332 
    0.336127     0.507982     0.400636 
    0.475002     0.589311     0.333662 
    0.484812     0.525591     0.492810 
    0.628168     0.552921     0.414624 
    0.543615     0.269470     0.429470 
    0.570695     0.395008     0.550498 
    0.551046     0.408603     0.353722 
    0.713021     0.462291     0.522032 
    0.302831     0.378162     0.540377 
    0.419300     0.375086     0.441719 
    0.617045     0.438790     0.701508 
    0.429275     0.402871     0.627841 
    0.709766     0.604161     0.509841 
    0.447348     0.678992     0.451779 
    0.544729     0.666334     0.447202 
    0.369951     0.640363     0.397435 
    0.415806     0.547265     0.640633 
    0.271375     0.506361     0.525974 
    0.628044     0.667407     0.509972 
    0.648910     0.345752     0.439356 
    0.472867     0.291529     0.546233 
    0.679176     0.431145     0.382875 
    0.433343     0.459863     0.316150 
    0.509445     0.517470     0.672014 
    0.331747     0.499655     0.611806 
EA32894 16.691 15.628 14.985 90.00 90.00 90.00 Sym.group:    0
1.0
   16.690598     0.000000     0.000000
    0.000000    15.628267     0.000000
    0.000000     0.000000    14.984979
   W   B
  15  13
Direct
    0.383400     0.561481     0.616927 
    0.670730     0.589986     0.514448 
    0.529189     0.662643     0.586464 
    0.496154     0.606500     0.324842 
    0.516097     0.530246     0.496029 
    0.382503     0.577074     0.416192 
    0.439246     0.278100     0.413778 
    0.409360     0.406334     0.541078 
    0.443393     0.425825     0.350641 
    0.271838     0.495894     0.529259 
    0.672019     0.327540     0.557583 
    0.571880     0.373128     0.448889 
    0.429575     0.436608     0.706597 
    0.556051     0.408724     0.637694 
    0.507795     0.274806     0.568374 
    0.306293     0.625331     0.521864 
    0.571494     0.665105     0.441588 
    0.472738     0.684787     0.450598 
    0.613807     0.587959     0.378612 
    0.600556     0.546316     0.626405 
    0.706883     0.447780     0.493457 
    0.398070     0.674531     0.529873 
    0.337946     0.355145     0.419684 
    0.322837     0.456361     0.404266 
    0.564098     0.489786     0.348449 
    0.508266     0.544709     0.670018 
    0.666054     0.470712     0.591898 
    0.651724     0.496584     0.414493 
EA33198 16.761 15.855 14.177 90.00 90.00 90.00 Sym.group:    0
1.0
   16.761181     0.000000     0.000000
    0.000000    15.855028     0.000000
    0.000000     0.000000    14.177100
   W   B
  15  14
Direct
    0.702358     0.414171     0.502878 
    0.573195     0.512524     0.480712 
    0.674541     0.560194     0.606972 
    0.459600     0.610278     0.423956 
    0.336188     0.511595     0.351846 
    0.565933     0.346640     0.567859 
    0.532305     0.475668     0.669522 
    0.365415     0.662008     0.565754 
    0.378386     0.496765     0.612132 
    0.438267     0.354278     0.669884 
    0.491731     0.448043     0.332415 
    0.656610     0.484569     0.338442 
    0.319442     0.661336     0.403745 
    0.373494     0.357935     0.393856 
    0.553512     0.584149     0.287564 
    0.718026     0.542328     0.458754 
    0.666835     0.627288     0.468697 
    0.560460     0.610474     0.632175 
    0.656009     0.429372     0.639099 
    0.493853     0.675017     0.565971 
    0.502767     0.335507     0.431815 
    0.360999     0.370271     0.545108 
    0.314518     0.451306     0.484901 
    0.462939     0.596915     0.645133 
    0.592579     0.379115     0.412004 
    0.297612     0.557604     0.496037 
    0.423812     0.477007     0.464153 
    0.586965     0.657554     0.526722 
    0.441651     0.310091     0.521896 
EA33521 16.589 15.571 14.763 90.00 90.00 90.00 Sym.group:    0
1.0
   16.589006     0.000000     0.000000
    0.000000    15.571017     0.000000
    0.000000     0.000000    14.763256
   W   B
  15  13
Direct
    0.614608     0.523577     0.640230 
    0.349307     0.621260     0.513973 
    0.492785     0.651888     0.606894 
    0.539202     0.622456     0.339583 
    0.492185     0.533638     0.497177 
    0.639510     0.557741     0.437974 
    0.516232     0.286166     0.377432 
    0.564118     0.388676     0.533371 
    0.556441     0.440537     0.339948 
    0.717682     0.441068     0.551145 
    0.301872     0.358144     0.526448 
    0.410808     0.400047     0.415544 
    0.544005     0.399408     0.705845 
    0.415635     0.410880     0.625144 
    0.440477     0.277826     0.527993 
    0.712358     0.576110     0.558835 
    0.466070     0.684154     0.460486 
    0.566135     0.675198     0.478942 
    0.415397     0.623927     0.383633 
    0.396450     0.552244     0.629750 
    0.302471     0.485246     0.469738 
    0.630016     0.643590     0.563270 
    0.630808     0.334492     0.405061 
    0.675961     0.426745     0.413509 
    0.446799     0.522241     0.337175 
    0.484811     0.526063     0.682193 
    0.317211     0.500293     0.580949 
    0.360644     0.536387     0.397755 
EA33808 17.061 15.057 14.720 90.00 90.00 90.00 Sym.group:    0
1.0
   17.060712     0.000000     0.000000
    0.000000    15.057014     0.000000
    0.000000     0.000000    14.719627
   W   B
  15  13
Direct
    0.331782     0.340529     0.496467 
    0.420942     0.353428     0.628516 
    0.465196     0.465322     0.500062 
    0.420397     0.638287     0.636553 
    0.320670     0.495897     0.561216 
    0.407106     0.626807     0.451593 
    0.257124     0.601485     0.449383 
    0.472658     0.499466     0.319352 
    0.334942     0.470525     0.383621 
    0.554314     0.355158     0.398538 
    0.704045     0.462341     0.400734 
    0.644855     0.386846     0.528300 
    0.582161     0.563388     0.433791 
    0.554042     0.546642     0.624708 
    0.536914     0.702433     0.556559 
    0.453129     0.306629     0.483702 
    0.423307     0.360492     0.386462 
    0.427897     0.495667     0.652511 
    0.314303     0.647285     0.560627 
    0.516930     0.697437     0.418848 
    0.494151     0.632901     0.336383 
    0.599026     0.462341     0.319362 
    0.555404     0.391756     0.641287 
    0.530410     0.326143     0.551019 
    0.639642     0.447811     0.658626 
    0.710540     0.578136     0.482576 
    0.650082     0.624146     0.554745 
    0.678032     0.520703     0.584457 
EA34110 16.509 16.124 14.361 90.00 90.00 90.00 Sym.group:    0
1.0
   16.509088     0.000000     0.000000
    0.000000    16.123685     0.000000
    0.000000     0.000000    14.361161
   W   B
  15  15
Direct
    0.364261     0.490855     0.600453 
    0.492332     0.386068     0.588664 
    0.412402     0.432940     0.438816 
    0.335379     0.337422     0.594210 
    0.548558     0.368474     0.385388 
    0.371363     0.581741     0.377118 
    0.258929     0.396038     0.471941 
    0.387021     0.712631     0.465520 
    0.512474     0.643595     0.411963 
    0.567793     0.509301     0.491405 
    0.696298     0.472354     0.404734 
    0.641701     0.359221     0.523931 
    0.512893     0.578094     0.644328 
    0.602706     0.678997     0.544157 
    0.605579     0.456933     0.678947 
    0.347230     0.304683     0.445359 
    0.536562     0.277866     0.501429 
    0.288055     0.522400     0.467397 
    0.441930     0.295318     0.476269 
    0.322540     0.610721     0.516217 
    0.508874     0.509854     0.342289 
    0.604752     0.560323     0.337531 
    0.601025     0.463188     0.301557 
    0.396033     0.632150     0.597309 
    0.656001     0.616595     0.415151 
    0.473050     0.700976     0.577350 
    0.695280     0.483271     0.565245 
    0.653467     0.573291     0.618059 
    0.697871     0.578561     0.511134 
    0.467642     0.466141     0.706132 
EA34402 17.066 16.570 14.843 90.00 90.00 90.00 Sym.group:    0
1.0
   17.066340     0.000000     0.000000
    0.000000    16.569939     0.000000
    0.000000     0.000000    14.842987
   W   B
  15  15
Direct
    0.379174     0.562251     0.587434 
    0.442492     0.404771     0.584141 
    0.400964     0.481591     0.437129 
    0.291042     0.435980     0.591541 
    0.488761     0.356738     0.395990 
    0.433525     0.622523     0.368034 
    0.245355     0.519600     0.480263 
    0.498143     0.735625     0.448030 
    0.584206     0.621226     0.405027 
    0.559451     0.482689     0.498952 
    0.658892     0.384567     0.426188 
    0.558077     0.313304     0.533062 
    0.538523     0.572044     0.643493 
    0.666040     0.605043     0.544664 
    0.558897     0.423283     0.682861 
    0.287729     0.406461     0.444412 
    0.433563     0.287381     0.503933 
    0.332423     0.605597     0.452313 
    0.360907     0.347369     0.472314 
    0.396021     0.675929     0.496459 
    0.516406     0.502422     0.348517 
    0.621042     0.500450     0.349231 
    0.576132     0.416112     0.322172 
    0.467815     0.663379     0.573825 
    0.685497     0.525375     0.428340 
    0.563657     0.681333     0.552801 
    0.652326     0.400564     0.579043 
    0.655236     0.496870     0.627938 
    0.700884     0.477515     0.525936 
    0.446820     0.492010     0.695954 
EA34929 16.037 14.721 14.357 90.00 90.00 90.00 Sym.group:    0
1.0
   16.036666     0.000000     0.000000
    0.000000    14.721147     0.000000
    0.000000     0.000000    14.357213
   W   B
  12  12
Direct
    0.501811     0.676441     0.536265 
    0.652035     0.504833     0.424918 
    0.590733     0.432596     0.604813 
    0.450613     0.334009     0.535987 
    0.275802     0.536003     0.578429 
    0.405492     0.512478     0.328500 
    0.291220     0.379078     0.556550 
    0.378980     0.362651     0.389067 
    0.353417     0.625852     0.457594 
    0.480403     0.502024     0.486494 
    0.546696     0.382710     0.376444 
    0.406488     0.446921     0.656537 
    0.476107     0.636087     0.391262 
    0.403378     0.588554     0.598730 
    0.577355     0.305419     0.505395 
    0.539632     0.543427     0.342997 
    0.576069     0.626548     0.418480 
    0.660086     0.364470     0.481738 
    0.499275     0.557204     0.640089 
    0.594750     0.587307     0.615888 
    0.633448     0.629958     0.514456 
    0.711753     0.440078     0.542574 
    0.682313     0.542367     0.572011 
    0.312145     0.482985     0.444782 
EA35008 16.998 16.666 14.778 90.00 90.00 90.00 Sym.group:    0
1.0
   16.997535     0.000000     0.000000
    0.000000    16.665874     0.000000
    0.000000     0.000000    14.777879
   W   B
  15  15
Direct
    0.603872     0.563675     0.575163 
    0.564210     0.397318     0.574288 
    0.611156     0.471765     0.422179 
    0.711248     0.436146     0.587849 
    0.510117     0.352102     0.395877 
    0.529803     0.606136     0.375069 
    0.748466     0.545703     0.495440 
    0.448987     0.497848     0.496286 
    0.345349     0.400913     0.434505 
    0.430710     0.320785     0.541336 
    0.465643     0.572657     0.660143 
    0.441472     0.414790     0.680555 
    0.604097     0.704990     0.480855 
    0.393550     0.545880     0.314323 
    0.655750     0.322485     0.460396 
    0.734013     0.427854     0.443684 
    0.549047     0.274237     0.509551 
    0.652473     0.599344     0.428935 
    0.503007     0.478863     0.339426 
    0.423091     0.422301     0.319404 
    0.517072     0.666299     0.576628 
    0.326321     0.541132     0.431998 
    0.420350     0.647997     0.545082 
    0.340785     0.411012     0.584263 
    0.353688     0.500223     0.638089 
    0.310423     0.496575     0.531473 
    0.555902     0.483499     0.685827 
    0.354746     0.580915     0.570482 
    0.413957     0.621742     0.432003 
    0.480696     0.694815     0.468890 
EA35320 16.147 15.707 15.379 90.00 90.00 90.00 Sym.group:    0
1.0
   16.147036     0.000000     0.000000
    0.000000    15.706596     0.000000
    0.000000     0.000000    15.378881
   W   B
  15  15
Direct
    0.644653     0.569294     0.358406 
    0.590553     0.526821     0.515179 
    0.516333     0.491333     0.663034 
    0.554543     0.354547     0.582397 
    0.683712     0.438888     0.600457 
    0.559430     0.421885     0.386416 
    0.419918     0.339658     0.458010 
    0.310055     0.338226     0.577660 
    0.437791     0.500273     0.485549 
    0.311874     0.471336     0.371778 
    0.396903     0.641598     0.402613 
    0.346189     0.503405     0.623620 
    0.487466     0.555604     0.309167 
    0.488360     0.693276     0.521383 
    0.647613     0.667148     0.483776 
    0.691158     0.444318     0.441287 
    0.639654     0.568027     0.652622 
    0.733150     0.532709     0.482303 
    0.716025     0.576958     0.578562 
    0.644988     0.352460     0.475441 
    0.554639     0.301006     0.452915 
    0.281205     0.455094     0.506599 
    0.446117     0.605079     0.622048 
    0.367690     0.620432     0.548595 
    0.425903     0.396776     0.599634 
    0.278363     0.365413     0.448118 
    0.306251     0.558924     0.484200 
    0.549926     0.623585     0.627991 
    0.538587     0.653957     0.394069 
    0.430954     0.431973     0.346174 
EA35610 17.032 15.534 14.684 90.00 90.00 90.00 Sym.group:    0
1.0
   17.031529     0.000000     0.000000
    0.000000    15.534004     0.000000
    0.000000     0.000000    14.683601
   W   B
  15  15
Direct
    0.359993     0.483748     0.337353 
    0.413832     0.490529     0.506882 
    0.478587     0.505717     0.676335 
    0.487407     0.645468     0.583501 
    0.340393     0.600249     0.589924 
    0.472988     0.602767     0.382030 
    0.619265     0.639804     0.465645 
    0.704284     0.598408     0.603542 
    0.564743     0.497034     0.496290 
    0.682576     0.479793     0.378637 
    0.562038     0.344443     0.394057 
    0.631423     0.444793     0.641232 
    0.515346     0.460527     0.301504 
    0.449495     0.312827     0.507571 
    0.321128     0.374922     0.441594 
    0.343075     0.606358     0.431624 
    0.348894     0.466580     0.648574 
    0.284281     0.528258     0.467391 
    0.286288     0.466619     0.559837 
    0.401588     0.683900     0.477834 
    0.497969     0.715227     0.461030 
    0.712988     0.475494     0.525896 
    0.512795     0.378690     0.626097 
    0.578068     0.347526     0.544368 
    0.588400     0.577642     0.647789 
    0.739215     0.564966     0.469792 
    0.660002     0.388875     0.493700 
    0.415425     0.388337     0.628525 
    0.434611     0.365087     0.367646 
    0.592903     0.565411     0.343797 
EA35926 17.025 15.495 14.824 90.00 90.00 90.00 Sym.group:    0
1.0
   17.025447     0.000000     0.000000
    0.000000    15.495386     0.000000
    0.000000     0.000000    14.824118
   W   B
  15  15
Direct
    0.361430     0.490801     0.340114 
    0.420090     0.490507     0.505648 
    0.475190     0.503782     0.678868 
    0.509874     0.640268     0.576829 
    0.354645     0.604698     0.588488 
    0.479207     0.607227     0.375849 
    0.623340     0.642799     0.440109 
    0.682847     0.590048     0.598065 
    0.569340     0.499515     0.494958 
    0.676007     0.467174     0.375465 
    0.555958     0.340781     0.400304 
    0.624747     0.444586     0.642008 
    0.512865     0.456359     0.306573 
    0.438735     0.311195     0.511546 
    0.316557     0.381697     0.443269 
    0.354948     0.616087     0.432731 
    0.347382     0.471327     0.644490 
    0.292649     0.541348     0.465610 
    0.288413     0.478934     0.555203 
    0.418331     0.686968     0.482640 
    0.512921     0.716954     0.455716 
    0.709068     0.466043     0.523718 
    0.506227     0.374744     0.629869 
    0.569336     0.346230     0.547507 
    0.581072     0.577139     0.683459 
    0.729197     0.556158     0.467997 
    0.654671     0.379139     0.500942 
    0.410763     0.388461     0.631614 
    0.429081     0.367975     0.373616 
    0.595105     0.561055     0.326798 
EA36404 15.679 15.280 15.679 90.00 90.00 90.00 Sym.group:    0
1.0
   15.679430     0.000000     0.000000
    0.000000    15.279796     0.000000
    0.000000     0.000000    15.679430
   W   B
  14  11
Direct
    0.499672     0.503093     0.495862 
    0.494578     0.679820     0.348357 
    0.595649     0.633510     0.594052 
    0.617160     0.397277     0.580652 
    0.490813     0.369218     0.387633 
    0.343518     0.642692     0.383942 
    0.350118     0.477156     0.385007 
    0.473831     0.526037     0.306578 
    0.348982     0.572512     0.530067 
    0.538037     0.509989     0.681754 
    0.668749     0.525646     0.485454 
    0.456864     0.319118     0.545480 
    0.455270     0.694746     0.499177 
    0.697843     0.525721     0.647073 
    0.501860     0.376497     0.657013 
    0.411454     0.437659     0.616746 
    0.592336     0.465694     0.369277 
    0.575485     0.303916     0.478901 
    0.408411     0.540113     0.653619 
    0.364967     0.345375     0.441634 
    0.627628     0.390198     0.437921 
    0.584015     0.644355     0.456379 
    0.585905     0.573925     0.375528 
    0.459300     0.626846     0.622473 
    0.357556     0.418886     0.519421 
EA36713 15.614 15.294 14.344 90.00 90.00 90.00 Sym.group:    0
1.0
   15.613680     0.000000     0.000000
    0.000000    15.293673     0.000000
    0.000000     0.000000    14.343784
   W   B
  14  11
Direct
    0.503451     0.497592     0.493391 
    0.709763     0.566279     0.414640 
    0.475935     0.687083     0.479283 
    0.333392     0.502400     0.442092 
    0.503377     0.333347     0.432292 
    0.728944     0.501660     0.570842 
    0.630411     0.372062     0.560569 
    0.656169     0.414414     0.401925 
    0.584055     0.516223     0.653954 
    0.371929     0.610078     0.582858 
    0.450123     0.574998     0.339677 
    0.382120     0.361829     0.559014 
    0.629274     0.639397     0.544522 
    0.330374     0.666309     0.418461 
    0.322310     0.479761     0.592040 
    0.424404     0.476537     0.650639 
    0.527151     0.441488     0.331839 
    0.365991     0.361750     0.413138 
    0.461550     0.574528     0.690559 
    0.509077     0.299684     0.577904 
    0.421435     0.428622     0.344955 
    0.577407     0.623475     0.399838 
    0.589471     0.528825     0.343848 
    0.510520     0.648169     0.626870 
    0.501366     0.393491     0.634849 
EA36926 16.485 16.016 14.494 90.00 90.00 90.00 Sym.group:    0
1.0
   16.484790     0.000000     0.000000
    0.000000    16.015648     0.000000
    0.000000     0.000000    14.493760
   W   B
  15  12
Direct
    0.599121     0.448405     0.543303 
    0.474930     0.471799     0.668964 
    0.676534     0.538892     0.659858 
    0.432994     0.353305     0.545585 
    0.587817     0.659759     0.450378 
    0.465595     0.524479     0.488935 
    0.296349     0.441387     0.520657 
    0.553814     0.617155     0.613144 
    0.440882     0.687514     0.490601 
    0.311575     0.597194     0.511477 
    0.687591     0.426640     0.405847 
    0.714886     0.638232     0.553129 
    0.582104     0.523739     0.349265 
    0.432348     0.498915     0.301184 
    0.522478     0.377329     0.391852 
    0.560450     0.313472     0.522753 
    0.492312     0.266038     0.452588 
    0.542035     0.356920     0.628156 
    0.355850     0.418528     0.648890 
    0.728551     0.506715     0.519971 
    0.351437     0.519818     0.627859 
    0.481239     0.618693     0.360936 
    0.381226     0.605637     0.383539 
    0.334227     0.511598     0.398790 
    0.389577     0.416183     0.412710 
    0.686519     0.562669     0.431379 
    0.417555     0.598982     0.618251 
EA37228 16.566 15.804 14.391 90.00 90.00 90.00 Sym.group:    0
1.0
   16.566066     0.000000     0.000000
    0.000000    15.803901     0.000000
    0.000000     0.000000    14.390743
   W   B
  14  13
Direct
    0.415939     0.585598     0.526430 
    0.538686     0.554131     0.662737 
    0.601331     0.632307     0.517847 
    0.376032     0.359383     0.478543 
    0.527011     0.466213     0.495423 
    0.710584     0.509129     0.511624 
    0.419272     0.424683     0.628958 
    0.514884     0.304636     0.535120 
    0.660794     0.362792     0.538732 
    0.323970     0.599364     0.395260 
    0.268244     0.422190     0.583481 
    0.410273     0.473014     0.357023 
    0.555871     0.449567     0.304425 
    0.509270     0.604934     0.366617 
    0.488790     0.700846     0.485338 
    0.560438     0.717217     0.404408 
    0.498511     0.671851     0.597211 
    0.664414     0.568907     0.635400 
    0.280411     0.550150     0.522689 
    0.641146     0.467076     0.635634 
    0.486786     0.355681     0.390136 
    0.586456     0.349874     0.412470 
    0.653892     0.430010     0.404859 
    0.624295     0.537743     0.399060 
    0.294500     0.468204     0.444564 
    0.556860     0.406408     0.640977 
    0.331338     0.528100     0.625031 
EA37477 16.438 15.510 14.747 90.00 90.00 90.00 Sym.group:    0
1.0
   16.437524     0.000000     0.000000
    0.000000    15.510067     0.000000
    0.000000     0.000000    14.747115
   W   B
  15  15
Direct
    0.623488     0.380517     0.353645 
    0.589261     0.308328     0.505328 
    0.658213     0.696868     0.466642 
    0.705998     0.559560     0.408378 
    0.567378     0.623858     0.595381 
    0.538122     0.623004     0.411249 
    0.579953     0.477876     0.488340 
    0.416814     0.500434     0.513332 
    0.268020     0.596287     0.522587 
    0.477380     0.355708     0.407031 
    0.380725     0.655749     0.437134 
    0.524586     0.468570     0.655349 
    0.397740     0.623816     0.624356 
    0.284900     0.465909     0.620256 
    0.348816     0.347058     0.513330 
    0.603713     0.518809     0.332449 
    0.693292     0.591353     0.553106 
    0.717980     0.487316     0.535950 
    0.653537     0.515684     0.623414 
    0.660842     0.410582     0.591199 
    0.698734     0.399251     0.476374 
    0.279077     0.460526     0.469629 
    0.507724     0.488377     0.343444 
    0.348209     0.429182     0.391106 
    0.314766     0.535137     0.392836 
    0.410207     0.521491     0.352885 
    0.471980     0.698859     0.528406 
    0.397457     0.497119     0.685302 
    0.403370     0.398738     0.636731 
    0.477720     0.364034     0.564831 
EA37788 16.645 15.071 14.088 90.00 90.00 90.00 Sym.group:    0
1.0
   16.644687     0.000000     0.000000
    0.000000    15.071286     0.000000
    0.000000     0.000000    14.087772
   W   B
  14  15
Direct
    0.507262     0.607431     0.383715 
    0.629992     0.336802     0.447806 
    0.472443     0.324292     0.488269 
    0.359025     0.384972     0.372400 
    0.420251     0.493465     0.485865 
    0.328901     0.335978     0.540338 
    0.603451     0.493037     0.675533 
    0.573023     0.475584     0.507677 
    0.660090     0.594282     0.417121 
    0.705133     0.373630     0.582489 
    0.442687     0.665151     0.545700 
    0.578705     0.714202     0.493847 
    0.573482     0.330912     0.641787 
    0.440267     0.418268     0.645987 
    0.675758     0.456469     0.360860 
    0.583836     0.482075     0.335929 
    0.279297     0.461079     0.483410 
    0.372177     0.617965     0.418106 
    0.317928     0.576680     0.517678 
    0.317299     0.474673     0.598762 
    0.309285     0.531919     0.397258 
    0.478135     0.562137     0.649033 
    0.376513     0.557615     0.626229 
    0.645542     0.614396     0.576085 
    0.700371     0.521713     0.559819 
    0.721502     0.457630     0.462939 
    0.553778     0.635321     0.622533 
    0.394435     0.536622     0.331704 
    0.479428     0.465700     0.331121 
EA38080 16.551 15.166 14.026 90.00 90.00 90.00 Sym.group:    0
1.0
   16.550636     0.000000     0.000000
    0.000000    15.165825     0.000000
    0.000000     0.000000    14.025873
   W   B
  14  15
Direct
    0.503499     0.615375     0.386464 
    0.358132     0.331086     0.435434 
    0.520861     0.326688     0.478263 
    0.646424     0.391910     0.379389 
    0.573934     0.492916     0.491313 
    0.656360     0.327815     0.546485 
    0.389403     0.491520     0.665806 
    0.420586     0.470649     0.491687 
    0.348939     0.595395     0.406712 
    0.284340     0.381441     0.570179 
    0.562378     0.663138     0.559696 
    0.430982     0.717725     0.500752 
    0.413419     0.328730     0.632382 
    0.543791     0.412726     0.647774 
    0.346210     0.457273     0.347494 
    0.432080     0.505804     0.317222 
    0.716184     0.452351     0.502419 
    0.637323     0.617269     0.434854 
    0.681331     0.566774     0.538995 
    0.672286     0.461793     0.611743 
    0.697893     0.527175     0.417381 
    0.514116     0.558889     0.656894 
    0.615216     0.548956     0.639691 
    0.359149     0.610460     0.564374 
    0.295194     0.526369     0.542368 
    0.283461     0.465046     0.439478 
    0.444465     0.635325     0.626157 
    0.619420     0.541321     0.343256 
    0.532625     0.478080     0.325334 
EA38406 16.160 16.110 15.966 90.00 90.00 90.00 Sym.group:    0
1.0
   16.160234     0.000000     0.000000
    0.000000    16.110411     0.000000
    0.000000     0.000000    15.965874
   W   B
  15  13
Direct
    0.519157     0.423042     0.339881 
    0.629158     0.525302     0.368195 
    0.567989     0.660474     0.417540 
    0.395474     0.631030     0.411805 
    0.370420     0.482796     0.395413 
    0.377378     0.547611     0.624713 
    0.539871     0.583175     0.665152 
    0.615002     0.445701     0.648936 
    0.517405     0.335772     0.616408 
    0.374736     0.391303     0.609469 
    0.432917     0.341986     0.466835 
    0.617568     0.383129     0.481928 
    0.643838     0.572059     0.531809 
    0.472899     0.657099     0.549909 
    0.494898     0.493246     0.505008 
    0.658993     0.705566     0.510106 
    0.342096     0.658286     0.541839 
    0.298372     0.472123     0.524897 
    0.542672     0.302835     0.399005 
    0.712934     0.478808     0.459077 
    0.708873     0.453673     0.556843 
    0.541374     0.270961     0.496700 
    0.306487     0.379470     0.486542 
    0.302662     0.573447     0.508046 
    0.600589     0.692952     0.589728 
    0.476276     0.459808     0.669095 
    0.497089     0.566891     0.347198 
    0.442875     0.511452     0.277924 
EA38970 15.134 14.706 14.305 90.00 90.00 90.00 Sym.group:    0
1.0
   15.133914     0.000000     0.000000
    0.000000    14.706113     0.000000
    0.000000     0.000000    14.304899
   W   B
  11  12
Direct
    0.522718     0.504006     0.503549 
    0.574630     0.303605     0.434838 
    0.406418     0.668809     0.519187 
    0.386116     0.418394     0.618425 
    0.655420     0.590408     0.397952 
    0.683979     0.484646     0.530801 
    0.554760     0.425267     0.682867 
    0.484249     0.395367     0.333072 
    0.396417     0.348581     0.461661 
    0.450613     0.559636     0.664844 
    0.444379     0.600994     0.365792 
    0.324113     0.570201     0.450316 
    0.634616     0.621371     0.544884 
    0.606308     0.362515     0.564655 
    0.308743     0.461596     0.494204 
    0.534814     0.650167     0.586204 
    0.562119     0.513898     0.330904 
    0.365748     0.478253     0.387626 
    0.600086     0.560565     0.637577 
    0.325451     0.551772     0.569472 
    0.626208     0.431477     0.384403 
    0.551428     0.663343     0.469187 
    0.500670     0.335126     0.567579 
EA39268 14.835 14.697 14.445 90.00 90.00 90.00 Sym.group:    0
1.0
   14.835500     0.000000     0.000000
    0.000000    14.697109     0.000000
    0.000000     0.000000    14.445383
   W   B
  11  12
Direct
    0.514242     0.497945     0.510151 
    0.610627     0.669564     0.490091 
    0.385744     0.350115     0.479036 
    0.386143     0.576799     0.639298 
    0.635088     0.415446     0.371432 
    0.677501     0.493640     0.525391 
    0.545355     0.516179     0.701697 
    0.505840     0.627817     0.364382 
    0.414996     0.670733     0.503830 
    0.433384     0.407459     0.645180 
    0.451878     0.448762     0.352767 
    0.322834     0.472464     0.433771 
    0.618011     0.357840     0.510475 
    0.623391     0.601120     0.617207 
    0.311692     0.568737     0.502590 
    0.513253     0.327262     0.551695 
    0.579167     0.521562     0.298600 
    0.369317     0.572723     0.397967 
    0.588152     0.396359     0.616757 
    0.323263     0.464398     0.553460 
    0.643787     0.563737     0.390511 
    0.528598     0.338204     0.432965 
    0.517738     0.641139     0.610749 
EA39472 15.555 15.574 14.328 90.00 90.00 90.00 Sym.group:    0
1.0
   15.555359     0.000000     0.000000
    0.000000    15.573991     0.000000
    0.000000     0.000000    14.327904
   W   B
  12  13
Direct
    0.470501     0.506718     0.491980 
    0.511174     0.477921     0.659811 
    0.419633     0.340429     0.583647 
    0.497198     0.661771     0.586468 
    0.638319     0.460721     0.545257 
    0.402338     0.458258     0.329922 
    0.546224     0.559536     0.329613 
    0.307233     0.425991     0.482292 
    0.563233     0.400645     0.383674 
    0.520684     0.263979     0.478598 
    0.612543     0.632259     0.481087 
    0.283985     0.565233     0.555718 
    0.558068     0.350852     0.602767 
    0.628689     0.327590     0.514086 
    0.369024     0.467992     0.616636 
    0.432463     0.364327     0.436199 
    0.403725     0.569080     0.628905 
    0.729096     0.552200     0.478318 
    0.616955     0.581734     0.636916 
    0.416627     0.594065     0.366016 
    0.481041     0.657895     0.428059 
    0.665188     0.513495     0.398785 
    0.328577     0.553909     0.417112 
    0.388233     0.631187     0.487054 
    0.709246     0.582216     0.581080 
