EA21389  9.258 10.915 10.159 90.00 90.00 90.00 Sym.group:    0
1.0
    9.257675     0.000000     0.000000
    0.000000    10.914610     0.000000
    0.000000     0.000000    10.158635
   W
   2
Direct
    0.600599     0.500000     0.500000 
    0.399401     0.500000     0.500000 
EA18968 12.615  9.733  9.240 90.00 90.00 90.00 Sym.group:    0
1.0
   12.614790     0.000000     0.000000
    0.000000     9.733221     0.000000
    0.000000     0.000000     9.240000
   W
   3
Direct
    0.595875     0.442002     0.500000 
    0.408285     0.433735     0.500000 
    0.495840     0.624263     0.500000 
EA283  12.604 12.604 10.402 90.00 90.00 90.00 Sym.group:    0
1.0
   12.604171     0.000000     0.000000
    0.000000    12.604171     0.000000
    0.000000     0.000000    10.401603
   W
   4
Direct
    0.573038     0.594057     0.533587 
    0.405915     0.573016     0.466413 
    0.426962     0.405943     0.533587 
    0.594085     0.426984     0.466413 
EA21206 12.682 11.885 11.879 90.00 90.00 90.00 Sym.group:    0
1.0
   12.682424     0.000000     0.000000
    0.000000    11.884988     0.000000
    0.000000     0.000000    11.878740
   W
   5
Direct
    0.499813     0.367342     0.487727 
    0.364223     0.498340     0.500742 
    0.501511     0.556697     0.619009 
    0.635929     0.498389     0.498253 
    0.498524     0.579231     0.394269 
