EA27   11.687 11.362 10.714 90.00 90.00 90.00 Sym.group:    0
1.0
   11.686881     0.000000     0.000000
    0.000000    11.361785     0.000000
    0.000000     0.000000    10.713812
   W
   5
Direct
    0.499999     0.555128     0.365637 
    0.500007     0.583364     0.617377 
    0.499994     0.362089     0.517242 
    0.352462     0.499714     0.499875 
    0.647538     0.499705     0.499869 
EA214  12.563 12.671 15.127 90.00 90.00 90.00 Sym.group:    0
1.0
   12.563263     0.000000     0.000000
    0.000000    12.670997     0.000000
    0.000000     0.000000    15.127500
   W
   5
Direct
    0.499255     0.567105     0.412853 
    0.499267     0.373574     0.500582 
    0.501379     0.568030     0.587005 
    0.363679     0.496144     0.500456 
    0.636420     0.495147     0.499104 
EA416  12.563 12.671 15.127 90.00 90.00 90.00 Sym.group:    0
1.0
   12.563263     0.000000     0.000000
    0.000000    12.670997     0.000000
    0.000000     0.000000    15.127500
   W
   5
Direct
    0.499255     0.567105     0.412853 
    0.499267     0.373574     0.500582 
    0.501379     0.568030     0.587005 
    0.363679     0.496144     0.500456 
    0.636420     0.495147     0.499104 
EA823  10.656 10.427 10.513 90.00 90.00 90.00 Sym.group:    0
1.0
   10.656238     0.000000     0.000000
    0.000000    10.427449     0.000000
    0.000000     0.000000    10.512940
   W
   2
Direct
    0.588949     0.500000     0.500000 
    0.411051     0.500000     0.500000 
EA1062 10.656 10.427 10.513 90.00 90.00 90.00 Sym.group:    0
1.0
   10.656238     0.000000     0.000000
    0.000000    10.427449     0.000000
    0.000000     0.000000    10.512940
   W
   2
Direct
    0.588949     0.500000     0.500000 
    0.411051     0.500000     0.500000 
EA1077 12.119 11.513 11.456 90.00 90.00 90.00 Sym.group:    0
1.0
   12.119167     0.000000     0.000000
    0.000000    11.512785     0.000000
    0.000000     0.000000    11.456444
   W
   5
Direct
    0.502159     0.547496     0.628490 
    0.357485     0.506868     0.498553 
    0.642827     0.495105     0.499367 
    0.492047     0.362542     0.477703 
    0.505481     0.587990     0.395887 
EA1537 10.656 10.427 10.513 90.00 90.00 90.00 Sym.group:    0
1.0
   10.656238     0.000000     0.000000
    0.000000    10.427449     0.000000
    0.000000     0.000000    10.512940
   W
   2
Direct
    0.588949     0.500000     0.500000 
    0.411051     0.500000     0.500000 
EA1772 11.803  9.240  9.240 90.00 90.00 90.00 Sym.group:    0
1.0
   11.803338     0.000000     0.000000
    0.000000     9.240000     0.000000
    0.000000     0.000000     9.240000
   W
   2
Direct
    0.581011     0.500000     0.500000 
    0.418989     0.500000     0.500000 
EA2015 11.803  9.240  9.240 90.00 90.00 90.00 Sym.group:    0
1.0
   11.803338     0.000000     0.000000
    0.000000     9.240000     0.000000
    0.000000     0.000000     9.240000
   W
   2
Direct
    0.581011     0.500000     0.500000 
    0.418989     0.500000     0.500000 
EA2255 11.803  9.240  9.240 90.00 90.00 90.00 Sym.group:    0
1.0
   11.803338     0.000000     0.000000
    0.000000     9.240000     0.000000
    0.000000     0.000000     9.240000
   W
   2
Direct
    0.581011     0.500000     0.500000 
    0.418989     0.500000     0.500000 
EA2493 11.803  9.240  9.240 90.00 90.00 90.00 Sym.group:    0
1.0
   11.803338     0.000000     0.000000
    0.000000     9.240000     0.000000
    0.000000     0.000000     9.240000
   W
   2
Direct
    0.581011     0.500000     0.500000 
    0.418989     0.500000     0.500000 
EA2497 11.434 11.717 11.772 90.00 90.00 90.00 Sym.group:    0
1.0
   11.434316     0.000000     0.000000
    0.000000    11.716732     0.000000
    0.000000     0.000000    11.772276
   W
   5
Direct
    0.651337     0.493848     0.500797 
    0.499893     0.575900     0.608779 
    0.349166     0.495787     0.499777 
    0.501222     0.569601     0.387515 
    0.498382     0.364864     0.503132 
EA2967 11.803  9.240  9.240 90.00 90.00 90.00 Sym.group:    0
1.0
   11.803338     0.000000     0.000000
    0.000000     9.240000     0.000000
    0.000000     0.000000     9.240000
   W
   2
Direct
    0.581011     0.500000     0.500000 
    0.418989     0.500000     0.500000 
EA3205 11.803  9.240  9.240 90.00 90.00 90.00 Sym.group:    0
1.0
   11.803338     0.000000     0.000000
    0.000000     9.240000     0.000000
    0.000000     0.000000     9.240000
   W
   2
Direct
    0.581011     0.500000     0.500000 
    0.418989     0.500000     0.500000 
EA3444 11.803  9.240  9.240 90.00 90.00 90.00 Sym.group:    0
1.0
   11.803338     0.000000     0.000000
    0.000000     9.240000     0.000000
    0.000000     0.000000     9.240000
   W
   2
Direct
    0.581011     0.500000     0.500000 
    0.418989     0.500000     0.500000 
EA3678 11.044 10.612  9.240 90.00 90.00 90.00 Sym.group:    0
1.0
   11.043858     0.000000     0.000000
    0.000000    10.612118     0.000000
    0.000000     0.000000     9.240000
   W
   2
Direct
    0.413958     0.500000     0.500000 
    0.586042     0.500000     0.500000 
EA3921 10.669  9.240  9.240 90.00 90.00 90.00 Sym.group:    0
1.0
   10.668508     0.000000     0.000000
    0.000000     9.240000     0.000000
    0.000000     0.000000     9.240000
   W
   2
Direct
    0.410179     0.500000     0.500000 
    0.589821     0.500000     0.500000 
EA4162 10.669  9.240  9.240 90.00 90.00 90.00 Sym.group:    0
1.0
   10.668508     0.000000     0.000000
    0.000000     9.240000     0.000000
    0.000000     0.000000     9.240000
   W
   2
Direct
    0.589821     0.500000     0.500000 
    0.410179     0.500000     0.500000 
EA4400 10.669  9.240  9.240 90.00 90.00 90.00 Sym.group:    0
1.0
   10.668508     0.000000     0.000000
    0.000000     9.240000     0.000000
    0.000000     0.000000     9.240000
   W
   2
Direct
    0.589821     0.500000     0.500000 
    0.410179     0.500000     0.500000 
EA4639 10.669  9.240  9.240 90.00 90.00 90.00 Sym.group:    0
1.0
   10.668508     0.000000     0.000000
    0.000000     9.240000     0.000000
    0.000000     0.000000     9.240000
   W
   2
Direct
    0.589821     0.500000     0.500000 
    0.410179     0.500000     0.500000 
EA4876 10.669  9.240  9.240 90.00 90.00 90.00 Sym.group:    0
1.0
   10.668508     0.000000     0.000000
    0.000000     9.240000     0.000000
    0.000000     0.000000     9.240000
   W
   2
Direct
    0.589821     0.500000     0.500000 
    0.410179     0.500000     0.500000 
EA5116 10.669  9.240  9.240 90.00 90.00 90.00 Sym.group:    0
1.0
   10.668508     0.000000     0.000000
    0.000000     9.240000     0.000000
    0.000000     0.000000     9.240000
   W
   2
Direct
    0.589821     0.500000     0.500000 
    0.410179     0.500000     0.500000 
EA5354 10.669  9.240  9.240 90.00 90.00 90.00 Sym.group:    0
1.0
   10.668508     0.000000     0.000000
    0.000000     9.240000     0.000000
    0.000000     0.000000     9.240000
   W
   2
Direct
    0.589821     0.500000     0.500000 
    0.410179     0.500000     0.500000 
EA5594 10.669  9.240  9.240 90.00 90.00 90.00 Sym.group:    0
1.0
   10.668508     0.000000     0.000000
    0.000000     9.240000     0.000000
    0.000000     0.000000     9.240000
   W
   2
Direct
    0.589821     0.500000     0.500000 
    0.410179     0.500000     0.500000 
EA5828 10.086  9.349 11.673 90.00 90.00 90.00 Sym.group:    0
1.0
   10.085662     0.000000     0.000000
    0.000000     9.349374     0.000000
    0.000000     0.000000    11.672998
   W
   2
Direct
    0.595701     0.500000     0.500000 
    0.404299     0.500000     0.500000 
EA6070 10.086  9.349 11.673 90.00 90.00 90.00 Sym.group:    0
1.0
   10.085662     0.000000     0.000000
    0.000000     9.349374     0.000000
    0.000000     0.000000    11.672998
   W
   2
Direct
    0.595701     0.500000     0.500000 
    0.404299     0.500000     0.500000 
EA6312 10.086  9.349 11.673 90.00 90.00 90.00 Sym.group:    0
1.0
   10.085662     0.000000     0.000000
    0.000000     9.349374     0.000000
    0.000000     0.000000    11.672998
   W
   2
Direct
    0.595701     0.500000     0.500000 
    0.404299     0.500000     0.500000 
EA6553 10.086  9.349 11.673 90.00 90.00 90.00 Sym.group:    0
1.0
   10.085662     0.000000     0.000000
    0.000000     9.349374     0.000000
    0.000000     0.000000    11.672998
   W
   2
Direct
    0.595701     0.500000     0.500000 
    0.404299     0.500000     0.500000 
EA6786 12.206  9.240  9.240 90.00 90.00 90.00 Sym.group:    0
1.0
   12.205585     0.000000     0.000000
    0.000000     9.240000     0.000000
    0.000000     0.000000     9.240000
   W
   2
Direct
    0.579239     0.500000     0.500000 
    0.420761     0.500000     0.500000 
EA7032 12.206  9.240  9.240 90.00 90.00 90.00 Sym.group:    0
1.0
   12.205585     0.000000     0.000000
    0.000000     9.240000     0.000000
    0.000000     0.000000     9.240000
   W
   2
Direct
    0.579239     0.500000     0.500000 
    0.420761     0.500000     0.500000 
EA7274 12.206  9.240  9.240 90.00 90.00 90.00 Sym.group:    0
1.0
   12.205585     0.000000     0.000000
    0.000000     9.240000     0.000000
    0.000000     0.000000     9.240000
   W
   2
Direct
    0.579239     0.500000     0.500000 
    0.420761     0.500000     0.500000 
EA7512 12.206  9.240  9.240 90.00 90.00 90.00 Sym.group:    0
1.0
   12.205585     0.000000     0.000000
    0.000000     9.240000     0.000000
    0.000000     0.000000     9.240000
   W
   2
Direct
    0.579239     0.500000     0.500000 
    0.420761     0.500000     0.500000 
EA7746 12.200  9.240  9.240 90.00 90.00 90.00 Sym.group:    0
1.0
   12.199717     0.000000     0.000000
    0.000000     9.240000     0.000000
    0.000000     0.000000     9.240000
   W
   2
Direct
    0.420696     0.500000     0.500000 
    0.579304     0.500000     0.500000 
EA7763 11.950 11.523 12.085 90.00 90.00 90.00 Sym.group:    0
1.0
   11.949708     0.000000     0.000000
    0.000000    11.522745     0.000000
    0.000000     0.000000    12.085270
   W
   5
Direct
    0.499322     0.606704     0.418523 
    0.357126     0.500820     0.501270 
    0.502851     0.522827     0.627551 
    0.497323     0.371186     0.455149 
    0.643378     0.498463     0.497507 
EA8035 11.950 11.523 12.085 90.00 90.00 90.00 Sym.group:    0
1.0
   11.949708     0.000000     0.000000
    0.000000    11.522745     0.000000
    0.000000     0.000000    12.085270
   W
   5
Direct
    0.499322     0.606704     0.418523 
    0.357126     0.500820     0.501270 
    0.502851     0.522827     0.627551 
    0.497323     0.371186     0.455149 
    0.643378     0.498463     0.497507 
EA8250 14.802 14.147 11.626 90.00 90.00 90.00 Sym.group:    0
1.0
   14.802326     0.000000     0.000000
    0.000000    14.146706     0.000000
    0.000000     0.000000    11.625853
   W
   5
Direct
    0.501261     0.576095     0.598022 
    0.498668     0.389457     0.522196 
    0.500100     0.540437     0.376444 
    0.386170     0.498092     0.502027 
    0.613800     0.495919     0.501310 
EA8517 14.802 14.147 11.626 90.00 90.00 90.00 Sym.group:    0
1.0
   14.802326     0.000000     0.000000
    0.000000    14.146706     0.000000
    0.000000     0.000000    11.625853
   W
   5
Direct
    0.501261     0.423905     0.598022 
    0.498668     0.610543     0.522196 
    0.500100     0.459563     0.376444 
    0.386170     0.501908     0.502027 
    0.613800     0.504081     0.501310 
EA8946 12.200  9.240  9.240 90.00 90.00 90.00 Sym.group:    0
1.0
   12.199717     0.000000     0.000000
    0.000000     9.240000     0.000000
    0.000000     0.000000     9.240000
   W
   2
Direct
    0.420696     0.500000     0.500000 
    0.579304     0.500000     0.500000 
EA9181 12.200  9.240  9.240 90.00 90.00 90.00 Sym.group:    0
1.0
   12.199717     0.000000     0.000000
    0.000000     9.240000     0.000000
    0.000000     0.000000     9.240000
   W
   2
Direct
    0.420696     0.500000     0.500000 
    0.579304     0.500000     0.500000 
EA9195 11.633 12.183 11.614 90.00 90.00 90.00 Sym.group:    0
1.0
   11.632893     0.000000     0.000000
    0.000000    12.182663     0.000000
    0.000000     0.000000    11.613795
   W
   5
Direct
    0.346681     0.513002     0.499734 
    0.499822     0.421959     0.398657 
    0.499923     0.630226     0.500778 
    0.652816     0.513410     0.499111 
    0.500758     0.421403     0.601721 
EA9470 12.693 12.011 11.585 90.00 90.00 90.00 Sym.group:    0
1.0
   12.692685     0.000000     0.000000
    0.000000    12.010979     0.000000
    0.000000     0.000000    11.584942
   W
   5
Direct
    0.508240     0.584555     0.594746 
    0.644511     0.483416     0.494489 
    0.355465     0.483219     0.505538 
    0.500267     0.367442     0.501394 
    0.491517     0.581368     0.403833 
EA9901 12.200  9.240  9.240 90.00 90.00 90.00 Sym.group:    0
1.0
   12.199717     0.000000     0.000000
    0.000000     9.240000     0.000000
    0.000000     0.000000     9.240000
   W
   2
Direct
    0.420696     0.500000     0.500000 
    0.579304     0.500000     0.500000 
EA9943 11.683 11.400 12.467 90.00 90.00 90.00 Sym.group:    0
1.0
   11.682698     0.000000     0.000000
    0.000000    11.399653     0.000000
    0.000000     0.000000    12.467455
   W
   5
Direct
    0.648506     0.494289     0.499263 
    0.501867     0.588676     0.403174 
    0.497588     0.361153     0.485643 
    0.351681     0.497796     0.498551 
    0.500359     0.558087     0.613369 
EA10160 11.904 11.563 12.307 90.00 90.00 90.00 Sym.group:    0
1.0
   11.904101     0.000000     0.000000
    0.000000    11.562630     0.000000
    0.000000     0.000000    12.306873
   W
   5
Direct
    0.644335     0.503474     0.505872 
    0.500209     0.635621     0.522655 
    0.496849     0.403778     0.591185 
    0.354473     0.504381     0.500469 
    0.504134     0.452746     0.379819 
EA10412 11.978 14.835 13.087 90.00 90.00 90.00 Sym.group:    0
1.0
   11.978413     0.000000     0.000000
    0.000000    14.834934     0.000000
    0.000000     0.000000    13.086503
   W
   5
Direct
    0.497497     0.605664     0.494943 
    0.504521     0.434370     0.406818 
    0.499616     0.443702     0.599113 
    0.644879     0.510030     0.501094 
    0.353487     0.506235     0.498032 
EA10678 11.978 14.835 13.087 90.00 90.00 90.00 Sym.group:    0
1.0
   11.978413     0.000000     0.000000
    0.000000    14.834934     0.000000
    0.000000     0.000000    13.086503
   W
   5
Direct
    0.502503     0.605664     0.494943 
    0.495479     0.434370     0.406818 
    0.500384     0.443702     0.599113 
    0.355121     0.510030     0.501094 
    0.646513     0.506235     0.498032 
EA10910 11.978 14.835 13.087 90.00 90.00 90.00 Sym.group:    0
1.0
   11.978413     0.000000     0.000000
    0.000000    14.834934     0.000000
    0.000000     0.000000    13.086503
   W
   5
Direct
    0.497497     0.394336     0.494943 
    0.504521     0.565630     0.406818 
    0.499616     0.556298     0.599113 
    0.644879     0.489970     0.501094 
    0.353487     0.493765     0.498032 
EA11115 12.624 11.695 11.470 90.00 90.00 90.00 Sym.group:    0
1.0
   12.624454     0.000000     0.000000
    0.000000    11.695453     0.000000
    0.000000     0.000000    11.469510
   W
   5
Direct
    0.354415     0.519012     0.501541 
    0.502101     0.635958     0.494088 
    0.493329     0.406395     0.408590 
    0.504024     0.423824     0.601119 
    0.646130     0.514810     0.494662 
EA11388 14.336 13.836 11.251 90.00 90.00 90.00 Sym.group:    0
1.0
   14.336460     0.000000     0.000000
    0.000000    13.836291     0.000000
    0.000000     0.000000    11.251159
   W
   5
Direct
    0.499777     0.391873     0.460248 
    0.499541     0.581821     0.407117 
    0.500636     0.524826     0.632994 
    0.383622     0.500750     0.500405 
    0.616423     0.500730     0.499236 
EA11593 12.418 11.481 11.316 90.00 90.00 90.00 Sym.group:    0
1.0
   12.417846     0.000000     0.000000
    0.000000    11.480760     0.000000
    0.000000     0.000000    11.316122
   W
   5
Direct
    0.352895     0.518144     0.503944 
    0.507436     0.415385     0.599803 
    0.491086     0.412746     0.403022 
    0.500832     0.637440     0.500180 
    0.647751     0.516285     0.493052 
EA11836 11.601 11.306 12.343 90.00 90.00 90.00 Sym.group:    0
1.0
   11.601251     0.000000     0.000000
    0.000000    11.306123     0.000000
    0.000000     0.000000    12.343266
   W
   5
Direct
    0.495283     0.641690     0.501434 
    0.343616     0.512855     0.500246 
    0.499684     0.412700     0.409010 
    0.505583     0.412612     0.592519 
    0.655835     0.520143     0.496791 
EA12072 11.303 10.885 12.791 90.00 90.00 90.00 Sym.group:    0
1.0
   11.302872     0.000000     0.000000
    0.000000    10.884723     0.000000
    0.000000     0.000000    12.791277
   W
   5
Direct
    0.509138     0.603337     0.581772 
    0.661044     0.481434     0.496692 
    0.497611     0.355025     0.510988 
    0.337716     0.487044     0.504345 
    0.494490     0.573160     0.406203 
EA12341 13.399 14.233 13.480 90.00 90.00 90.00 Sym.group:    0
1.0
   13.398595     0.000000     0.000000
    0.000000    14.232858     0.000000
    0.000000     0.000000    13.480019
   W
   5
Direct
    0.505909     0.435345     0.416946 
    0.640367     0.496021     0.510335 
    0.521262     0.609874     0.504203 
    0.467204     0.431804     0.580266 
    0.365259     0.526956     0.488250 
EA12567 15.552 13.542 11.309 90.00 90.00 90.00 Sym.group:    0
1.0
   15.551974     0.000000     0.000000
    0.000000    13.542174     0.000000
    0.000000     0.000000    11.309464
   W
   5
Direct
    0.515149     0.414162     0.414975 
    0.483701     0.443838     0.608147 
    0.618286     0.515182     0.506236 
    0.384048     0.510986     0.480149 
    0.498817     0.615832     0.490493 
EA12813 12.483 11.429 12.864 90.00 90.00 90.00 Sym.group:    0
1.0
   12.482769     0.000000     0.000000
    0.000000    11.429208     0.000000
    0.000000     0.000000    12.863822
   W
   5
Direct
    0.637498     0.489134     0.501737 
    0.361233     0.501726     0.501988 
    0.492431     0.361173     0.512111 
    0.503418     0.559530     0.392857 
    0.505419     0.588437     0.591308 
EA13074 12.483 11.429 12.864 90.00 90.00 90.00 Sym.group:    0
1.0
   12.482769     0.000000     0.000000
    0.000000    11.429208     0.000000
    0.000000     0.000000    12.863822
   W
   5
Direct
    0.637498     0.489134     0.501737 
    0.361233     0.501726     0.501988 
    0.492431     0.361173     0.512111 
    0.503418     0.559530     0.392857 
    0.505419     0.588437     0.591308 
EA13292 12.617 11.553 12.847 90.00 90.00 90.00 Sym.group:    0
1.0
   12.616525     0.000000     0.000000
    0.000000    11.552501     0.000000
    0.000000     0.000000    12.846589
   W
   5
Direct
    0.637089     0.506498     0.501088 
    0.498849     0.420164     0.598129 
    0.500453     0.638080     0.503411 
    0.362794     0.507191     0.499668 
    0.500815     0.428066     0.397704 
EA13551 12.617 11.553 12.847 90.00 90.00 90.00 Sym.group:    0
1.0
   12.616525     0.000000     0.000000
    0.000000    11.552501     0.000000
    0.000000     0.000000    12.846589
   W
   5
Direct
    0.637089     0.506498     0.501088 
    0.498849     0.420164     0.598129 
    0.500453     0.638080     0.503411 
    0.362794     0.507191     0.499668 
    0.500815     0.428066     0.397704 
EA13778 12.617 11.553 12.847 90.00 90.00 90.00 Sym.group:    0
1.0
   12.616525     0.000000     0.000000
    0.000000    11.552501     0.000000
    0.000000     0.000000    12.846589
   W
   5
Direct
    0.637089     0.506498     0.501088 
    0.498849     0.420164     0.598129 
    0.500453     0.638080     0.503411 
    0.362794     0.507191     0.499668 
    0.500815     0.428066     0.397704 
EA13983 12.027 11.369 12.345 90.00 90.00 90.00 Sym.group:    0
1.0
   12.027088     0.000000     0.000000
    0.000000    11.369083     0.000000
    0.000000     0.000000    12.344706
   W
   5
Direct
    0.474152     0.641321     0.497588 
    0.346817     0.494906     0.510892 
    0.534595     0.422222     0.592543 
    0.649730     0.533892     0.486260 
    0.494707     0.407659     0.412717 
EA14257 12.488 12.714 12.538 90.00 90.00 90.00 Sym.group:    0
1.0
   12.488243     0.000000     0.000000
    0.000000    12.713765     0.000000
    0.000000     0.000000    12.537863
   W
   5
Direct
    0.358541     0.465123     0.497968 
    0.646045     0.500856     0.495925 
    0.487726     0.581154     0.591430 
    0.484892     0.578838     0.410964 
    0.522795     0.374029     0.503713 
EA14500 12.488 12.714 12.538 90.00 90.00 90.00 Sym.group:    0
1.0
   12.488243     0.000000     0.000000
    0.000000    12.713765     0.000000
    0.000000     0.000000    12.537863
   W
   5
Direct
    0.358541     0.534877     0.497968 
    0.646045     0.499144     0.495925 
    0.487726     0.418846     0.591430 
    0.484892     0.421162     0.410964 
    0.522795     0.625971     0.503713 
EA14713 12.081 12.368 12.890 90.00 90.00 90.00 Sym.group:    0
1.0
   12.080698     0.000000     0.000000
    0.000000    12.367847     0.000000
    0.000000     0.000000    12.890230
   W
   5
Direct
    0.493093     0.426915     0.588938 
    0.652535     0.510166     0.502869 
    0.349063     0.519079     0.499007 
    0.505998     0.627779     0.494648 
    0.499311     0.416060     0.414538 
EA14979 12.081 12.368 12.890 90.00 90.00 90.00 Sym.group:    0
1.0
   12.080698     0.000000     0.000000
    0.000000    12.367847     0.000000
    0.000000     0.000000    12.890230
   W
   5
Direct
    0.506907     0.426915     0.588938 
    0.347465     0.510166     0.502869 
    0.650937     0.519079     0.499007 
    0.494002     0.627779     0.494648 
    0.500689     0.416060     0.414538 
EA15180 11.592 11.184 11.946 90.00 90.00 90.00 Sym.group:    0
1.0
   11.591699     0.000000     0.000000
    0.000000    11.183892     0.000000
    0.000000     0.000000    11.946327
   W
   5
Direct
    0.499234     0.638321     0.522883 
    0.500455     0.448602     0.379914 
    0.351456     0.503997     0.498975 
    0.649833     0.504205     0.500106 
    0.499022     0.404875     0.598122 
EA15420 11.901 11.416 12.782 90.00 90.00 90.00 Sym.group:    0
1.0
   11.901382     0.000000     0.000000
    0.000000    11.416084     0.000000
    0.000000     0.000000    12.782376
   W
   5
Direct
    0.654030     0.514712     0.504324 
    0.490945     0.414409     0.587350 
    0.503596     0.639898     0.498426 
    0.346408     0.520160     0.496324 
    0.505021     0.410822     0.413576 
EA15663 13.892 12.901 10.517 90.00 90.00 90.00 Sym.group:    0
1.0
   13.891931     0.000000     0.000000
    0.000000    12.901052     0.000000
    0.000000     0.000000    10.517099
   W
   5
Direct
    0.500621     0.387075     0.562492 
    0.500517     0.605096     0.580353 
    0.378636     0.499122     0.503414 
    0.621324     0.499335     0.501415 
    0.498901     0.509372     0.352326 
EA15932 13.892 12.901 10.517 90.00 90.00 90.00 Sym.group:    0
1.0
   13.891931     0.000000     0.000000
    0.000000    12.901052     0.000000
    0.000000     0.000000    10.517099
   W
   5
Direct
    0.500621     0.612925     0.562492 
    0.500517     0.394904     0.580353 
    0.378636     0.500878     0.503414 
    0.621324     0.500665     0.501415 
    0.498901     0.490628     0.352326 
EA16129 12.050 11.869 11.498 90.00 90.00 90.00 Sym.group:    0
1.0
   12.050204     0.000000     0.000000
    0.000000    11.868799     0.000000
    0.000000     0.000000    11.497599
   W
   5
Direct
    0.361153     0.502761     0.500473 
    0.498939     0.506407     0.363729 
    0.494694     0.381370     0.562495 
    0.642293     0.495989     0.500276 
    0.502921     0.613473     0.573027 
EA16422 12.050 11.869 11.498 90.00 90.00 90.00 Sym.group:    0
1.0
   12.050204     0.000000     0.000000
    0.000000    11.868799     0.000000
    0.000000     0.000000    11.497599
   W
   5
Direct
    0.361153     0.497239     0.500473 
    0.498939     0.493593     0.363729 
    0.494694     0.618630     0.562495 
    0.642293     0.504011     0.500276 
    0.502921     0.386527     0.573027 
EA16613 11.640 11.208 12.266 90.00 90.00 90.00 Sym.group:    0
1.0
   11.639650     0.000000     0.000000
    0.000000    11.208344     0.000000
    0.000000     0.000000    12.266223
   W
   5
Direct
    0.497596     0.358572     0.495671 
    0.653340     0.483618     0.492104 
    0.512210     0.579367     0.598918 
    0.490415     0.592020     0.407484 
    0.346439     0.486423     0.505823 
EA16899 11.640 11.208 12.266 90.00 90.00 90.00 Sym.group:    0
1.0
   11.639650     0.000000     0.000000
    0.000000    11.208344     0.000000
    0.000000     0.000000    12.266223
   W
   5
Direct
    0.502404     0.358572     0.495671 
    0.346660     0.483618     0.492104 
    0.487790     0.579367     0.598918 
    0.509585     0.592020     0.407484 
    0.653561     0.486423     0.505823 
EA17126 11.640 11.208 12.266 90.00 90.00 90.00 Sym.group:    0
1.0
   11.639650     0.000000     0.000000
    0.000000    11.208344     0.000000
    0.000000     0.000000    12.266223
   W
   5
Direct
    0.497596     0.641428     0.495671 
    0.653340     0.516382     0.492104 
    0.512210     0.420633     0.598918 
    0.490415     0.407980     0.407484 
    0.346439     0.513577     0.505823 
EA17364 12.295 11.857 12.515 90.00 90.00 90.00 Sym.group:    0
1.0
   12.294964     0.000000     0.000000
    0.000000    11.857112     0.000000
    0.000000     0.000000    12.515219
   W
   5
Direct
    0.498507     0.581054     0.400434 
    0.639673     0.493214     0.497502 
    0.360013     0.492201     0.499376 
    0.500723     0.364045     0.495556 
    0.501084     0.569486     0.607132 
EA17610 12.295 11.857 12.515 90.00 90.00 90.00 Sym.group:    0
1.0
   12.294964     0.000000     0.000000
    0.000000    11.857112     0.000000
    0.000000     0.000000    12.515219
   W
   5
Direct
    0.501493     0.581054     0.400434 
    0.360327     0.493214     0.497502 
    0.639987     0.492201     0.499376 
    0.499277     0.364045     0.495556 
    0.498916     0.569486     0.607132 
EA17807 11.502 11.959 11.744 90.00 90.00 90.00 Sym.group:    0
1.0
   11.501720     0.000000     0.000000
    0.000000    11.958699     0.000000
    0.000000     0.000000    11.744298
   W
   5
Direct
    0.476875     0.420006     0.406327 
    0.340023     0.517957     0.511313 
    0.503783     0.631605     0.501248 
    0.661227     0.512461     0.487224 
    0.518092     0.417972     0.593888 
EA18052 11.834 11.349 11.776 90.00 90.00 90.00 Sym.group:    0
1.0
   11.833914     0.000000     0.000000
    0.000000    11.349244     0.000000
    0.000000     0.000000    11.775582
   W
   5
Direct
    0.499230     0.407417     0.592057 
    0.344319     0.522219     0.503646 
    0.498683     0.410412     0.403077 
    0.654513     0.518176     0.503351 
    0.503254     0.641776     0.497869 
EA18294 11.330 11.855 11.182 90.00 90.00 90.00 Sym.group:    0
1.0
   11.330097     0.000000     0.000000
    0.000000    11.855105     0.000000
    0.000000     0.000000    11.182208
   W
   5
Direct
    0.652767     0.503664     0.496348 
    0.498675     0.398223     0.409483 
    0.504752     0.472910     0.635188 
    0.494612     0.625951     0.456056 
    0.349194     0.499252     0.502925 
EA18526 12.109 11.683 11.488 90.00 90.00 90.00 Sym.group:    0
1.0
   12.109378     0.000000     0.000000
    0.000000    11.682567     0.000000
    0.000000     0.000000    11.488005
   W
   5
Direct
    0.497041     0.364260     0.501932 
    0.502034     0.570566     0.384254 
    0.356807     0.497334     0.499999 
    0.643232     0.493066     0.500985 
    0.500886     0.574774     0.612831 
EA18813 12.109 11.683 11.488 90.00 90.00 90.00 Sym.group:    0
1.0
   12.109378     0.000000     0.000000
    0.000000    11.682567     0.000000
    0.000000     0.000000    11.488005
   W
   5
Direct
    0.502959     0.364260     0.501932 
    0.497966     0.570566     0.384254 
    0.643193     0.497334     0.499999 
    0.356768     0.493066     0.500985 
    0.499114     0.574774     0.612831 
EA19046 13.179 11.523 12.190 90.00 90.00 90.00 Sym.group:    0
1.0
   13.178506     0.000000     0.000000
    0.000000    11.522546     0.000000
    0.000000     0.000000    12.189776
   W
   5
Direct
    0.497868     0.432916     0.613229 
    0.501155     0.639529     0.495197 
    0.369442     0.505452     0.495004 
    0.630171     0.503990     0.497948 
    0.501364     0.418113     0.398622 
EA19287 13.963 11.370 11.143 90.00 90.00 90.00 Sym.group:    0
1.0
   13.962502     0.000000     0.000000
    0.000000    11.370044     0.000000
    0.000000     0.000000    11.142781
   W
   5
Direct
    0.505485     0.451057     0.632030 
    0.506465     0.409328     0.392111 
    0.485945     0.637977     0.476183 
    0.622641     0.512301     0.498353 
    0.379464     0.489337     0.501323 
EA19534 13.963 11.370 11.143 90.00 90.00 90.00 Sym.group:    0
1.0
   13.962502     0.000000     0.000000
    0.000000    11.370044     0.000000
    0.000000     0.000000    11.142781
   W
   5
Direct
    0.494515     0.451057     0.632030 
    0.493535     0.409328     0.392111 
    0.514055     0.637977     0.476183 
    0.377359     0.512301     0.498353 
    0.620536     0.489337     0.501323 
EA19732 11.478 11.899 11.628 90.00 90.00 90.00 Sym.group:    0
1.0
   11.477658     0.000000     0.000000
    0.000000    11.899159     0.000000
    0.000000     0.000000    11.627619
   W
   5
Direct
    0.349698     0.494107     0.492953 
    0.495883     0.607440     0.421045 
    0.500838     0.526285     0.633700 
    0.503358     0.372414     0.461400 
    0.650223     0.499754     0.490902 
EA20011 11.478 11.899 11.628 90.00 90.00 90.00 Sym.group:    0
1.0
   11.477658     0.000000     0.000000
    0.000000    11.899159     0.000000
    0.000000     0.000000    11.627619
   W
   5
Direct
    0.349698     0.505893     0.492953 
    0.495883     0.392560     0.421045 
    0.500838     0.473715     0.633700 
    0.503358     0.627586     0.461400 
    0.650223     0.500246     0.490902 
EA20206 11.749 11.373 12.038 90.00 90.00 90.00 Sym.group:    0
1.0
   11.748654     0.000000     0.000000
    0.000000    11.372569     0.000000
    0.000000     0.000000    12.038237
   W
   5
Direct
    0.500379     0.639331     0.500049 
    0.654989     0.515027     0.508845 
    0.488900     0.412373     0.591747 
    0.345132     0.515997     0.495683 
    0.510600     0.417272     0.403675 
EA20489 13.833 10.484 10.385 90.00 90.00 90.00 Sym.group:    0
1.0
   13.833006     0.000000     0.000000
    0.000000    10.484029     0.000000
    0.000000     0.000000    10.384999
   W
   5
Direct
    0.499998     0.354613     0.525176 
    0.500008     0.597367     0.612533 
    0.499975     0.551192     0.357608 
    0.625933     0.498415     0.502324 
    0.374087     0.498413     0.502359 
EA20733 13.833 10.484 10.385 90.00 90.00 90.00 Sym.group:    0
1.0
   13.833006     0.000000     0.000000
    0.000000    10.484029     0.000000
    0.000000     0.000000    10.384999
   W
   5
Direct
    0.499998     0.354613     0.525176 
    0.500008     0.597367     0.612533 
    0.499975     0.551192     0.357608 
    0.625933     0.498415     0.502324 
    0.374087     0.498413     0.502359 
EA20978 13.833 10.484 10.385 90.00 90.00 90.00 Sym.group:    0
1.0
   13.833006     0.000000     0.000000
    0.000000    10.484029     0.000000
    0.000000     0.000000    10.384999
   W
   5
Direct
    0.499998     0.354613     0.525176 
    0.500008     0.597367     0.612533 
    0.499975     0.551192     0.357608 
    0.625933     0.498415     0.502324 
    0.374087     0.498413     0.502359 
EA21170 12.097 11.655 11.470 90.00 90.00 90.00 Sym.group:    0
1.0
   12.096883     0.000000     0.000000
    0.000000    11.655115     0.000000
    0.000000     0.000000    11.470102
   W
   5
Direct
    0.507637     0.580562     0.599617 
    0.349547     0.491811     0.498936 
    0.504664     0.591869     0.407566 
    0.486776     0.362779     0.497347 
    0.651375     0.472979     0.496534 
