EA17644 16.150 15.014 14.559 90.00 90.00 90.00 Sym.group:    0
1.0
   16.149888     0.000000     0.000000
    0.000000    15.014448     0.000000
    0.000000     0.000000    14.559001
   W   B
  11  21
Direct
    0.685266     0.393600     0.516402 
    0.578493     0.521107     0.495523 
    0.607502     0.602628     0.350227 
    0.459688     0.625579     0.563898 
    0.581693     0.413812     0.644748 
    0.705465     0.549991     0.609837 
    0.461366     0.291237     0.596641 
    0.291805     0.446012     0.476881 
    0.323439     0.488764     0.640631 
    0.433904     0.533267     0.377318 
    0.440127     0.444397     0.544877 
    0.603304     0.651650     0.582166 
    0.662682     0.468337     0.377448 
    0.712310     0.537325     0.452023 
    0.671446     0.638501     0.487607 
    0.573784     0.677854     0.477252 
    0.493706     0.661915     0.408948 
    0.577900     0.565182     0.649759 
    0.711960     0.417854     0.658826 
    0.563224     0.470300     0.331381 
    0.566480     0.324596     0.508455 
    0.595270     0.381614     0.405625 
    0.469777     0.316684     0.450298 
    0.392429     0.663871     0.431816 
    0.329588     0.628170     0.624066 
    0.331457     0.668622     0.520954 
    0.268856     0.578323     0.541817 
    0.368583     0.319147     0.485112 
    0.493241     0.398197     0.367211 
    0.333917     0.346016     0.588958 
    0.395982     0.388309     0.396836 
    0.315358     0.587140     0.436462 
EA17617 15.814 13.602 13.666 90.00 90.00 90.00 Sym.group:    0
1.0
   15.813983     0.000000     0.000000
    0.000000    13.602142     0.000000
    0.000000     0.000000    13.665923
   W   B
  11  22
Direct
    0.529521     0.499134     0.501059 
    0.392793     0.341533     0.519079 
    0.640711     0.382306     0.610314 
    0.392849     0.469340     0.653505 
    0.640022     0.570295     0.646140 
    0.391001     0.639572     0.576597 
    0.639669     0.661979     0.479983 
    0.390318     0.615284     0.391672 
    0.638482     0.531591     0.340740 
    0.391900     0.431567     0.357718 
    0.639825     0.358410     0.422052 
    0.272851     0.546436     0.600199 
    0.745641     0.593453     0.550434 
    0.272182     0.609686     0.486983 
    0.744755     0.578180     0.427388 
    0.272493     0.520656     0.392187 
    0.745043     0.455852     0.403609 
    0.272835     0.402414     0.447009 
    0.745828     0.395473     0.512477 
    0.273132     0.418386     0.575449 
    0.745924     0.480531     0.603519 
    0.497873     0.336475     0.410379 
    0.534927     0.311551     0.523299 
    0.498189     0.363361     0.626741 
    0.534528     0.464208     0.684817 
    0.497072     0.578953     0.667666 
    0.533498     0.666314     0.591422 
    0.496403     0.684294     0.477351 
    0.532852     0.638875     0.371373 
    0.496541     0.535085     0.319001 
    0.533525     0.419592     0.329116 
    0.221938     0.499188     0.500572 
    0.344875     0.500025     0.500151 
EA6757 17.205 12.888 12.903 90.00 90.00 90.00 Sym.group:    0
1.0
   17.205323     0.000000     0.000000
    0.000000    12.887715     0.000000
    0.000000     0.000000    12.903017
   W   B
  11  23
Direct
    0.610136     0.514279     0.316451 
    0.388965     0.412669     0.356657 
    0.609956     0.344549     0.434975 
    0.388700     0.333289     0.539650 
    0.617357     0.393144     0.628598 
    0.389242     0.486102     0.668966 
    0.616372     0.587388     0.644500 
    0.387410     0.657521     0.563478 
    0.610245     0.666795     0.456895 
    0.388786     0.606753     0.373122 
    0.746334     0.492252     0.658087 
    0.284177     0.559796     0.596638 
    0.721036     0.622157     0.543377 
    0.281608     0.612625     0.470945 
    0.710689     0.572579     0.402821 
    0.282404     0.507975     0.385394 
    0.711284     0.441019     0.392527 
    0.283084     0.392767     0.456178 
    0.721042     0.370849     0.525954 
    0.285712     0.426918     0.587566 
    0.516843     0.627140     0.347545 
    0.484766     0.516026     0.296506 
    0.516444     0.396547     0.331270 
    0.485823     0.314222     0.424169 
    0.516383     0.304632     0.548520 
    0.484168     0.368884     0.652824 
    0.518126     0.486075     0.690830 
    0.484111     0.605592     0.671546 
    0.516428     0.684446     0.575695 
    0.485398     0.695879     0.453520 
    0.588750     0.502296     0.495594 
    0.236916     0.499591     0.500244 
    0.722721     0.497454     0.507704 
    0.408581     0.499792     0.501254 
EA2717 17.192 15.934 14.650 90.00 90.00 90.00 Sym.group:    0
1.0
   17.192350     0.000000     0.000000
    0.000000    15.934279     0.000000
    0.000000     0.000000    14.649564
   W   B
  11  24
Direct
    0.504830     0.425916     0.339831 
    0.667526     0.368324     0.395754 
    0.597999     0.561157     0.646004 
    0.577037     0.515288     0.459693 
    0.587571     0.400359     0.595298 
    0.712773     0.482802     0.550079 
    0.450098     0.375366     0.505542 
    0.356715     0.410674     0.371393 
    0.410565     0.537003     0.462407 
    0.367061     0.511535     0.626190 
    0.512343     0.672294     0.420705 
    0.625496     0.288663     0.512472 
    0.557554     0.329709     0.437758 
    0.533334     0.280481     0.534802 
    0.704585     0.583194     0.439205 
    0.594290     0.661019     0.543890 
    0.679049     0.614348     0.542272 
    0.637115     0.657261     0.441757 
    0.701150     0.348203     0.535392 
    0.699249     0.491276     0.397542 
    0.255267     0.377969     0.443974 
    0.323872     0.332746     0.503008 
    0.437762     0.398375     0.652566 
    0.374359     0.668277     0.432643 
    0.474534     0.582381     0.669892 
    0.427297     0.692144     0.524367 
    0.495356     0.564712     0.334437 
    0.342415     0.636731     0.538593 
    0.506348     0.651200     0.583162 
    0.412979     0.624094     0.337578 
    0.408570     0.641555     0.620733 
    0.406347     0.521486     0.303799 
    0.352246     0.373941     0.604255 
    0.313590     0.440573     0.516092 
    0.492716     0.478947     0.676915 
EA17481 17.342 15.359 15.031 90.00 90.00 90.00 Sym.group:    0
1.0
   17.342297     0.000000     0.000000
    0.000000    15.358677     0.000000
    0.000000     0.000000    15.030762
   W   B
  11  25
Direct
    0.525472     0.304405     0.480306 
    0.689115     0.560145     0.567177 
    0.584164     0.572661     0.327062 
    0.605250     0.446347     0.473037 
    0.426131     0.385067     0.345893 
    0.448422     0.464635     0.507609 
    0.540224     0.374403     0.635734 
    0.392108     0.621999     0.457075 
    0.357607     0.541757     0.631835 
    0.500398     0.621619     0.584556 
    0.532396     0.704143     0.437677 
    0.509325     0.461543     0.274360 
    0.550267     0.377649     0.354131 
    0.718279     0.411320     0.540166 
    0.688678     0.551896     0.409425 
    0.735643     0.474957     0.458207 
    0.638359     0.636049     0.447569 
    0.516092     0.479064     0.386513 
    0.641567     0.335944     0.560085 
    0.584870     0.513946     0.644147 
    0.415246     0.412553     0.649807 
    0.395942     0.321734     0.477572 
    0.430775     0.325111     0.582450 
    0.654424     0.430197     0.622609 
    0.347327     0.395585     0.564446 
    0.470250     0.634200     0.342722 
    0.434637     0.531816     0.334313 
    0.354054     0.492416     0.396294 
    0.307684     0.663441     0.568378 
    0.303036     0.487842     0.505174 
    0.268752     0.581110     0.529137 
    0.393571     0.680272     0.601191 
    0.332448     0.399409     0.448813 
    0.615301     0.679515     0.547615 
    0.612689     0.627406     0.646782 
    0.479494     0.497845     0.660137 
EA17619 17.009 14.101 13.978 90.00 90.00 90.00 Sym.group:    0
1.0
   17.008974     0.000000     0.000000
    0.000000    14.101050     0.000000
    0.000000     0.000000    13.978238
   W   B
  12  21
Direct
    0.608008     0.366644     0.581075 
    0.377701     0.344162     0.485741 
    0.608002     0.381639     0.396700 
    0.377295     0.465703     0.345586 
    0.607383     0.561007     0.355667 
    0.377527     0.632786     0.417523 
    0.612000     0.652644     0.510766 
    0.375856     0.616502     0.601708 
    0.611800     0.533619     0.651150 
    0.376011     0.437937     0.645093 
    0.741551     0.608348     0.592320 
    0.244270     0.529674     0.625330 
    0.718696     0.454225     0.593771 
    0.271709     0.401644     0.551697 
    0.715192     0.391725     0.487692 
    0.272181     0.418604     0.427721 
    0.715192     0.472503     0.393598 
    0.271428     0.539076     0.397925 
    0.720254     0.585151     0.441286 
    0.269610     0.607146     0.501815 
    0.509325     0.460152     0.322396 
    0.475411     0.569878     0.333891 
    0.507280     0.657434     0.404024 
    0.475738     0.677607     0.515135 
    0.510236     0.632810     0.616200 
    0.475388     0.538973     0.672831 
    0.509566     0.429420     0.670946 
    0.474663     0.349745     0.593670 
    0.509159     0.324110     0.485719 
    0.475031     0.367103     0.382662 
    0.768398     0.494919     0.496696 
    0.335867     0.499170     0.502245 
    0.602277     0.497940     0.499423 
EA6121 16.464 15.688 15.037 90.00 90.00 90.00 Sym.group:    0
1.0
   16.464414     0.000000     0.000000
    0.000000    15.687874     0.000000
    0.000000     0.000000    15.037105
   W   B
  12  22
Direct
    0.572443     0.491701     0.509960 
    0.497411     0.434862     0.349854 
    0.577829     0.334977     0.567593 
    0.352148     0.472047     0.312457 
    0.366149     0.360130     0.432074 
    0.403732     0.361636     0.620576 
    0.586270     0.584127     0.363431 
    0.669724     0.628457     0.512355 
    0.346811     0.607007     0.420755 
    0.447135     0.680755     0.544722 
    0.545051     0.592619     0.646449 
    0.411483     0.503830     0.554223 
    0.677454     0.404321     0.479789 
    0.470621     0.555065     0.437296 
    0.516822     0.441974     0.651397 
    0.450048     0.574523     0.327014 
    0.300702     0.419793     0.543579 
    0.676558     0.423459     0.597233 
    0.631912     0.447700     0.368690 
    0.475196     0.391570     0.496437 
    0.455825     0.279076     0.523967 
    0.601118     0.356560     0.420143 
    0.293434     0.475548     0.443972 
    0.511081     0.303773     0.434119 
    0.474752     0.662023     0.395895 
    0.720837     0.496177     0.527128 
    0.671391     0.531795     0.617448 
    0.693063     0.517861     0.422189 
    0.559849     0.693341     0.452790 
    0.408998     0.603769     0.659410 
    0.330763     0.619785     0.577077 
    0.282106     0.536908     0.532154 
    0.445957     0.506490     0.696144 
    0.575325     0.706340     0.561683 
EA12016 17.473 15.307 14.381 90.00 90.00 90.00 Sym.group:    0
1.0
   17.473435     0.000000     0.000000
    0.000000    15.306601     0.000000
    0.000000     0.000000    14.381318
   W   B
  12  23
Direct
    0.558530     0.437902     0.663891 
    0.322406     0.467982     0.630650 
    0.363766     0.308591     0.583713 
    0.495712     0.391510     0.359456 
    0.497419     0.331032     0.532284 
    0.430468     0.490689     0.500698 
    0.520579     0.649338     0.464813 
    0.585422     0.498533     0.502107 
    0.633131     0.442227     0.329555 
    0.667313     0.562259     0.662685 
    0.383046     0.625558     0.601719 
    0.530038     0.606597     0.643033 
    0.436904     0.508804     0.678117 
    0.291410     0.507569     0.489168 
    0.436177     0.398871     0.657353 
    0.621620     0.355948     0.557845 
    0.392453     0.344226     0.442402 
    0.605009     0.353348     0.441327 
    0.358773     0.429279     0.379015 
    0.709770     0.603390     0.526072 
    0.646737     0.639201     0.447392 
    0.610426     0.575350     0.365710 
    0.516514     0.531086     0.361299 
    0.688907     0.417268     0.467945 
    0.693513     0.534992     0.426759 
    0.679683     0.427765     0.608323 
    0.414577     0.499454     0.324913 
    0.265314     0.582570     0.573587 
    0.435718     0.594715     0.370345 
    0.347526     0.553550     0.392298 
    0.628935     0.659277     0.561544 
    0.301214     0.620931     0.475947 
    0.390818     0.650306     0.451414 
    0.726438     0.499454     0.541837 
    0.313737     0.400429     0.484782 
EA14737 17.639 16.292 15.588 90.00 90.00 90.00 Sym.group:    0
1.0
   17.638784     0.000000     0.000000
    0.000000    16.292071     0.000000
    0.000000     0.000000    15.588039
   W   B
  12  24
Direct
    0.629283     0.367218     0.536055 
    0.549878     0.359051     0.368210 
    0.499235     0.543323     0.396387 
    0.581571     0.533817     0.544891 
    0.654526     0.475015     0.408306 
    0.740681     0.473476     0.542062 
    0.532532     0.692507     0.456797 
    0.401824     0.351693     0.547575 
    0.394478     0.425323     0.403473 
    0.325393     0.483872     0.556484 
    0.442589     0.617191     0.562312 
    0.459305     0.483774     0.658977 
    0.479604     0.441908     0.299295 
    0.638077     0.660791     0.515749 
    0.658392     0.462615     0.638670 
    0.569192     0.479843     0.293441 
    0.624713     0.610277     0.417994 
    0.695931     0.583049     0.497781 
    0.605894     0.568239     0.324018 
    0.591556     0.268394     0.449736 
    0.523994     0.426815     0.476641 
    0.297989     0.522528     0.419533 
    0.374010     0.565993     0.385940 
    0.319701     0.618952     0.586096 
    0.294181     0.357633     0.486449 
    0.420570     0.648052     0.419714 
    0.520326     0.310143     0.508281 
    0.333769     0.606902     0.481398 
    0.262166     0.434428     0.438291 
    0.448266     0.485627     0.519175 
    0.360721     0.568631     0.661894 
    0.539511     0.602121     0.663087 
    0.580707     0.515389     0.689297 
    0.560612     0.673335     0.587350 
    0.514547     0.361141     0.602896 
    0.574274     0.420938     0.655745 
EA17430 15.522 15.584 14.211 90.00 90.00 90.00 Sym.group:    0
1.0
   15.522212     0.000000     0.000000
    0.000000    15.584024     0.000000
    0.000000     0.000000    14.210705
   W   B
  12  25
Direct
    0.626761     0.364501     0.594823 
    0.445699     0.322439     0.595242 
    0.318961     0.457983     0.594543 
    0.373155     0.635571     0.594629 
    0.554300     0.677181     0.594930 
    0.681500     0.542154     0.594808 
    0.552032     0.671326     0.390867 
    0.376837     0.631198     0.390947 
    0.325435     0.459672     0.390871 
    0.447617     0.328768     0.390865 
    0.622966     0.369173     0.391190 
    0.674777     0.540336     0.390694 
    0.500114     0.499981     0.719910 
    0.421867     0.427192     0.496654 
    0.397933     0.530782     0.496608 
    0.476066     0.603933     0.497187 
    0.577663     0.573228     0.496558 
    0.601810     0.468641     0.496729 
    0.524416     0.396047     0.497213 
    0.523740     0.394111     0.285962 
    0.419631     0.426217     0.285604 
    0.395539     0.532564     0.285365 
    0.476238     0.605809     0.285794 
    0.580491     0.573767     0.285824 
    0.604430     0.467552     0.285514 
    0.475073     0.606559     0.698426 
    0.395287     0.531502     0.698428 
    0.420285     0.425345     0.698745 
    0.524977     0.393393     0.698410 
    0.604838     0.468484     0.698302 
    0.579861     0.574653     0.698616 
    0.712068     0.436265     0.496744 
    0.550815     0.284927     0.496564 
    0.338568     0.348843     0.496583 
    0.287892     0.563542     0.496624 
    0.449096     0.715112     0.496678 
    0.661264     0.651249     0.496542 
EA16328 16.562 15.947 14.048 90.00 90.00 90.00 Sym.group:    0
1.0
   16.561844     0.000000     0.000000
    0.000000    15.947410     0.000000
    0.000000     0.000000    14.047905
   W   B
  13  21
Direct
    0.507064     0.538326     0.653723 
    0.512611     0.663769     0.482786 
    0.585031     0.518662     0.483679 
    0.664541     0.362134     0.440881 
    0.634282     0.643343     0.611933 
    0.727201     0.539921     0.521674 
    0.419359     0.519335     0.487289 
    0.375944     0.610970     0.345646 
    0.360311     0.417271     0.343566 
    0.522547     0.411644     0.370507 
    0.282744     0.591832     0.525574 
    0.403777     0.359365     0.521304 
    0.539226     0.273632     0.465219 
    0.652309     0.650454     0.458072 
    0.642784     0.510817     0.642897 
    0.579763     0.422286     0.642260 
    0.670577     0.418938     0.581529 
    0.685649     0.577947     0.379271 
    0.683736     0.476908     0.370075 
    0.414950     0.639930     0.593482 
    0.595712     0.625394     0.362161 
    0.511141     0.675863     0.635687 
    0.510196     0.571911     0.343300 
    0.614343     0.328048     0.578822 
    0.397916     0.455081     0.650297 
    0.512610     0.314773     0.602778 
    0.480095     0.400427     0.653202 
    0.363846     0.552894     0.638964 
    0.283833     0.526367     0.393835 
    0.432048     0.309976     0.379367 
    0.378775     0.670877     0.483080 
    0.293790     0.448279     0.474603 
    0.314942     0.467933     0.587290 
    0.446346     0.504693     0.295247 
EA17544 16.430 15.818 15.330 90.00 90.00 90.00 Sym.group:    0
1.0
   16.430252     0.000000     0.000000
    0.000000    15.817997     0.000000
    0.000000     0.000000    15.329898
   W   B
  13  22
Direct
    0.580576     0.656392     0.434108 
    0.587678     0.635879     0.608292 
    0.586434     0.475999     0.663240 
    0.586564     0.336452     0.564012 
    0.581758     0.362796     0.391044 
    0.576055     0.521762     0.329780 
    0.417443     0.663000     0.434667 
    0.413707     0.526536     0.325969 
    0.417811     0.377408     0.402354 
    0.419121     0.342570     0.568528 
    0.422504     0.473509     0.676607 
    0.420045     0.637988     0.612821 
    0.286273     0.361077     0.479857 
    0.307950     0.467938     0.400019 
    0.317247     0.572107     0.417426 
    0.322359     0.606336     0.520366 
    0.321880     0.541113     0.604958 
    0.315917     0.435820     0.590524 
    0.687132     0.432353     0.580316 
    0.686801     0.538089     0.595509 
    0.684267     0.603926     0.510012 
    0.682209     0.563439     0.408150 
    0.681796     0.457796     0.393741 
    0.686853     0.390102     0.479507 
    0.501726     0.712610     0.532380 
    0.504156     0.578542     0.701215 
    0.506943     0.365810     0.671929 
    0.500495     0.290802     0.469570 
    0.496047     0.419760     0.292953 
    0.496363     0.633420     0.324726 
    0.709196     0.498046     0.493811 
    0.291712     0.503489     0.504647 
    0.495906     0.542539     0.446902 
    0.506784     0.439323     0.503718 
    0.500294     0.535271     0.566341 
EA5725 15.477 16.402 15.958 90.00 90.00 90.00 Sym.group:    0
1.0
   15.476989     0.000000     0.000000
    0.000000    16.402174     0.000000
    0.000000     0.000000    15.958012
   W   B
  13  23
Direct
    0.284117     0.475958     0.464453 
    0.416576     0.349963     0.617564 
    0.393969     0.516987     0.340865 
    0.468257     0.407789     0.481442 
    0.616731     0.405577     0.375248 
    0.776414     0.539323     0.514045 
    0.623008     0.520136     0.475153 
    0.687846     0.436443     0.613524 
    0.573555     0.663580     0.429510 
    0.386824     0.686261     0.422341 
    0.551942     0.517754     0.636108 
    0.376792     0.510793     0.627634 
    0.455461     0.563869     0.491958 
    0.294851     0.406944     0.583252 
    0.249716     0.504770     0.586686 
    0.306667     0.599724     0.522382 
    0.359424     0.385600     0.391237 
    0.569455     0.313316     0.462487 
    0.451807     0.393809     0.339026 
    0.517114     0.458301     0.296752 
    0.297688     0.593238     0.411396 
    0.334435     0.356074     0.495859 
    0.541093     0.544818     0.349916 
    0.651622     0.356668     0.505881 
    0.564829     0.324702     0.566027 
    0.678307     0.573684     0.606729 
    0.743425     0.474497     0.403014 
    0.735198     0.413510     0.485271 
    0.574589     0.637317     0.567463 
    0.482083     0.697202     0.533360 
    0.681985     0.640191     0.523334 
    0.382806     0.661218     0.566193 
    0.470377     0.431677     0.701518 
    0.553050     0.380885     0.653083 
    0.472478     0.629682     0.620259 
    0.475508     0.627741     0.339030 
EA17431 17.410 15.685 15.744 90.00 90.00 90.00 Sym.group:    0
1.0
   17.410253     0.000000     0.000000
    0.000000    15.685292     0.000000
    0.000000     0.000000    15.744127
   W   B
  13  24
Direct
    0.423666     0.328559     0.607027 
    0.461265     0.653868     0.503498 
    0.405865     0.485751     0.507317 
    0.317234     0.466663     0.623198 
    0.322315     0.514516     0.359644 
    0.455183     0.447900     0.683854 
    0.438217     0.522912     0.278341 
    0.611084     0.471283     0.650423 
    0.533988     0.374089     0.492670 
    0.706651     0.449676     0.537509 
    0.567205     0.539816     0.497178 
    0.629668     0.695924     0.526796 
    0.559159     0.461931     0.355558 
    0.427570     0.417122     0.373264 
    0.415034     0.343891     0.462923 
    0.406009     0.616676     0.375769 
    0.341901     0.609547     0.457575 
    0.335369     0.600320     0.566934 
    0.402419     0.572220     0.636341 
    0.276568     0.436396     0.482873 
    0.329826     0.356274     0.521970 
    0.278189     0.539020     0.505860 
    0.341524     0.391782     0.416499 
    0.501194     0.582830     0.629620 
    0.657601     0.328379     0.486390 
    0.631122     0.345140     0.589000 
    0.547238     0.350419     0.644669 
    0.677886     0.512041     0.409990 
    0.702690     0.584048     0.483803 
    0.639319     0.609126     0.397809 
    0.681115     0.583492     0.588376 
    0.537679     0.687234     0.610167 
    0.600021     0.612029     0.640612 
    0.669458     0.403957     0.412767 
    0.564760     0.673088     0.415476 
    0.499544     0.601179     0.375925 
    0.604461     0.330902     0.392372 
EA8746 16.969 16.634 15.018 90.00 90.00 90.00 Sym.group:    0
1.0
   16.969011     0.000000     0.000000
    0.000000    16.634082     0.000000
    0.000000     0.000000    15.018308
   W   B
  13  25
Direct
    0.489319     0.494168     0.348002 
    0.454735     0.346127     0.392043 
    0.601315     0.404978     0.304362 
    0.538034     0.656617     0.357681 
    0.705727     0.477225     0.390422 
    0.418903     0.443316     0.523713 
    0.583303     0.408258     0.479280 
    0.599404     0.568182     0.466240 
    0.433626     0.607567     0.493450 
    0.551014     0.640812     0.629967 
    0.410708     0.543884     0.664753 
    0.506865     0.398825     0.656302 
    0.643741     0.500955     0.639697 
    0.350582     0.520927     0.339332 
    0.375395     0.427874     0.319840 
    0.318527     0.533788     0.452480 
    0.423716     0.617683     0.338015 
    0.545504     0.272745     0.474516 
    0.579524     0.301207     0.376742 
    0.629271     0.686978     0.525967 
    0.616746     0.545713     0.319953 
    0.322941     0.427930     0.414096 
    0.340151     0.608572     0.384398 
    0.320455     0.538876     0.562889 
    0.480816     0.321783     0.536558 
    0.702915     0.429622     0.537067 
    0.537950     0.712858     0.499963 
    0.573271     0.303099     0.576134 
    0.718047     0.528365     0.528475 
    0.462087     0.723031     0.566789 
    0.311245     0.451060     0.618466 
    0.519622     0.518544     0.576469 
    0.640393     0.373532     0.607745 
    0.678082     0.614708     0.577257 
    0.417931     0.668791     0.636804 
    0.383492     0.405896     0.671094 
    0.282918     0.452111     0.510672 
    0.531728     0.523394     0.702367 
EA17545 17.755 14.481 14.218 90.00 90.00 90.00 Sym.group:    0
1.0
   17.755091     0.000000     0.000000
    0.000000    14.481076     0.000000
    0.000000     0.000000    14.217808
   W   B
  14  21
Direct
    0.554779     0.427524     0.666895 
    0.322065     0.453358     0.626893 
    0.364257     0.296851     0.562733 
    0.294403     0.398444     0.448911 
    0.503188     0.321404     0.522502 
    0.431852     0.481682     0.502757 
    0.514258     0.654950     0.482381 
    0.593778     0.506242     0.508268 
    0.667177     0.557225     0.672907 
    0.391522     0.625374     0.615187 
    0.531926     0.604278     0.660891 
    0.706121     0.383610     0.455765 
    0.324394     0.545561     0.372313 
    0.724354     0.539083     0.401913 
    0.436144     0.496936     0.676224 
    0.254330     0.528567     0.509415 
    0.436182     0.381610     0.650026 
    0.617075     0.348552     0.557980 
    0.404238     0.326377     0.420424 
    0.579876     0.378016     0.405705 
    0.388509     0.412751     0.345108 
    0.704395     0.608701     0.534802 
    0.643634     0.649923     0.452631 
    0.608589     0.584857     0.360611 
    0.518418     0.572409     0.345570 
    0.676812     0.420584     0.609474 
    0.446091     0.499998     0.328050 
    0.275275     0.590792     0.603826 
    0.433496     0.608688     0.376312 
    0.621828     0.659480     0.568794 
    0.300250     0.632729     0.498644 
    0.386168     0.657041     0.464182 
    0.629321     0.461951     0.358832 
    0.482280     0.386511     0.381039 
    0.733016     0.497943     0.552032 
EA6976 16.601 16.901 15.506 90.00 90.00 90.00 Sym.group:    0
1.0
   16.601312     0.000000     0.000000
    0.000000    16.901064     0.000000
    0.000000     0.000000    15.506188
   W   B
  14  22
Direct
    0.322132     0.494012     0.555265 
    0.598494     0.707435     0.509282 
    0.298856     0.639869     0.527706 
    0.463070     0.607956     0.553232 
    0.633880     0.547611     0.490941 
    0.509096     0.620884     0.378855 
    0.539243     0.506677     0.663521 
    0.387371     0.428732     0.306766 
    0.356064     0.563371     0.409864 
    0.538660     0.478334     0.326009 
    0.466662     0.388412     0.444595 
    0.407079     0.264977     0.507991 
    0.424717     0.373325     0.618298 
    0.720052     0.407289     0.482207 
    0.441925     0.584208     0.700061 
    0.402629     0.498834     0.665982 
    0.480458     0.723315     0.473872 
    0.510656     0.511485     0.459158 
    0.597275     0.619304     0.607006 
    0.641702     0.650912     0.400513 
    0.729132     0.488996     0.580769 
    0.639190     0.435199     0.591802 
    0.355250     0.592457     0.647533 
    0.395110     0.685094     0.444455 
    0.667563     0.470438     0.377140 
    0.635800     0.566680     0.348469 
    0.432545     0.545655     0.290756 
    0.320021     0.433264     0.425469 
    0.600017     0.403803     0.421410 
    0.607803     0.350823     0.517176 
    0.524113     0.303389     0.558343 
    0.346889     0.335096     0.404943 
    0.458083     0.479098     0.546651 
    0.555577     0.383022     0.616243 
    0.329183     0.366619     0.513707 
    0.663703     0.543423     0.634011 
EA17432 17.123 15.545 14.524 90.00 90.00 90.00 Sym.group:    0
1.0
   17.122794     0.000000     0.000000
    0.000000    15.544856     0.000000
    0.000000     0.000000    14.523730
   W   B
  14  23
Direct
    0.412128     0.472175     0.497305 
    0.366003     0.592636     0.378356 
    0.519602     0.690886     0.395753 
    0.563283     0.653600     0.580573 
    0.507825     0.522760     0.341169 
    0.268756     0.473976     0.405931 
    0.365991     0.531970     0.650407 
    0.474215     0.353322     0.375381 
    0.513307     0.338682     0.553068 
    0.581712     0.481978     0.511006 
    0.650943     0.524493     0.655450 
    0.683153     0.428718     0.396843 
    0.510954     0.553871     0.714895 
    0.588422     0.379388     0.281487 
    0.275973     0.469693     0.557535 
    0.491494     0.583933     0.476916 
    0.383968     0.452157     0.339161 
    0.456363     0.708872     0.533352 
    0.299801     0.564172     0.514331 
    0.400307     0.710612     0.440742 
    0.619100     0.612612     0.349560 
    0.637112     0.663649     0.449260 
    0.345866     0.366368     0.405175 
    0.594671     0.323588     0.419621 
    0.647523     0.343675     0.512977 
    0.392956     0.319822     0.497860 
    0.630946     0.383003     0.620950 
    0.555168     0.427753     0.674194 
    0.386423     0.367679     0.601783 
    0.308529     0.374946     0.518752 
    0.723673     0.519451     0.516942 
    0.681843     0.613275     0.537885 
    0.705069     0.421621     0.554944 
    0.686128     0.569449     0.423391 
    0.375438     0.631294     0.530482 
    0.454330     0.429421     0.657653 
    0.441025     0.644500     0.628911 
EA12149 17.231 16.452 14.507 90.00 90.00 90.00 Sym.group:    0
1.0
   17.231207     0.000000     0.000000
    0.000000    16.452243     0.000000
    0.000000     0.000000    14.506972
   W   B
  14  24
Direct
    0.592794     0.509517     0.436630 
    0.723273     0.588832     0.585719 
    0.573377     0.532461     0.614913 
    0.625062     0.675050     0.520359 
    0.517273     0.680727     0.646253 
    0.382097     0.665619     0.546089 
    0.420729     0.554344     0.649721 
    0.465970     0.413346     0.705134 
    0.320493     0.399796     0.431362 
    0.331181     0.428777     0.617764 
    0.528379     0.283827     0.432357 
    0.435169     0.507357     0.368702 
    0.463175     0.421820     0.524330 
    0.448329     0.289703     0.616777 
    0.542875     0.688259     0.404902 
    0.699018     0.594004     0.428046 
    0.618388     0.630796     0.376983 
    0.637516     0.322942     0.490517 
    0.685320     0.410430     0.463693 
    0.726255     0.502320     0.463481 
    0.611393     0.402030     0.572528 
    0.569266     0.306552     0.570279 
    0.681882     0.470542     0.563242 
    0.635130     0.646670     0.668486 
    0.525273     0.599650     0.348247 
    0.498575     0.714102     0.502868 
    0.354772     0.615262     0.406110 
    0.449683     0.642325     0.417201 
    0.301946     0.561966     0.589161 
    0.285982     0.599955     0.484035 
    0.269356     0.497138     0.506941 
    0.405102     0.297532     0.459613 
    0.611465     0.374626     0.395099 
    0.342315     0.317432     0.542486 
    0.522994     0.403909     0.368805 
    0.433638     0.365522     0.374917 
    0.307320     0.526502     0.399426 
    0.457237     0.558361     0.506822 
EA17360 16.781 16.291 15.085 90.00 90.00 90.00 Sym.group:    0
1.0
   16.780632     0.000000     0.000000
    0.000000    16.291453     0.000000
    0.000000     0.000000    15.084649
   W   B
  14  25
Direct
    0.519693     0.351795     0.489038 
    0.595064     0.622441     0.642398 
    0.621045     0.366381     0.608938 
    0.575394     0.507822     0.512011 
    0.613370     0.407650     0.345293 
    0.590991     0.633802     0.388079 
    0.700388     0.507826     0.415559 
    0.405934     0.479437     0.506711 
    0.502993     0.478193     0.662888 
    0.377108     0.303710     0.516332 
    0.289950     0.410272     0.434550 
    0.463911     0.640732     0.544266 
    0.485345     0.542214     0.280313 
    0.436594     0.666434     0.359804 
    0.492407     0.338291     0.637273 
    0.411652     0.372410     0.400307 
    0.489124     0.448642     0.385453 
    0.699168     0.560937     0.575842 
    0.725036     0.379880     0.510871 
    0.645753     0.329782     0.467428 
    0.709836     0.461630     0.571043 
    0.642401     0.496462     0.647497 
    0.664211     0.629253     0.507303 
    0.721207     0.371642     0.403539 
    0.620523     0.534399     0.296367 
    0.276625     0.488624     0.562836 
    0.311299     0.397135     0.586797 
    0.402791     0.382638     0.632976 
    0.393222     0.571830     0.655743 
    0.352328     0.476776     0.646411 
    0.479060     0.610289     0.691181 
    0.386084     0.456579     0.341677 
    0.587674     0.696153     0.523098 
    0.517129     0.727227     0.450176 
    0.354934     0.617803     0.458177 
    0.281250     0.547216     0.475219 
    0.330765     0.584721     0.566243 
    0.339187     0.542362     0.380264 
    0.488554     0.558611     0.420098 
EA17484 17.444 16.136 14.909 90.00 90.00 90.00 Sym.group:    0
1.0
   17.444186     0.000000     0.000000
    0.000000    16.135525     0.000000
    0.000000     0.000000    14.909022
   W   B
  15  21
Direct
    0.405864     0.502588     0.479525 
    0.624809     0.367178     0.504230 
    0.383825     0.348670     0.429236 
    0.437154     0.582275     0.626155 
    0.493780     0.402756     0.605394 
    0.587821     0.530273     0.667855 
    0.557814     0.524411     0.499102 
    0.341498     0.632652     0.395248 
    0.477463     0.570163     0.342233 
    0.545219     0.675955     0.579499 
    0.700744     0.532341     0.431764 
    0.506974     0.272303     0.470394 
    0.348364     0.691206     0.540432 
    0.516078     0.407273     0.376960 
    0.288732     0.517493     0.595313 
    0.384537     0.462364     0.666117 
    0.683241     0.443687     0.615535 
    0.400274     0.456995     0.330959 
    0.607585     0.398133     0.645511 
    0.416656     0.302252     0.559218 
    0.254500     0.614225     0.506190 
    0.360260     0.389249     0.574119 
    0.275713     0.527278     0.448082 
    0.292357     0.427951     0.491148 
    0.470454     0.485290     0.715131 
    0.629346     0.647218     0.469495 
    0.725013     0.402807     0.424607 
    0.650216     0.422230     0.364420 
    0.661320     0.610270     0.566631 
    0.740675     0.440932     0.524094 
    0.542316     0.662983     0.428571 
    0.453502     0.651748     0.469739 
    0.602767     0.605810     0.368020 
    0.722067     0.530122     0.576271 
    0.599174     0.508728     0.333166 
    0.311890     0.452188     0.379635 
EA17433 16.091 16.271 15.852 90.00 90.00 90.00 Sym.group:    0
1.0
   16.091216     0.000000     0.000000
    0.000000    16.271149     0.000000
    0.000000     0.000000    15.851573
   W   B
  15  22
Direct
    0.500854     0.501791     0.498984 
    0.347295     0.439608     0.466493 
    0.654054     0.560726     0.530103 
    0.354147     0.596537     0.527562 
    0.645735     0.405973     0.465740 
    0.477397     0.335875     0.522824 
    0.410925     0.450647     0.636214 
    0.506683     0.383017     0.368599 
    0.429409     0.570248     0.363909 
    0.513889     0.604828     0.630625 
    0.585410     0.537562     0.355307 
    0.500761     0.676744     0.483242 
    0.574797     0.442618     0.642200 
    0.633617     0.713268     0.556787 
    0.369506     0.307682     0.382406 
    0.423188     0.705232     0.587999 
    0.574377     0.288816     0.429539 
    0.699384     0.445473     0.589222 
    0.500264     0.512550     0.728031 
    0.710926     0.501638     0.403326 
    0.534562     0.659928     0.354845 
    0.292395     0.488999     0.583824 
    0.483500     0.479360     0.279717 
    0.297369     0.568989     0.410044 
    0.480702     0.339457     0.660163 
    0.294060     0.397311     0.335043 
    0.715380     0.677256     0.467500 
    0.381029     0.645104     0.660003 
    0.609481     0.283596     0.527644 
    0.572057     0.306436     0.624085 
    0.323781     0.556236     0.657077 
    0.389856     0.439234     0.308475 
    0.302657     0.496871     0.339418 
    0.411113     0.563040     0.717073 
    0.710813     0.601467     0.401193 
    0.624197     0.667561     0.412301 
    0.664433     0.348323     0.592487 
EA12471 17.220 16.086 15.874 90.00 90.00 90.00 Sym.group:    0
1.0
   17.219964     0.000000     0.000000
    0.000000    16.085684     0.000000
    0.000000     0.000000    15.874493
   W   B
  15  23
Direct
    0.338966     0.460093     0.693432 
    0.350106     0.444794     0.476367 
    0.485370     0.426482     0.618010 
    0.440620     0.572135     0.658818 
    0.598232     0.479721     0.502246 
    0.597572     0.637757     0.453459 
    0.653308     0.596906     0.604833 
    0.376434     0.698147     0.444851 
    0.459933     0.553940     0.487170 
    0.507639     0.414679     0.365820 
    0.448063     0.575714     0.332650 
    0.706189     0.355179     0.516653 
    0.320646     0.586965     0.552941 
    0.649702     0.425524     0.642791 
    0.498262     0.762375     0.493851 
    0.421756     0.335896     0.438540 
    0.272113     0.466099     0.584251 
    0.387826     0.344804     0.647854 
    0.508634     0.346366     0.490095 
    0.601587     0.347409     0.442677 
    0.314220     0.375049     0.589916 
    0.562927     0.523324     0.671435 
    0.719806     0.464713     0.440697 
    0.557166     0.626939     0.678915 
    0.727959     0.490572     0.549414 
    0.492396     0.694111     0.384972 
    0.708638     0.568246     0.479384 
    0.669095     0.540975     0.388060 
    0.413906     0.452677     0.281377 
    0.381852     0.386475     0.353476 
    0.344576     0.486815     0.343034 
    0.337501     0.570157     0.408758 
    0.424353     0.675783     0.567239 
    0.525724     0.661096     0.582586 
    0.575090     0.531499     0.361443 
    0.635155     0.440391     0.372982 
    0.403627     0.334707     0.542546 
    0.583053     0.345484     0.556460 
EA17361 16.779 18.097 15.314 90.00 90.00 90.00 Sym.group:    0
1.0
   16.778813     0.000000     0.000000
    0.000000    18.096681     0.000000
    0.000000     0.000000    15.314171
   W   B
  15  24
Direct
    0.435730     0.445506     0.511367 
    0.318235     0.561998     0.536250 
    0.447046     0.463986     0.334872 
    0.340212     0.366323     0.412312 
    0.315229     0.395837     0.604047 
    0.494671     0.326141     0.422876 
    0.545190     0.671962     0.544181 
    0.592196     0.539786     0.647870 
    0.549973     0.547820     0.460956 
    0.602322     0.419038     0.355303 
    0.606053     0.415322     0.530109 
    0.696135     0.533505     0.421532 
    0.586261     0.539683     0.281488 
    0.496096     0.420200     0.672769 
    0.582346     0.657991     0.340279 
    0.410449     0.652652     0.577104 
    0.408134     0.559808     0.430873 
    0.508973     0.359732     0.283542 
    0.362512     0.655455     0.472526 
    0.473875     0.586920     0.342075 
    0.335325     0.490792     0.409947 
    0.416361     0.345049     0.307017 
    0.279128     0.454520     0.487674 
    0.378220     0.492617     0.646725 
    0.397178     0.317485     0.526188 
    0.388626     0.585959     0.647615 
    0.433603     0.715307     0.496941 
    0.417141     0.330426     0.633246 
    0.461957     0.532936     0.692170 
    0.732931     0.447514     0.524330 
    0.705682     0.406720     0.433045 
    0.621229     0.417358     0.679704 
    0.694883     0.457808     0.631905 
    0.706505     0.526308     0.566323 
    0.485391     0.615703     0.648293 
    0.651616     0.650370     0.454800 
    0.656703     0.603464     0.545439 
    0.467932     0.653745     0.421373 
    0.497953     0.336251     0.564934 
EA17346 17.372 16.170 15.958 90.00 90.00 90.00 Sym.group:    0
1.0
   17.372445     0.000000     0.000000
    0.000000    16.170173     0.000000
    0.000000     0.000000    15.957662
   W   B
  15  25
Direct
    0.468252     0.355626     0.417161 
    0.444276     0.625784     0.360594 
    0.548784     0.445657     0.522557 
    0.677988     0.507870     0.552231 
    0.616841     0.432076     0.378577 
    0.569939     0.583992     0.430705 
    0.638846     0.342805     0.604270 
    0.394747     0.467193     0.320027 
    0.409362     0.402572     0.599111 
    0.418687     0.520515     0.486925 
    0.479408     0.476124     0.724028 
    0.446110     0.691749     0.511925 
    0.531805     0.590154     0.605703 
    0.323160     0.350939     0.413280 
    0.756645     0.422764     0.412537 
    0.509360     0.417063     0.304171 
    0.516201     0.518727     0.317875 
    0.636513     0.703766     0.456404 
    0.705219     0.537539     0.413908 
    0.696883     0.624656     0.464776 
    0.739336     0.388631     0.539204 
    0.673208     0.346158     0.473385 
    0.642656     0.642673     0.548753 
    0.544474     0.722470     0.428703 
    0.580906     0.314633     0.483668 
    0.398613     0.644386     0.634343 
    0.441713     0.599005     0.710216 
    0.403617     0.537205     0.633337 
    0.296483     0.438565     0.512142 
    0.338376     0.618059     0.555386 
    0.327622     0.567521     0.382673 
    0.292138     0.476316     0.411303 
    0.344151     0.641884     0.451521 
    0.567612     0.704667     0.531909 
    0.591060     0.465668     0.658538 
    0.525910     0.375276     0.646311 
    0.501515     0.313149     0.552659 
    0.398020     0.293354     0.515985 
    0.313183     0.339660     0.543288 
    0.290379     0.553148     0.489913 
