EA3    17.837 15.037 14.802 90.00 90.00 90.00 Sym.group:    0
1.0
   17.837141     0.000000     0.000000
    0.000000    15.036889     0.000000
    0.000000     0.000000    14.801987
   W   B
  15  25
Direct
    0.378621     0.563385     0.671447 
    0.363419     0.692019     0.541587 
    0.385904     0.631555     0.380657 
    0.397806     0.450831     0.342944 
    0.385073     0.327187     0.467432 
    0.387759     0.390491     0.636149 
    0.609123     0.679981     0.468788 
    0.621128     0.640861     0.638362 
    0.603663     0.470767     0.684092 
    0.604121     0.321342     0.562542 
    0.603289     0.364409     0.372186 
    0.605354     0.565679     0.325962 
    0.598660     0.492732     0.501049 
    0.363564     0.511707     0.508094 
    0.493467     0.617122     0.559944 
    0.511039     0.660772     0.366556 
    0.522757     0.477253     0.360366 
    0.490673     0.395294     0.426831 
    0.491712     0.375619     0.546460 
    0.480089     0.472223     0.701086 
    0.729239     0.495950     0.503911 
    0.694957     0.388144     0.476691 
    0.692685     0.420112     0.588164 
    0.699144     0.529294     0.614081 
    0.706123     0.606808     0.533612 
    0.693701     0.578322     0.425724 
    0.689879     0.470229     0.389732 
    0.293260     0.418987     0.420795 
    0.293152     0.532298     0.383641 
    0.279806     0.617137     0.463433 
    0.276859     0.591220     0.582930 
    0.285154     0.477574     0.623694 
    0.291053     0.390922     0.540385 
    0.513178     0.291591     0.466091 
    0.516144     0.371022     0.661086 
    0.519757     0.573506     0.702690 
    0.472672     0.716360     0.452717 
    0.482303     0.570728     0.306863 
    0.495003     0.368892     0.307231 
    0.478713     0.489674     0.493997 
EA462  15.873 15.873 15.873 90.00 90.00 90.00 Sym.group:    0
1.0
   15.873020     0.000000     0.000000
    0.000000    15.873020     0.000000
    0.000000     0.000000    15.873020
   W   B
  12  24
Direct
    0.649224     0.430643     0.537516 
    0.349857     0.563117     0.453885 
    0.349783     0.437083     0.546245 
    0.649323     0.568986     0.462373 
    0.420200     0.575369     0.631613 
    0.494400     0.585239     0.353574 
    0.420270     0.424640     0.368398 
    0.506880     0.669296     0.485379 
    0.576858     0.584333     0.623327 
    0.494513     0.415302     0.646232 
    0.576942     0.415767     0.376721 
    0.506763     0.330629     0.514670 
    0.598466     0.324870     0.615121 
    0.403277     0.677166     0.390457 
    0.598486     0.675007     0.385015 
    0.403479     0.322980     0.609544 
    0.497593     0.693476     0.623345 
    0.291130     0.445628     0.418847 
    0.502388     0.471476     0.270799 
    0.291053     0.554314     0.581159 
    0.502533     0.528675     0.729235 
    0.707748     0.550682     0.584081 
    0.497546     0.306315     0.376584 
    0.707577     0.449168     0.415790 
    0.404311     0.289604     0.418534 
    0.595863     0.515872     0.273824 
    0.595969     0.484305     0.726136 
    0.404240     0.710253     0.581594 
    0.367019     0.294283     0.517480 
    0.318413     0.347053     0.438222 
    0.366833     0.705750     0.482581 
    0.681852     0.491089     0.664641 
    0.634412     0.603054     0.321142 
    0.318445     0.652917     0.561835 
    0.634465     0.396823     0.678841 
    0.681887     0.508837     0.335259 
EA699  16.773 15.150 17.318 90.00 90.00 90.00 Sym.group:    0
1.0
   16.772853     0.000000     0.000000
    0.000000    15.149981     0.000000
    0.000000     0.000000    17.318239
   W   B
  12  25
Direct
    0.315537     0.631760     0.410533 
    0.531448     0.282051     0.558902 
    0.292441     0.638923     0.544340 
    0.279850     0.389763     0.491444 
    0.484561     0.494817     0.587040 
    0.426357     0.376491     0.479069 
    0.443538     0.659963     0.487034 
    0.596356     0.688425     0.435070 
    0.682267     0.532995     0.428751 
    0.645973     0.350699     0.416573 
    0.616591     0.589149     0.637880 
    0.628886     0.420237     0.627341 
    0.426928     0.355646     0.610675 
    0.407389     0.628372     0.614829 
    0.345925     0.478049     0.414418 
    0.501660     0.657787     0.611211 
    0.357336     0.431642     0.587064 
    0.424005     0.552037     0.400112 
    0.511788     0.363850     0.657524 
    0.354430     0.539478     0.614403 
    0.268255     0.523329     0.468377 
    0.276004     0.500228     0.566399 
    0.552767     0.724184     0.547647 
    0.700701     0.521329     0.557676 
    0.663511     0.324222     0.538583 
    0.599607     0.501710     0.523637 
    0.566912     0.396931     0.505038 
    0.557211     0.606527     0.528656 
    0.585103     0.573315     0.346532 
    0.598512     0.464399     0.358385 
    0.518941     0.392715     0.383897 
    0.429160     0.446319     0.366597 
    0.501225     0.618695     0.380924 
    0.668158     0.623008     0.528715 
    0.707303     0.421462     0.513121 
    0.528137     0.294948     0.432612 
    0.505224     0.504546     0.338993 
EA1176 16.430 15.818 15.330 90.00 90.00 90.00 Sym.group:    0
1.0
   16.430252     0.000000     0.000000
    0.000000    15.817997     0.000000
    0.000000     0.000000    15.329898
   W   B
  13  22
Direct
    0.580576     0.656392     0.434108 
    0.587678     0.635879     0.608292 
    0.586434     0.475999     0.663240 
    0.586564     0.336452     0.564012 
    0.581758     0.362796     0.391044 
    0.576055     0.521762     0.329780 
    0.417443     0.663000     0.434667 
    0.413707     0.526536     0.325969 
    0.417811     0.377408     0.402354 
    0.419121     0.342570     0.568528 
    0.422504     0.473509     0.676607 
    0.420045     0.637988     0.612821 
    0.286273     0.361077     0.479857 
    0.307950     0.467938     0.400019 
    0.317247     0.572107     0.417426 
    0.322359     0.606336     0.520366 
    0.321880     0.541113     0.604958 
    0.315917     0.435820     0.590524 
    0.687132     0.432353     0.580316 
    0.686801     0.538089     0.595509 
    0.684267     0.603926     0.510012 
    0.682209     0.563439     0.408150 
    0.681796     0.457796     0.393741 
    0.686853     0.390102     0.479507 
    0.501726     0.712610     0.532380 
    0.504156     0.578542     0.701215 
    0.506943     0.365810     0.671929 
    0.500495     0.290802     0.469570 
    0.496047     0.419760     0.292953 
    0.496363     0.633420     0.324726 
    0.709196     0.498046     0.493811 
    0.291712     0.503489     0.504647 
    0.495906     0.542539     0.446902 
    0.506784     0.439323     0.503718 
    0.500294     0.535271     0.566341 
EA1358 17.147 16.749 14.434 90.00 90.00 90.00 Sym.group:    0
1.0
   17.147417     0.000000     0.000000
    0.000000    16.749052     0.000000
    0.000000     0.000000    14.434269
   W   B
  11  25
Direct
    0.431331     0.496474     0.482058 
    0.407018     0.366502     0.608465 
    0.409872     0.509488     0.696795 
    0.367177     0.609366     0.594397 
    0.333191     0.446409     0.371045 
    0.410370     0.333056     0.436830 
    0.632111     0.643060     0.468475 
    0.554759     0.527420     0.380434 
    0.425485     0.622178     0.329787 
    0.469570     0.663334     0.491188 
    0.632053     0.584005     0.646259 
    0.321280     0.474517     0.585959 
    0.534492     0.520897     0.700093 
    0.496076     0.292282     0.534013 
    0.503363     0.431811     0.668047 
    0.549490     0.339030     0.454745 
    0.497888     0.608115     0.644329 
    0.535649     0.363240     0.595344 
    0.310725     0.381814     0.509707 
    0.298924     0.544522     0.480632 
    0.592951     0.455123     0.624957 
    0.256190     0.460113     0.494676 
    0.334289     0.629122     0.441289 
    0.683503     0.469149     0.590104 
    0.713258     0.547850     0.527822 
    0.690420     0.539721     0.408871 
    0.662651     0.449390     0.372824 
    0.372366     0.715183     0.420334 
    0.567400     0.674314     0.592384 
    0.539864     0.658432     0.366617 
    0.604344     0.519668     0.523010 
    0.703474     0.450450     0.478604 
    0.441465     0.493410     0.313945 
    0.487760     0.411323     0.359245 
    0.584271     0.395107     0.361886 
    0.644970     0.374126     0.444831 
EA1677 16.715 15.522 15.405 90.00 90.00 90.00 Sym.group:    0
1.0
   16.714562     0.000000     0.000000
    0.000000    15.522375     0.000000
    0.000000     0.000000    15.404575
   W   B
  15  21
Direct
    0.561506     0.435861     0.525394 
    0.614339     0.398496     0.360654 
    0.643728     0.608926     0.366798 
    0.610371     0.429285     0.673726 
    0.727282     0.453805     0.534445 
    0.627033     0.678966     0.596583 
    0.381006     0.373563     0.572672 
    0.294558     0.426748     0.335265 
    0.406287     0.559540     0.340578 
    0.443503     0.706760     0.447275 
    0.476607     0.655783     0.610535 
    0.458501     0.488948     0.667252 
    0.409652     0.523514     0.510895 
    0.466938     0.398344     0.388989 
    0.255595     0.444206     0.517712 
    0.589127     0.302611     0.567665 
    0.521760     0.624825     0.372543 
    0.663484     0.546813     0.613088 
    0.560268     0.303660     0.451386 
    0.537838     0.518484     0.347956 
    0.675762     0.345510     0.584928 
    0.657642     0.497350     0.432116 
    0.573376     0.570008     0.666578 
    0.663257     0.582185     0.505002 
    0.574391     0.666095     0.467310 
    0.661852     0.332302     0.478880 
    0.505150     0.353461     0.630175 
    0.359611     0.660732     0.541656 
    0.334379     0.629463     0.437360 
    0.290639     0.536876     0.416010 
    0.323416     0.491324     0.629580 
    0.358996     0.593371     0.633682 
    0.493344     0.303587     0.530579 
    0.401682     0.434163     0.273616 
    0.537595     0.750998     0.526330 
    0.339523     0.373437     0.444787 
EA2034 16.673 16.146 15.437 90.00 90.00 90.00 Sym.group:    0
1.0
   16.672598     0.000000     0.000000
    0.000000    16.146017     0.000000
    0.000000     0.000000    15.437274
   W   B
  15  21
Direct
    0.569450     0.488528     0.465500 
    0.614902     0.422019     0.335840 
    0.529528     0.577349     0.343585 
    0.640206     0.474795     0.633371 
    0.725521     0.509979     0.468283 
    0.610815     0.707941     0.552848 
    0.429237     0.363585     0.615742 
    0.298710     0.382945     0.398638 
    0.378340     0.529558     0.358478 
    0.412172     0.671621     0.443882 
    0.464032     0.662472     0.601568 
    0.474165     0.530382     0.695250 
    0.409584     0.504330     0.519015 
    0.461490     0.359373     0.423279 
    0.280498     0.424817     0.567322 
    0.632974     0.358786     0.554861 
    0.485952     0.447467     0.307436 
    0.656438     0.584022     0.553219 
    0.594773     0.335870     0.448264 
    0.515215     0.461871     0.592636 
    0.721215     0.406422     0.551512 
    0.659300     0.550853     0.351243 
    0.579692     0.598446     0.632350 
    0.632810     0.619666     0.437314 
    0.547633     0.681773     0.430846 
    0.688831     0.381673     0.450400 
    0.556707     0.371110     0.636253 
    0.340729     0.634348     0.556537 
    0.304986     0.595999     0.463019 
    0.273844     0.500211     0.447033 
    0.357893     0.473872     0.668966 
    0.362379     0.578311     0.645540 
    0.537504     0.324955     0.535961 
    0.392865     0.401931     0.310328 
    0.503699     0.748465     0.497525 
    0.355909     0.334259     0.506160 
EA2324 16.771 16.078 15.227 90.00 90.00 90.00 Sym.group:    0
1.0
   16.770632     0.000000     0.000000
    0.000000    16.077990     0.000000
    0.000000     0.000000    15.226795
   W   B
  15  21
Direct
    0.578234     0.493557     0.475690 
    0.613047     0.411552     0.352714 
    0.514782     0.551365     0.339508 
    0.631898     0.503737     0.647648 
    0.727119     0.517330     0.480663 
    0.598000     0.716549     0.514736 
    0.422443     0.380710     0.632446 
    0.373977     0.494315     0.339415 
    0.400562     0.656785     0.407755 
    0.451353     0.674832     0.572529 
    0.472552     0.545078     0.681616 
    0.419407     0.511383     0.509280 
    0.467679     0.357105     0.444535 
    0.748442     0.416460     0.599194 
    0.565798     0.375398     0.701588 
    0.638615     0.353739     0.579348 
    0.485437     0.417879     0.301894 
    0.648120     0.602524     0.548906 
    0.593561     0.337870     0.476297 
    0.519879     0.456016     0.595980 
    0.651531     0.539141     0.353982 
    0.569271     0.627773     0.621205 
    0.620958     0.624663     0.410765 
    0.533342     0.678981     0.393739 
    0.684798     0.383727     0.479283 
    0.334246     0.628317     0.524635 
    0.304905     0.564144     0.441732 
    0.296480     0.458781     0.461085 
    0.350817     0.494213     0.655086 
    0.359058     0.593799     0.626046 
    0.536969     0.333670     0.569385 
    0.402988     0.364334     0.319698 
    0.486365     0.746702     0.456696 
    0.348540     0.370916     0.509761 
    0.309153     0.440558     0.575183 
    0.339675     0.376099     0.399975 
EA2614 17.193 15.614 15.408 90.00 90.00 90.00 Sym.group:    0
1.0
   17.192519     0.000000     0.000000
    0.000000    15.613975     0.000000
    0.000000     0.000000    15.408392
   W   B
  14  23
Direct
    0.645965     0.350797     0.491872 
    0.634571     0.486393     0.373031 
    0.352949     0.335090     0.445589 
    0.493814     0.319431     0.492132 
    0.548938     0.461495     0.623858 
    0.393815     0.423444     0.686890 
    0.478366     0.467418     0.356195 
    0.426886     0.488756     0.517327 
    0.561461     0.587789     0.480846 
    0.330908     0.647828     0.496476 
    0.305870     0.490235     0.426130 
    0.411845     0.610948     0.361002 
    0.634482     0.589098     0.624199 
    0.310933     0.543447     0.611945 
    0.395042     0.332032     0.581734 
    0.575613     0.315764     0.612934 
    0.372915     0.391687     0.319634 
    0.736976     0.542494     0.410553 
    0.727796     0.453094     0.469158 
    0.561717     0.358919     0.376887 
    0.450943     0.327333     0.354251 
    0.479216     0.328478     0.636299 
    0.653468     0.374543     0.629448 
    0.551533     0.444520     0.477711 
    0.532158     0.730383     0.488076 
    0.435405     0.547878     0.668327 
    0.457806     0.701623     0.554198 
    0.363095     0.496468     0.299340 
    0.559479     0.696486     0.584493 
    0.402767     0.636527     0.612528 
    0.442001     0.718839     0.444726 
    0.321384     0.404146     0.568390 
    0.517819     0.688119     0.384453 
    0.505150     0.609223     0.621464 
    0.539190     0.593699     0.334595 
    0.691199     0.454256     0.574830 
    0.696527     0.551319     0.508481 
EA3098 17.254 17.454 12.927 90.00 90.00 90.00 Sym.group:    0
1.0
   17.254139     0.000000     0.000000
    0.000000    17.454436     0.000000
    0.000000     0.000000    12.927140
   W   B
  12  21
Direct
    0.374633     0.495912     0.599394 
    0.459932     0.375439     0.590617 
    0.605667     0.423813     0.594404 
    0.609566     0.570773     0.598412 
    0.459168     0.623497     0.585728 
    0.637128     0.501241     0.418494 
    0.539768     0.374254     0.415301 
    0.389427     0.420734     0.420718 
    0.381326     0.581506     0.415467 
    0.535299     0.622962     0.411769 
    0.424413     0.722711     0.392984 
    0.740272     0.504073     0.595707 
    0.433540     0.299728     0.420047 
    0.667174     0.379284     0.395173 
    0.663337     0.624811     0.394609 
    0.570157     0.302282     0.564828 
    0.326487     0.377961     0.569970 
    0.325131     0.613852     0.572140 
    0.571344     0.691305     0.578989 
    0.350948     0.688529     0.505260 
    0.510129     0.731709     0.499941 
    0.276019     0.445745     0.510669 
    0.274540     0.546040     0.514087 
    0.495565     0.268368     0.502049 
    0.365122     0.308572     0.504603 
    0.714263     0.410034     0.498836 
    0.649750     0.326524     0.498283 
    0.642875     0.673060     0.499242 
    0.714162     0.591116     0.492159 
    0.497645     0.498866     0.371778 
    0.503207     0.501433     0.651209 
    0.505981     0.505529     0.511565 
    0.286024     0.498338     0.405571 
EA3297 17.444 16.136 14.909 90.00 90.00 90.00 Sym.group:    0
1.0
   17.444186     0.000000     0.000000
    0.000000    16.135525     0.000000
    0.000000     0.000000    14.909022
   W   B
  15  21
Direct
    0.405864     0.502588     0.479525 
    0.624809     0.367178     0.504230 
    0.383825     0.348670     0.429236 
    0.437154     0.582275     0.626155 
    0.493780     0.402756     0.605394 
    0.587821     0.530273     0.667855 
    0.557814     0.524411     0.499102 
    0.341498     0.632652     0.395248 
    0.477463     0.570163     0.342233 
    0.545219     0.675955     0.579499 
    0.700744     0.532341     0.431764 
    0.506974     0.272303     0.470394 
    0.348364     0.691206     0.540432 
    0.516078     0.407273     0.376960 
    0.288732     0.517493     0.595313 
    0.384537     0.462364     0.666117 
    0.683241     0.443687     0.615535 
    0.400274     0.456995     0.330959 
    0.607585     0.398133     0.645511 
    0.416656     0.302252     0.559218 
    0.254500     0.614225     0.506190 
    0.360260     0.389249     0.574119 
    0.275713     0.527278     0.448082 
    0.292357     0.427951     0.491148 
    0.470454     0.485290     0.715131 
    0.629346     0.647218     0.469495 
    0.725013     0.402807     0.424607 
    0.650216     0.422230     0.364420 
    0.661320     0.610270     0.566631 
    0.740675     0.440932     0.524094 
    0.542316     0.662983     0.428571 
    0.453502     0.651748     0.469739 
    0.602767     0.605810     0.368020 
    0.722067     0.530122     0.576271 
    0.599174     0.508728     0.333166 
    0.311890     0.452188     0.379635 
EA3659 16.464 15.688 15.037 90.00 90.00 90.00 Sym.group:    0
1.0
   16.464414     0.000000     0.000000
    0.000000    15.687874     0.000000
    0.000000     0.000000    15.037105
   W   B
  12  22
Direct
    0.572443     0.491701     0.509960 
    0.497411     0.434862     0.349854 
    0.577829     0.334977     0.567593 
    0.352148     0.472047     0.312457 
    0.366149     0.360130     0.432074 
    0.403732     0.361636     0.620576 
    0.586270     0.584127     0.363431 
    0.669724     0.628457     0.512355 
    0.346811     0.607007     0.420755 
    0.447135     0.680755     0.544722 
    0.545051     0.592619     0.646449 
    0.411483     0.503830     0.554223 
    0.677454     0.404321     0.479789 
    0.470621     0.555065     0.437296 
    0.516822     0.441974     0.651397 
    0.450048     0.574523     0.327014 
    0.300702     0.419793     0.543579 
    0.676558     0.423459     0.597233 
    0.631912     0.447700     0.368690 
    0.475196     0.391570     0.496437 
    0.455825     0.279076     0.523967 
    0.601118     0.356560     0.420143 
    0.293434     0.475548     0.443972 
    0.511081     0.303773     0.434119 
    0.474752     0.662023     0.395895 
    0.720837     0.496177     0.527128 
    0.671391     0.531795     0.617448 
    0.693063     0.517861     0.422189 
    0.559849     0.693341     0.452790 
    0.408998     0.603769     0.659410 
    0.330763     0.619785     0.577077 
    0.282106     0.536908     0.532154 
    0.445957     0.506490     0.696144 
    0.575325     0.706340     0.561683 
EA3797 15.977 15.977 15.977 90.00 90.00 90.00 Sym.group:    0
1.0
   15.976674     0.000000     0.000000
    0.000000    15.976674     0.000000
    0.000000     0.000000    15.976674
   W   B
  13  24
Direct
    0.499589     0.499147     0.500562 
    0.678597     0.495155     0.554014 
    0.645705     0.397891     0.446114 
    0.321370     0.505982     0.554137 
    0.355443     0.601882     0.446784 
    0.533039     0.433561     0.328109 
    0.505974     0.678803     0.446595 
    0.433840     0.465537     0.670321 
    0.494076     0.321090     0.446565 
    0.567027     0.535132     0.670523 
    0.603639     0.645646     0.552780 
    0.466664     0.565896     0.328183 
    0.396489     0.354697     0.553101 
    0.297006     0.473402     0.412172 
    0.353556     0.643045     0.588758 
    0.702875     0.526564     0.411187 
    0.646231     0.357135     0.588726 
    0.443652     0.612472     0.685144 
    0.525676     0.296550     0.588915 
    0.612331     0.555332     0.315582 
    0.474574     0.704020     0.588651 
    0.386989     0.444268     0.315904 
    0.357166     0.353804     0.410867 
    0.556559     0.387814     0.684890 
    0.642977     0.645666     0.410676 
    0.425294     0.347471     0.332239 
    0.530868     0.667407     0.667673 
    0.573964     0.652208     0.331651 
    0.469479     0.333211     0.666956 
    0.394370     0.711506     0.522135 
    0.651216     0.425473     0.668932 
    0.711776     0.604424     0.478188 
    0.348926     0.574954     0.668685 
    0.287526     0.395089     0.478341 
    0.333426     0.530715     0.332165 
    0.605707     0.287991     0.521881 
    0.666405     0.469058     0.331893 
EA4105 16.091 16.271 15.852 90.00 90.00 90.00 Sym.group:    0
1.0
   16.091216     0.000000     0.000000
    0.000000    16.271149     0.000000
    0.000000     0.000000    15.851573
   W   B
  15  22
Direct
    0.500854     0.501791     0.498984 
    0.347295     0.439608     0.466493 
    0.654054     0.560726     0.530103 
    0.354147     0.596537     0.527562 
    0.645735     0.405973     0.465740 
    0.477397     0.335875     0.522824 
    0.410925     0.450647     0.636214 
    0.506683     0.383017     0.368599 
    0.429409     0.570248     0.363909 
    0.513889     0.604828     0.630625 
    0.585410     0.537562     0.355307 
    0.500761     0.676744     0.483242 
    0.574797     0.442618     0.642200 
    0.633617     0.713268     0.556787 
    0.369506     0.307682     0.382406 
    0.423188     0.705232     0.587999 
    0.574377     0.288816     0.429539 
    0.699384     0.445473     0.589222 
    0.500264     0.512550     0.728031 
    0.710926     0.501638     0.403326 
    0.534562     0.659928     0.354845 
    0.292395     0.488999     0.583824 
    0.483500     0.479360     0.279717 
    0.297369     0.568989     0.410044 
    0.480702     0.339457     0.660163 
    0.294060     0.397311     0.335043 
    0.715380     0.677256     0.467500 
    0.381029     0.645104     0.660003 
    0.609481     0.283596     0.527644 
    0.572057     0.306436     0.624085 
    0.323781     0.556236     0.657077 
    0.389856     0.439234     0.308475 
    0.302657     0.496871     0.339418 
    0.411113     0.563040     0.717073 
    0.710813     0.601467     0.401193 
    0.624197     0.667561     0.412301 
    0.664433     0.348323     0.592487 
EA4409 16.501 16.546 15.647 90.00 90.00 90.00 Sym.group:    0
1.0
   16.500511     0.000000     0.000000
    0.000000    16.546161     0.000000
    0.000000     0.000000    15.646710
   W   B
  12  25
Direct
    0.498163     0.504551     0.481370 
    0.439378     0.606045     0.606519 
    0.451213     0.665141     0.453734 
    0.552848     0.375436     0.370008 
    0.561433     0.352857     0.526474 
    0.607494     0.633719     0.529854 
    0.575911     0.483405     0.645764 
    0.393466     0.373539     0.457165 
    0.585949     0.605014     0.367160 
    0.328173     0.507787     0.517960 
    0.429820     0.431076     0.634582 
    0.662182     0.483795     0.490732 
    0.267989     0.603628     0.443163 
    0.327586     0.645015     0.521894 
    0.508844     0.717417     0.564897 
    0.490686     0.276989     0.430866 
    0.663515     0.356587     0.441326 
    0.701877     0.602667     0.433913 
    0.541969     0.360811     0.672036 
    0.329315     0.469151     0.385590 
    0.458343     0.571106     0.352940 
    0.318272     0.390004     0.571132 
    0.467569     0.526133     0.718155 
    0.686534     0.550752     0.609161 
    0.517200     0.497180     0.317392 
    0.380845     0.313157     0.583909 
    0.697535     0.527477     0.362816 
    0.427292     0.465838     0.347436 
    0.629013     0.610639     0.668801 
    0.354492     0.570844     0.379921 
    0.682426     0.421488     0.364390 
    0.618792     0.484129     0.316231 
    0.550689     0.678514     0.652193 
    0.535402     0.597517     0.713773 
    0.328955     0.673970     0.412636 
    0.474625     0.300335     0.627154 
    0.454204     0.266289     0.526949 
EA4712 17.410 15.685 15.744 90.00 90.00 90.00 Sym.group:    0
1.0
   17.410253     0.000000     0.000000
    0.000000    15.685292     0.000000
    0.000000     0.000000    15.744127
   W   B
  13  24
Direct
    0.423666     0.328559     0.607027 
    0.461265     0.653868     0.503498 
    0.405865     0.485751     0.507317 
    0.317234     0.466663     0.623198 
    0.322315     0.514516     0.359644 
    0.455183     0.447900     0.683854 
    0.438217     0.522912     0.278341 
    0.611084     0.471283     0.650423 
    0.533988     0.374089     0.492670 
    0.706651     0.449676     0.537509 
    0.567205     0.539816     0.497178 
    0.629668     0.695924     0.526796 
    0.559159     0.461931     0.355558 
    0.427570     0.417122     0.373264 
    0.415034     0.343891     0.462923 
    0.406009     0.616676     0.375769 
    0.341901     0.609547     0.457575 
    0.335369     0.600320     0.566934 
    0.402419     0.572220     0.636341 
    0.276568     0.436396     0.482873 
    0.329826     0.356274     0.521970 
    0.278189     0.539020     0.505860 
    0.341524     0.391782     0.416499 
    0.501194     0.582830     0.629620 
    0.657601     0.328379     0.486390 
    0.631122     0.345140     0.589000 
    0.547238     0.350419     0.644669 
    0.677886     0.512041     0.409990 
    0.702690     0.584048     0.483803 
    0.639319     0.609126     0.397809 
    0.681115     0.583492     0.588376 
    0.537679     0.687234     0.610167 
    0.600021     0.612029     0.640612 
    0.669458     0.403957     0.412767 
    0.564760     0.673088     0.415476 
    0.499544     0.601179     0.375925 
    0.604461     0.330902     0.392372 
EA5257 16.430 15.715 15.382 90.00 90.00 90.00 Sym.group:    0
1.0
   16.430403     0.000000     0.000000
    0.000000    15.715344     0.000000
    0.000000     0.000000    15.382494
   W   B
  12  21
Direct
    0.523879     0.512533     0.508524 
    0.402749     0.356810     0.515113 
    0.420679     0.623339     0.406625 
    0.695477     0.492170     0.491887 
    0.617639     0.670861     0.532378 
    0.369060     0.462500     0.645659 
    0.582786     0.392981     0.392107 
    0.413117     0.449419     0.365306 
    0.565342     0.360775     0.572946 
    0.381126     0.619100     0.580750 
    0.618549     0.524798     0.636975 
    0.592750     0.588099     0.382492 
    0.378625     0.504994     0.495825 
    0.515067     0.291378     0.466642 
    0.715385     0.624127     0.456862 
    0.473572     0.552028     0.664976 
    0.310634     0.531924     0.398135 
    0.461505     0.324399     0.386833 
    0.528149     0.696356     0.432986 
    0.688822     0.406587     0.598033 
    0.277153     0.526162     0.552341 
    0.299080     0.435166     0.448761 
    0.479590     0.688533     0.527090 
    0.709333     0.386870     0.403671 
    0.505339     0.452063     0.672901 
    0.284055     0.418515     0.554156 
    0.517185     0.635660     0.615905 
    0.473488     0.561755     0.298780 
    0.691381     0.355576     0.504446 
    0.454342     0.363562     0.645872 
    0.724569     0.605323     0.565411 
    0.296941     0.603820     0.475989 
    0.532633     0.481815     0.303620 
EA5535 16.646 15.611 15.007 90.00 90.00 90.00 Sym.group:    0
1.0
   16.645906     0.000000     0.000000
    0.000000    15.610641     0.000000
    0.000000     0.000000    15.006575
   W   B
  12  21
Direct
    0.523210     0.514417     0.508603 
    0.405076     0.354305     0.517440 
    0.420282     0.624705     0.405702 
    0.687357     0.490022     0.492530 
    0.616790     0.672539     0.530503 
    0.372303     0.467489     0.647147 
    0.575607     0.396168     0.388081 
    0.413579     0.450254     0.362145 
    0.565651     0.359738     0.573806 
    0.382704     0.619987     0.585186 
    0.619256     0.529756     0.638897 
    0.588701     0.588390     0.376114 
    0.386596     0.503905     0.496281 
    0.515463     0.290938     0.465814 
    0.708416     0.619188     0.449014 
    0.479229     0.556010     0.670092 
    0.310132     0.532982     0.410391 
    0.458641     0.321612     0.385324 
    0.527665     0.698296     0.431261 
    0.687266     0.406370     0.608036 
    0.281043     0.519085     0.529078 
    0.306280     0.433907     0.449816 
    0.481782     0.687172     0.528314 
    0.697617     0.369001     0.410412 
    0.506165     0.453555     0.673377 
    0.287170     0.412781     0.556541 
    0.519435     0.640950     0.622399 
    0.469223     0.563384     0.291374 
    0.700376     0.351325     0.515915 
    0.456511     0.366019     0.650117 
    0.723269     0.605905     0.559281 
    0.298297     0.616403     0.478875 
    0.528911     0.483438     0.292135 
EA5636 15.522 15.584 14.211 90.00 90.00 90.00 Sym.group:    0
1.0
   15.522212     0.000000     0.000000
    0.000000    15.584024     0.000000
    0.000000     0.000000    14.210705
   W   B
  12  25
Direct
    0.626761     0.364501     0.594823 
    0.445699     0.322439     0.595242 
    0.318961     0.457983     0.594543 
    0.373155     0.635571     0.594629 
    0.554300     0.677181     0.594930 
    0.681500     0.542154     0.594808 
    0.552032     0.671326     0.390867 
    0.376837     0.631198     0.390947 
    0.325435     0.459672     0.390871 
    0.447617     0.328768     0.390865 
    0.622966     0.369173     0.391190 
    0.674777     0.540336     0.390694 
    0.500114     0.499981     0.719910 
    0.421867     0.427192     0.496654 
    0.397933     0.530782     0.496608 
    0.476066     0.603933     0.497187 
    0.577663     0.573228     0.496558 
    0.601810     0.468641     0.496729 
    0.524416     0.396047     0.497213 
    0.523740     0.394111     0.285962 
    0.419631     0.426217     0.285604 
    0.395539     0.532564     0.285365 
    0.476238     0.605809     0.285794 
    0.580491     0.573767     0.285824 
    0.604430     0.467552     0.285514 
    0.475073     0.606559     0.698426 
    0.395287     0.531502     0.698428 
    0.420285     0.425345     0.698745 
    0.524977     0.393393     0.698410 
    0.604838     0.468484     0.698302 
    0.579861     0.574653     0.698616 
    0.712068     0.436265     0.496744 
    0.550815     0.284927     0.496564 
    0.338568     0.348843     0.496583 
    0.287892     0.563542     0.496624 
    0.449096     0.715112     0.496678 
    0.661264     0.651249     0.496542 
EA6152 15.814 13.602 13.666 90.00 90.00 90.00 Sym.group:    0
1.0
   15.813983     0.000000     0.000000
    0.000000    13.602142     0.000000
    0.000000     0.000000    13.665923
   W   B
  11  22
Direct
    0.529521     0.499134     0.501059 
    0.392793     0.341533     0.519079 
    0.640711     0.382306     0.610314 
    0.392849     0.469340     0.653505 
    0.640022     0.570295     0.646140 
    0.391001     0.639572     0.576597 
    0.639669     0.661979     0.479983 
    0.390318     0.615284     0.391672 
    0.638482     0.531591     0.340740 
    0.391900     0.431567     0.357718 
    0.639825     0.358410     0.422052 
    0.272851     0.546436     0.600199 
    0.745641     0.593453     0.550434 
    0.272182     0.609686     0.486983 
    0.744755     0.578180     0.427388 
    0.272493     0.520656     0.392187 
    0.745043     0.455852     0.403609 
    0.272835     0.402414     0.447009 
    0.745828     0.395473     0.512477 
    0.273132     0.418386     0.575449 
    0.745924     0.480531     0.603519 
    0.497873     0.336475     0.410379 
    0.534927     0.311551     0.523299 
    0.498189     0.363361     0.626741 
    0.534528     0.464208     0.684817 
    0.497072     0.578953     0.667666 
    0.533498     0.666314     0.591422 
    0.496403     0.684294     0.477351 
    0.532852     0.638875     0.371373 
    0.496541     0.535085     0.319001 
    0.533525     0.419592     0.329116 
    0.221938     0.499188     0.500572 
    0.344875     0.500025     0.500151 
EA6313 17.011 15.399 16.114 90.00 90.00 90.00 Sym.group:    0
1.0
   17.011047     0.000000     0.000000
    0.000000    15.398707     0.000000
    0.000000     0.000000    16.113825
   W   B
  11  25
Direct
    0.510182     0.650671     0.495227 
    0.646753     0.544104     0.518273 
    0.583799     0.390260     0.465699 
    0.438171     0.603029     0.366330 
    0.594868     0.540527     0.363602 
    0.407671     0.348899     0.566842 
    0.432307     0.342680     0.394987 
    0.508698     0.494175     0.604343 
    0.281043     0.574071     0.570922 
    0.248682     0.506097     0.438824 
    0.468201     0.678075     0.635862 
    0.649750     0.406213     0.339931 
    0.549630     0.671742     0.358907 
    0.667859     0.404813     0.583254 
    0.318843     0.572156     0.356276 
    0.557165     0.402690     0.325661 
    0.701704     0.447507     0.412699 
    0.626405     0.669552     0.427437 
    0.633245     0.690500     0.518161 
    0.718132     0.416922     0.503021 
    0.514828     0.513903     0.468869 
    0.479853     0.466161     0.359769 
    0.636090     0.470958     0.659857 
    0.495633     0.286633     0.490598 
    0.603679     0.653029     0.611472 
    0.527461     0.309511     0.583021 
    0.494283     0.364220     0.662724 
    0.632863     0.572237     0.662434 
    0.586442     0.376387     0.638087 
    0.396997     0.573969     0.627667 
    0.298328     0.436366     0.545763 
    0.332825     0.615007     0.456211 
    0.375247     0.475522     0.382402 
    0.367401     0.477868     0.606126 
    0.380425     0.655659     0.543341 
    0.334542     0.397886     0.455398 
EA6672 16.761 16.412 14.151 90.00 90.00 90.00 Sym.group:    0
1.0
   16.761417     0.000000     0.000000
    0.000000    16.411599     0.000000
    0.000000     0.000000    14.151277
   W   B
  11  25
Direct
    0.583197     0.480751     0.471005 
    0.639075     0.601083     0.629378 
    0.728276     0.587950     0.488621 
    0.579690     0.634277     0.419562 
    0.448896     0.552321     0.327252 
    0.487042     0.577543     0.590621 
    0.309300     0.623367     0.594130 
    0.290206     0.460431     0.594387 
    0.419192     0.329482     0.580771 
    0.414972     0.464159     0.468871 
    0.417761     0.326006     0.402059 
    0.579021     0.528388     0.318629 
    0.669957     0.536028     0.367954 
    0.683435     0.473922     0.581167 
    0.689311     0.387040     0.503865 
    0.717081     0.465370     0.444356 
    0.662210     0.692299     0.524266 
    0.542347     0.360480     0.406413 
    0.607182     0.332785     0.494970 
    0.512936     0.437218     0.341781 
    0.356825     0.609031     0.437740 
    0.390954     0.685344     0.513965 
    0.486203     0.705799     0.510787 
    0.569360     0.698648     0.566751 
    0.451030     0.652016     0.421090 
    0.412444     0.457102     0.638737 
    0.587064     0.484433     0.636579 
    0.503535     0.431079     0.597385 
    0.623093     0.388628     0.599610 
    0.543994     0.321768     0.595247 
    0.314534     0.363953     0.489154 
    0.280620     0.544636     0.479595 
    0.282725     0.450904     0.437170 
    0.324190     0.525537     0.368016 
    0.517493     0.284846     0.484942 
    0.374847     0.545380     0.673172 
EA7048 17.500 14.873 14.164 90.00 90.00 90.00 Sym.group:    0
1.0
   17.500492     0.000000     0.000000
    0.000000    14.872985     0.000000
    0.000000     0.000000    14.164474
   W   B
  14  21
Direct
    0.447100     0.427940     0.661845 
    0.682880     0.478325     0.626614 
    0.647301     0.303626     0.574517 
    0.701976     0.409473     0.459055 
    0.491954     0.383622     0.366479 
    0.499480     0.316582     0.535525 
    0.566280     0.480023     0.501960 
    0.482405     0.642543     0.469790 
    0.406230     0.485980     0.500345 
    0.348565     0.426676     0.341466 
    0.258935     0.525123     0.508705 
    0.333228     0.563439     0.662263 
    0.608114     0.627919     0.599760 
    0.469504     0.601111     0.643763 
    0.564900     0.503983     0.677104 
    0.741533     0.544228     0.493624 
    0.573464     0.394592     0.650409 
    0.373667     0.337048     0.566195 
    0.599333     0.320959     0.435063 
    0.390363     0.332719     0.449166 
    0.616440     0.392693     0.349669 
    0.285772     0.654743     0.558146 
    0.344512     0.631085     0.458100 
    0.401616     0.579264     0.363886 
    0.491947     0.535850     0.354752 
    0.306333     0.382893     0.488464 
    0.309407     0.554295     0.379395 
    0.319087     0.421386     0.606587 
    0.581042     0.491156     0.327905 
    0.731869     0.607174     0.589806 
    0.575531     0.593882     0.370373 
    0.659616     0.559008     0.419635 
    0.379171     0.675123     0.567969 
    0.698256     0.651885     0.491930 
    0.612188     0.663655     0.449738 
EA7372 17.765 14.972 13.992 90.00 90.00 90.00 Sym.group:    0
1.0
   17.764604     0.000000     0.000000
    0.000000    14.971561     0.000000
    0.000000     0.000000    13.992377
   W   B
  14  21
Direct
    0.442950     0.539110     0.677463 
    0.675505     0.525455     0.637337 
    0.631042     0.685403     0.601218 
    0.696394     0.604320     0.466008 
    0.493393     0.675438     0.565771 
    0.564590     0.523540     0.504573 
    0.492188     0.355224     0.455605 
    0.405961     0.492963     0.505643 
    0.335629     0.410911     0.657081 
    0.614519     0.366889     0.590465 
    0.472712     0.371891     0.637779 
    0.285489     0.610638     0.478212 
    0.680642     0.474121     0.365728 
    0.278364     0.472893     0.387832 
    0.561867     0.474466     0.676114 
    0.748348     0.477485     0.507266 
    0.562595     0.588261     0.668124 
    0.376217     0.636707     0.581064 
    0.584405     0.679525     0.455384 
    0.407355     0.640132     0.441378 
    0.588759     0.610751     0.362897 
    0.301100     0.383183     0.510209 
    0.365351     0.364511     0.421064 
    0.398865     0.447319     0.345307 
    0.491166     0.456299     0.337831 
    0.318433     0.553473     0.619580 
    0.567983     0.513853     0.316227 
    0.731485     0.401660     0.589112 
    0.574028     0.409618     0.353911 
    0.384132     0.334213     0.537380 
    0.708981     0.376044     0.477280 
    0.624223     0.352283     0.435877 
    0.367035     0.562605     0.369123 
    0.500488     0.644709     0.415635 
    0.267810     0.484108     0.548519 
EA7749 16.357 14.587 16.143 90.00 90.00 90.00 Sym.group:    0
1.0
   16.356672     0.000000     0.000000
    0.000000    14.587440     0.000000
    0.000000     0.000000    16.143264
   W   B
  11  21
Direct
    0.595310     0.363384     0.519302 
    0.602007     0.660610     0.576698 
    0.420296     0.563686     0.559541 
    0.404891     0.372626     0.532981 
    0.571913     0.499262     0.627186 
    0.425139     0.461998     0.681695 
    0.703258     0.411162     0.623537 
    0.463723     0.594409     0.397979 
    0.754225     0.448045     0.484134 
    0.537563     0.428141     0.379049 
    0.712260     0.604160     0.449032 
    0.277177     0.423733     0.507912 
    0.695334     0.544808     0.570148 
    0.296283     0.536087     0.506203 
    0.470637     0.703019     0.583661 
    0.497874     0.274093     0.548427 
    0.497319     0.627648     0.659363 
    0.496597     0.350210     0.628751 
    0.510828     0.485318     0.500415 
    0.314461     0.470187     0.593440 
    0.509979     0.702191     0.488979 
    0.600976     0.565868     0.375982 
    0.343929     0.533411     0.407736 
    0.336400     0.632228     0.457239 
    0.402900     0.463722     0.357493 
    0.413631     0.355486     0.393738 
    0.669239     0.376781     0.407970 
    0.324825     0.414266     0.419084 
    0.587735     0.650276     0.444370 
    0.407999     0.699350     0.493282 
    0.669961     0.485120     0.378198 
    0.485329     0.298714     0.446473 
EA7864 15.089 17.031 15.138 90.00 90.00 90.00 Sym.group:    0
1.0
   15.088699     0.000000     0.000000
    0.000000    17.030552     0.000000
    0.000000     0.000000    15.137761
   W   B
  11  25
Direct
    0.599630     0.570620     0.562487 
    0.651634     0.401126     0.562979 
    0.611649     0.503057     0.705386 
    0.580085     0.576299     0.377970 
    0.515746     0.441349     0.353985 
    0.338459     0.446461     0.377016 
    0.301352     0.600363     0.366517 
    0.254292     0.441965     0.527807 
    0.453591     0.663739     0.449967 
    0.422798     0.531082     0.500870 
    0.492834     0.433284     0.626479 
    0.771466     0.474972     0.525006 
    0.751263     0.571583     0.523647 
    0.546469     0.318344     0.573194 
    0.720087     0.507038     0.616151 
    0.712659     0.538827     0.418959 
    0.697755     0.630675     0.459280 
    0.664843     0.470919     0.354456 
    0.635286     0.393535     0.419445 
    0.733427     0.436203     0.435848 
    0.602996     0.680029     0.477670 
    0.541416     0.350341     0.460731 
    0.445583     0.326406     0.534211 
    0.432399     0.351045     0.416051 
    0.343219     0.350865     0.479832 
    0.434471     0.550101     0.343321 
    0.359769     0.376992     0.586915 
    0.551929     0.467836     0.489310 
    0.247941     0.570058     0.501618 
    0.322020     0.640643     0.493255 
    0.297386     0.545660     0.599217 
    0.534153     0.685971     0.565007 
    0.350388     0.464447     0.634804 
    0.397328     0.553412     0.652062 
    0.215582     0.512406     0.413601 
    0.468094     0.622347     0.614949 
EA8275 17.097 15.772 14.343 90.00 90.00 90.00 Sym.group:    0
1.0
   17.097065     0.000000     0.000000
    0.000000    15.772064     0.000000
    0.000000     0.000000    14.343132
   W   B
  12  23
Direct
    0.433542     0.432426     0.682674 
    0.671343     0.423059     0.606084 
    0.527413     0.359328     0.570029 
    0.583352     0.509512     0.488973 
    0.475464     0.631579     0.445120 
    0.419710     0.468889     0.506118 
    0.263386     0.519661     0.518726 
    0.563169     0.641803     0.597019 
    0.407487     0.607874     0.616495 
    0.303719     0.365608     0.453689 
    0.378299     0.727362     0.514073 
    0.437787     0.305921     0.424604 
    0.511007     0.542467     0.690670 
    0.717255     0.525008     0.492729 
    0.563131     0.438952     0.693564 
    0.394166     0.332695     0.569649 
    0.635509     0.354372     0.482010 
    0.631835     0.399825     0.371549 
    0.282028     0.650801     0.501644 
    0.346905     0.592256     0.432638 
    0.411466     0.532038     0.357034 
    0.506841     0.537154     0.325943 
    0.324309     0.490983     0.386938 
    0.320180     0.401410     0.598941 
    0.582116     0.477012     0.324539 
    0.677127     0.561594     0.599404 
    0.586997     0.593115     0.351180 
    0.674084     0.584101     0.401489 
    0.677282     0.625561     0.509807 
    0.603099     0.655941     0.446933 
    0.395045     0.420582     0.360405 
    0.558696     0.332813     0.416136 
    0.609179     0.530970     0.672312 
    0.699509     0.429003     0.450659 
    0.327562     0.498320     0.640223 
EA8677 16.305 15.675 15.441 90.00 90.00 90.00 Sym.group:    0
1.0
   16.304660     0.000000     0.000000
    0.000000    15.674567     0.000000
    0.000000     0.000000    15.441322
   W   B
  11  21
Direct
    0.451027     0.423321     0.680520 
    0.605569     0.460034     0.641437 
    0.598929     0.498371     0.484303 
    0.561338     0.363311     0.398997 
    0.481525     0.571350     0.625361 
    0.438932     0.457363     0.491295 
    0.530819     0.673017     0.494871 
    0.418635     0.619056     0.389529 
    0.350299     0.617745     0.530315 
    0.411013     0.769485     0.458559 
    0.412855     0.737097     0.603559 
    0.345733     0.396455     0.582649 
    0.315890     0.393032     0.472536 
    0.358978     0.502445     0.615577 
    0.360741     0.393159     0.380508 
    0.452844     0.403631     0.332722 
    0.503432     0.317462     0.507070 
    0.531791     0.343279     0.613364 
    0.700141     0.548272     0.582669 
    0.736906     0.462670     0.471647 
    0.430665     0.332621     0.580278 
    0.680153     0.378054     0.465846 
    0.299873     0.483507     0.529497 
    0.610761     0.600778     0.610892 
    0.664753     0.633797     0.524199 
    0.724607     0.564518     0.470307 
    0.325128     0.505832     0.425396 
    0.393972     0.489858     0.344324 
    0.644329     0.619026     0.420402 
    0.554055     0.591895     0.377559 
    0.500379     0.498461     0.356718 
    0.603929     0.351096     0.537096 
EA8970 17.786 15.766 13.986 90.00 90.00 90.00 Sym.group:    0
1.0
   17.786401     0.000000     0.000000
    0.000000    15.766028     0.000000
    0.000000     0.000000    13.985612
   W   B
  12  21
Direct
    0.461908     0.509390     0.513334 
    0.364611     0.615603     0.595920 
    0.357534     0.387209     0.474718 
    0.435444     0.288082     0.368789 
    0.561058     0.327339     0.499490 
    0.591690     0.580926     0.597675 
    0.450485     0.374871     0.622251 
    0.364619     0.628116     0.404494 
    0.538821     0.624796     0.426116 
    0.746150     0.537701     0.399975 
    0.551890     0.363543     0.334402 
    0.625543     0.479427     0.445584 
    0.442197     0.279281     0.512800 
    0.514251     0.491073     0.672477 
    0.352934     0.462912     0.617985 
    0.421302     0.505635     0.680317 
    0.290925     0.503808     0.544876 
    0.664667     0.377250     0.560170 
    0.273306     0.595806     0.495170 
    0.288286     0.513457     0.424438 
    0.673058     0.473208     0.609739 
    0.478227     0.590338     0.669041 
    0.581704     0.433620     0.610581 
    0.364277     0.494322     0.363548 
    0.487846     0.659442     0.581995 
    0.434249     0.693166     0.497623 
    0.443070     0.431962     0.367201 
    0.654593     0.611942     0.360646 
    0.736113     0.448225     0.522753 
    0.712816     0.552640     0.550667 
    0.667763     0.620645     0.478995 
    0.445066     0.547429     0.338882 
    0.523597     0.496837     0.357351 
EA9198 16.735 16.387 14.406 90.00 90.00 90.00 Sym.group:    0
1.0
   16.735263     0.000000     0.000000
    0.000000    16.386875     0.000000
    0.000000     0.000000    14.406194
   W   B
  13  22
Direct
    0.714072     0.602583     0.512585 
    0.535685     0.539889     0.377565 
    0.555702     0.684956     0.448401 
    0.478113     0.307684     0.491651 
    0.437387     0.461342     0.507392 
    0.345647     0.647405     0.582539 
    0.291733     0.524073     0.476784 
    0.603059     0.624114     0.624722 
    0.457861     0.555015     0.659790 
    0.602682     0.464893     0.538210 
    0.514200     0.387406     0.661017 
    0.710319     0.519499     0.654002 
    0.415629     0.738526     0.474629 
    0.672701     0.513725     0.403561 
    0.616719     0.430589     0.374060 
    0.650041     0.613749     0.383052 
    0.413203     0.367781     0.380329 
    0.441201     0.457806     0.332409 
    0.695486     0.407670     0.437715 
    0.607812     0.347827     0.446467 
    0.334961     0.380384     0.462380 
    0.395305     0.545554     0.380385 
    0.349852     0.447878     0.373475 
    0.445355     0.644222     0.378421 
    0.349907     0.634524     0.427009 
    0.519013     0.572492     0.524453 
    0.319051     0.414042     0.572856 
    0.389565     0.432672     0.661825 
    0.337359     0.513274     0.615015 
    0.581769     0.500766     0.694105 
    0.397726     0.347460     0.601864 
    0.588482     0.329601     0.558565 
    0.519182     0.399604     0.387582 
    0.735995     0.470451     0.512586 
    0.477224     0.670545     0.582597 
EA9584 16.485 14.745 14.443 90.00 90.00 90.00 Sym.group:    0
1.0
   16.485094     0.000000     0.000000
    0.000000    14.745132     0.000000
    0.000000     0.000000    14.442787
   W   B
  11  21
Direct
    0.547220     0.525153     0.698184 
    0.371414     0.513221     0.658544 
    0.398854     0.490295     0.470910 
    0.423678     0.634114     0.355597 
    0.558120     0.534125     0.509885 
    0.509095     0.339820     0.489375 
    0.583972     0.410897     0.352297 
    0.653482     0.286898     0.429977 
    0.359824     0.347127     0.577565 
    0.661876     0.612518     0.630822 
    0.421028     0.652662     0.528825 
    0.687121     0.613410     0.484304 
    0.652134     0.467921     0.611917 
    0.625112     0.642768     0.403188 
    0.532141     0.671111     0.415738 
    0.453826     0.624173     0.674735 
    0.278095     0.461451     0.560599 
    0.263677     0.511325     0.453226 
    0.539812     0.654395     0.621868 
    0.312826     0.608330     0.436465 
    0.703030     0.507171     0.518765 
    0.470026     0.430572     0.611292 
    0.287376     0.399028     0.461829 
    0.656860     0.528085     0.402050 
    0.558397     0.569642     0.348769 
    0.376773     0.344112     0.428342 
    0.449014     0.392532     0.362012 
    0.473404     0.502179     0.335297 
    0.628227     0.328710     0.559989 
    0.300953     0.574719     0.548905 
    0.692433     0.421129     0.443248 
    0.570196     0.400407     0.615485 
EA9896 16.483 14.905 14.481 90.00 90.00 90.00 Sym.group:    0
1.0
   16.482770     0.000000     0.000000
    0.000000    14.905261     0.000000
    0.000000     0.000000    14.481101
   W   B
  11  21
Direct
    0.394134     0.574760     0.642287 
    0.398999     0.476559     0.464584 
    0.422894     0.579837     0.312845 
    0.551945     0.539353     0.503522 
    0.503389     0.351823     0.539083 
    0.585381     0.377296     0.386075 
    0.648858     0.279068     0.494195 
    0.650858     0.606874     0.621282 
    0.430150     0.650797     0.482209 
    0.555801     0.471761     0.673734 
    0.280344     0.463849     0.608810 
    0.680227     0.605657     0.462565 
    0.676305     0.460740     0.601455 
    0.621583     0.611499     0.375750 
    0.526279     0.634041     0.368081 
    0.462034     0.695616     0.622768 
    0.265593     0.499489     0.458930 
    0.552607     0.688481     0.576476 
    0.319324     0.586183     0.408412 
    0.715085     0.515990     0.512071 
    0.422291     0.435414     0.631565 
    0.293126     0.390718     0.480186 
    0.656490     0.503114     0.400872 
    0.560445     0.523656     0.337396 
    0.380243     0.326354     0.460021 
    0.452969     0.357687     0.390009 
    0.475817     0.452583     0.331511 
    0.622994     0.363449     0.607120 
    0.308296     0.584099     0.524174 
    0.691875     0.409506     0.480316 
    0.365320     0.360385     0.567825 
    0.528347     0.623363     0.673870 
EA10180 16.539 15.949 14.069 90.00 90.00 90.00 Sym.group:    0
1.0
   16.538780     0.000000     0.000000
    0.000000    15.948905     0.000000
    0.000000     0.000000    14.068990
   W   B
  13  21
Direct
    0.494371     0.460858     0.652077 
    0.486641     0.336525     0.487725 
    0.414636     0.485671     0.483123 
    0.327942     0.639706     0.435703 
    0.367165     0.357229     0.616833 
    0.272860     0.460545     0.525749 
    0.578580     0.485135     0.488710 
    0.618042     0.387935     0.346564 
    0.634525     0.584762     0.345699 
    0.469124     0.599726     0.368622 
    0.713971     0.406066     0.519951 
    0.602795     0.641524     0.521916 
    0.465933     0.730612     0.461422 
    0.346583     0.350972     0.463784 
    0.358653     0.490500     0.643992 
    0.423695     0.574192     0.636991 
    0.324859     0.581367     0.580493 
    0.312788     0.423467     0.384171 
    0.312947     0.524133     0.372190 
    0.587221     0.359847     0.592656 
    0.401370     0.373910     0.367173 
    0.492772     0.322823     0.641656 
    0.488859     0.418907     0.346077 
    0.394066     0.658482     0.563802 
    0.607230     0.544951     0.652247 
    0.490420     0.684246     0.596179 
    0.524222     0.599560     0.651685 
    0.639247     0.446979     0.636630 
    0.711621     0.473388     0.389890 
    0.571448     0.696795     0.382502 
    0.620504     0.324858     0.480977 
    0.709165     0.548390     0.471984 
    0.688574     0.530392     0.585967 
    0.547170     0.495551     0.304860 
EA10502 16.562 15.947 14.048 90.00 90.00 90.00 Sym.group:    0
1.0
   16.561844     0.000000     0.000000
    0.000000    15.947410     0.000000
    0.000000     0.000000    14.047905
   W   B
  13  21
Direct
    0.507064     0.538326     0.653723 
    0.512611     0.663769     0.482786 
    0.585031     0.518662     0.483679 
    0.664541     0.362134     0.440881 
    0.634282     0.643343     0.611933 
    0.727201     0.539921     0.521674 
    0.419359     0.519335     0.487289 
    0.375944     0.610970     0.345646 
    0.360311     0.417271     0.343566 
    0.522547     0.411644     0.370507 
    0.282744     0.591832     0.525574 
    0.403777     0.359365     0.521304 
    0.539226     0.273632     0.465219 
    0.652309     0.650454     0.458072 
    0.642784     0.510817     0.642897 
    0.579763     0.422286     0.642260 
    0.670577     0.418938     0.581529 
    0.685649     0.577947     0.379271 
    0.683736     0.476908     0.370075 
    0.414950     0.639930     0.593482 
    0.595712     0.625394     0.362161 
    0.511141     0.675863     0.635687 
    0.510196     0.571911     0.343300 
    0.614343     0.328048     0.578822 
    0.397916     0.455081     0.650297 
    0.512610     0.314773     0.602778 
    0.480095     0.400427     0.653202 
    0.363846     0.552894     0.638964 
    0.283833     0.526367     0.393835 
    0.432048     0.309976     0.379367 
    0.378775     0.670877     0.483080 
    0.293790     0.448279     0.474603 
    0.314942     0.467933     0.587290 
    0.446346     0.504693     0.295247 
EA10543 17.373 15.949 16.173 90.00 90.00 90.00 Sym.group:    0
1.0
   17.373046     0.000000     0.000000
    0.000000    15.949370     0.000000
    0.000000     0.000000    16.173364
   W   B
  15  25
Direct
    0.505436     0.648899     0.443658 
    0.565471     0.414210     0.339790 
    0.423252     0.521679     0.511365 
    0.305798     0.443309     0.566293 
    0.371792     0.583806     0.377990 
    0.420666     0.428570     0.378202 
    0.353004     0.601408     0.631725 
    0.594712     0.587434     0.334227 
    0.598634     0.577399     0.604260 
    0.709698     0.502023     0.522433 
    0.563170     0.476983     0.474624 
    0.565722     0.490641     0.724117 
    0.581163     0.301713     0.472216 
    0.491168     0.383914     0.590886 
    0.636424     0.716119     0.443568 
    0.475658     0.624213     0.314787 
    0.481703     0.521125     0.300196 
    0.390381     0.301945     0.419365 
    0.305399     0.466873     0.426225 
    0.317402     0.364753     0.443288 
    0.265779     0.543746     0.474504 
    0.252381     0.570558     0.572590 
    0.307150     0.631907     0.509606 
    0.383816     0.343300     0.516037 
    0.485381     0.305580     0.383349 
    0.395289     0.665014     0.515130 
    0.610300     0.323725     0.603063 
    0.586523     0.369254     0.687055 
    0.636294     0.433737     0.619652 
    0.703082     0.636598     0.522134 
    0.668306     0.374827     0.533843 
    0.674402     0.495400     0.389458 
    0.694423     0.597951     0.423473 
    0.668703     0.396600     0.431155 
    0.461130     0.290295     0.487403 
    0.398721     0.475283     0.648339 
    0.474390     0.542155     0.651772 
    0.474482     0.641068     0.582463 
    0.555444     0.704729     0.556113 
    0.647352     0.701260     0.573647 
EA11015 17.217 15.990 15.528 90.00 90.00 90.00 Sym.group:    0
1.0
   17.217457     0.000000     0.000000
    0.000000    15.990001     0.000000
    0.000000     0.000000    15.527804
   W   B
  11  25
Direct
    0.590476     0.463820     0.574815 
    0.675174     0.445308     0.391438 
    0.549157     0.621928     0.277460 
    0.555197     0.639464     0.544535 
    0.686362     0.574185     0.484856 
    0.308462     0.414436     0.485959 
    0.525187     0.531600     0.429795 
    0.383102     0.572711     0.520917 
    0.548758     0.366845     0.408260 
    0.417311     0.600519     0.348225 
    0.447670     0.414323     0.534999 
    0.715745     0.441273     0.525293 
    0.648628     0.508943     0.690876 
    0.609911     0.655549     0.408569 
    0.573575     0.571836     0.679255 
    0.711782     0.505335     0.613440 
    0.591717     0.501199     0.301324 
    0.651920     0.359074     0.497875 
    0.564200     0.330067     0.544740 
    0.517948     0.683950     0.395136 
    0.447594     0.670041     0.462520 
    0.654753     0.593420     0.621643 
    0.649126     0.576749     0.350657 
    0.484140     0.602470     0.681915 
    0.359060     0.471162     0.619094 
    0.308736     0.564379     0.651728 
    0.395006     0.588090     0.680075 
    0.391428     0.451913     0.381760 
    0.488013     0.275889     0.514230 
    0.318754     0.517702     0.392080 
    0.388496     0.296765     0.494300 
    0.451803     0.269593     0.417977 
    0.397428     0.349238     0.395429 
    0.266020     0.544471     0.470578 
    0.268406     0.520118     0.574183 
    0.458957     0.505635     0.634063 
EA11467 16.150 15.014 14.559 90.00 90.00 90.00 Sym.group:    0
1.0
   16.149888     0.000000     0.000000
    0.000000    15.014448     0.000000
    0.000000     0.000000    14.559001
   W   B
  11  21
Direct
    0.685266     0.393600     0.516402 
    0.578493     0.521107     0.495523 
    0.607502     0.602628     0.350227 
    0.459688     0.625579     0.563898 
    0.581693     0.413812     0.644748 
    0.705465     0.549991     0.609837 
    0.461366     0.291237     0.596641 
    0.291805     0.446012     0.476881 
    0.323439     0.488764     0.640631 
    0.433904     0.533267     0.377318 
    0.440127     0.444397     0.544877 
    0.603304     0.651650     0.582166 
    0.662682     0.468337     0.377448 
    0.712310     0.537325     0.452023 
    0.671446     0.638501     0.487607 
    0.573784     0.677854     0.477252 
    0.493706     0.661915     0.408948 
    0.577900     0.565182     0.649759 
    0.711960     0.417854     0.658826 
    0.563224     0.470300     0.331381 
    0.566480     0.324596     0.508455 
    0.595270     0.381614     0.405625 
    0.469777     0.316684     0.450298 
    0.392429     0.663871     0.431816 
    0.329588     0.628170     0.624066 
    0.331457     0.668622     0.520954 
    0.268856     0.578323     0.541817 
    0.368583     0.319147     0.485112 
    0.493241     0.398197     0.367211 
    0.333917     0.346016     0.588958 
    0.395982     0.388309     0.396836 
    0.315358     0.587140     0.436462 
EA11472 17.574 15.998 15.925 90.00 90.00 90.00 Sym.group:    0
1.0
   17.573695     0.000000     0.000000
    0.000000    15.998088     0.000000
    0.000000     0.000000    15.924818
   W   B
  15  25
Direct
    0.532914     0.649483     0.427061 
    0.551020     0.381589     0.350690 
    0.452504     0.553168     0.526835 
    0.325040     0.491688     0.553868 
    0.382969     0.581498     0.386532 
    0.428627     0.422522     0.423742 
    0.369084     0.652413     0.619841 
    0.602146     0.542611     0.320056 
    0.593996     0.587258     0.604384 
    0.578512     0.478181     0.486581 
    0.525141     0.508435     0.725711 
    0.550365     0.303896     0.494561 
    0.468401     0.400705     0.599220 
    0.675802     0.654494     0.418079 
    0.245217     0.589874     0.426661 
    0.488674     0.596539     0.309847 
    0.481544     0.493986     0.313672 
    0.361357     0.302455     0.440562 
    0.294032     0.474083     0.415595 
    0.303181     0.382210     0.457796 
    0.267224     0.614054     0.555310 
    0.331370     0.660271     0.489884 
    0.356695     0.354742     0.538758 
    0.451232     0.282914     0.410206 
    0.423440     0.688826     0.498758 
    0.595148     0.339218     0.622888 
    0.555863     0.383050     0.702894 
    0.597302     0.448055     0.629458 
    0.702919     0.559028     0.512270 
    0.655758     0.377264     0.548356 
    0.667547     0.437869     0.377411 
    0.705183     0.527850     0.409179 
    0.652144     0.359706     0.442439 
    0.429855     0.292467     0.515193 
    0.415391     0.523863     0.662780 
    0.480507     0.613938     0.654337 
    0.503547     0.683028     0.565841 
    0.603811     0.704431     0.527932 
    0.687809     0.656474     0.549998 
    0.706728     0.445869     0.484816 
EA11962 17.416 15.705 14.834 90.00 90.00 90.00 Sym.group:    0
1.0
   17.415574     0.000000     0.000000
    0.000000    15.704706     0.000000
    0.000000     0.000000    14.833762
   W   B
  15  21
Direct
    0.330127     0.420203     0.391706 
    0.523288     0.636481     0.404805 
    0.492881     0.401679     0.369494 
    0.700046     0.370798     0.526094 
    0.594653     0.507923     0.487846 
    0.437435     0.506632     0.490462 
    0.311813     0.637645     0.534834 
    0.390625     0.525178     0.653858 
    0.537609     0.350173     0.529990 
    0.623333     0.446847     0.650052 
    0.305030     0.402158     0.557355 
    0.720398     0.490062     0.406310 
    0.523162     0.615479     0.606754 
    0.414685     0.537774     0.313509 
    0.616954     0.698881     0.517175 
    0.392746     0.303763     0.385937 
    0.468457     0.274262     0.441645 
    0.436040     0.673117     0.509473 
    0.319550     0.567721     0.405167 
    0.412270     0.352158     0.491918 
    0.390454     0.640768     0.412394 
    0.624790     0.559979     0.335494 
    0.626706     0.379455     0.412670 
    0.612206     0.453557     0.332897 
    0.539721     0.521776     0.305216 
    0.663351     0.621369     0.412649 
    0.406360     0.659016     0.616035 
    0.271131     0.525217     0.597542 
    0.267751     0.514635     0.485424 
    0.424332     0.393863     0.599245 
    0.635656     0.307868     0.619695 
    0.497681     0.434624     0.653626 
    0.653964     0.585800     0.608481 
    0.522963     0.518381     0.716686 
    0.606126     0.570710     0.707237 
    0.705709     0.594046     0.510322 
EA12159 17.220 16.086 15.874 90.00 90.00 90.00 Sym.group:    0
1.0
   17.219964     0.000000     0.000000
    0.000000    16.085684     0.000000
    0.000000     0.000000    15.874493
   W   B
  15  23
Direct
    0.338966     0.460093     0.693432 
    0.350106     0.444794     0.476367 
    0.485370     0.426482     0.618010 
    0.440620     0.572135     0.658818 
    0.598232     0.479721     0.502246 
    0.597572     0.637757     0.453459 
    0.653308     0.596906     0.604833 
    0.376434     0.698147     0.444851 
    0.459933     0.553940     0.487170 
    0.507639     0.414679     0.365820 
    0.448063     0.575714     0.332650 
    0.706189     0.355179     0.516653 
    0.320646     0.586965     0.552941 
    0.649702     0.425524     0.642791 
    0.498262     0.762375     0.493851 
    0.421756     0.335896     0.438540 
    0.272113     0.466099     0.584251 
    0.387826     0.344804     0.647854 
    0.508634     0.346366     0.490095 
    0.601587     0.347409     0.442677 
    0.314220     0.375049     0.589916 
    0.562927     0.523324     0.671435 
    0.719806     0.464713     0.440697 
    0.557166     0.626939     0.678915 
    0.727959     0.490572     0.549414 
    0.492396     0.694111     0.384972 
    0.708638     0.568246     0.479384 
    0.669095     0.540975     0.388060 
    0.413906     0.452677     0.281377 
    0.381852     0.386475     0.353476 
    0.344576     0.486815     0.343034 
    0.337501     0.570157     0.408758 
    0.424353     0.675783     0.567239 
    0.525724     0.661096     0.582586 
    0.575090     0.531499     0.361443 
    0.635155     0.440391     0.372982 
    0.403627     0.334707     0.542546 
    0.583053     0.345484     0.556460 
EA12565 16.861 15.685 15.333 90.00 90.00 90.00 Sym.group:    0
1.0
   16.860742     0.000000     0.000000
    0.000000    15.684857     0.000000
    0.000000     0.000000    15.333114
   W   B
  11  25
Direct
    0.492621     0.675520     0.411316 
    0.689033     0.482851     0.580877 
    0.592777     0.397760     0.357370 
    0.599713     0.561491     0.452624 
    0.404226     0.544862     0.324763 
    0.437920     0.532026     0.503718 
    0.525562     0.668309     0.576158 
    0.416625     0.352896     0.506868 
    0.360203     0.481016     0.641842 
    0.518210     0.412340     0.621138 
    0.560131     0.290041     0.494403 
    0.507041     0.475339     0.277635 
    0.533779     0.576311     0.320529 
    0.712857     0.626513     0.510265 
    0.695118     0.455074     0.429222 
    0.737474     0.543327     0.455921 
    0.657533     0.373877     0.483090 
    0.510331     0.491596     0.391524 
    0.635946     0.695122     0.514052 
    0.575854     0.544312     0.616014 
    0.406926     0.622787     0.621793 
    0.370304     0.642134     0.421930 
    0.399444     0.676612     0.523707 
    0.646222     0.617710     0.591884 
    0.326434     0.604160     0.561596 
    0.491187     0.317013     0.387803 
    0.451718     0.407570     0.348496 
    0.359361     0.443908     0.415690 
    0.325287     0.349766     0.607863 
    0.285576     0.516139     0.523131 
    0.295517     0.412267     0.531587 
    0.411172     0.351035     0.654447 
    0.316475     0.548502     0.426047 
    0.636922     0.351592     0.587223 
    0.636734     0.410616     0.678163 
    0.477768     0.547608     0.649311 
EA12875 16.816 15.583 15.282 90.00 90.00 90.00 Sym.group:    0
1.0
   16.816370     0.000000     0.000000
    0.000000    15.582942     0.000000
    0.000000     0.000000    15.282281
   W   B
  11  25
Direct
    0.500670     0.317820     0.434184 
    0.306504     0.519723     0.575174 
    0.406697     0.591643     0.347377 
    0.401307     0.438437     0.460934 
    0.592507     0.437305     0.329614 
    0.561029     0.472980     0.504559 
    0.473678     0.338238     0.597703 
    0.586484     0.646009     0.492208 
    0.641756     0.531734     0.641023 
    0.483599     0.596850     0.612257 
    0.440068     0.706471     0.480626 
    0.495700     0.507569     0.274385 
    0.464583     0.410920     0.328329 
    0.287267     0.375645     0.514876 
    0.301490     0.540035     0.419816 
    0.261853     0.452411     0.451958 
    0.342084     0.621425     0.473041 
    0.490060     0.502021     0.389441 
    0.370751     0.309223     0.519052 
    0.419287     0.464771     0.628020 
    0.594855     0.391782     0.627710 
    0.628507     0.350784     0.441482 
    0.594817     0.322407     0.541347 
    0.351249     0.385460     0.599813 
    0.670349     0.402700     0.548528 
    0.510445     0.671091     0.375588 
    0.553453     0.579525     0.341270 
    0.645657     0.541860     0.408829 
    0.674939     0.665332     0.602179 
    0.710913     0.499711     0.519511 
    0.717968     0.599851     0.541352 
    0.587253     0.663490     0.642395 
    0.683166     0.441435     0.434467 
    0.361854     0.649702     0.576805 
    0.365348     0.589570     0.670150 
    0.521850     0.464073     0.653997 
EA13187 17.132 15.427 15.149 90.00 90.00 90.00 Sym.group:    0
1.0
   17.131894     0.000000     0.000000
    0.000000    15.426731     0.000000
    0.000000     0.000000    15.148581
   W   B
  11  25
Direct
    0.479979     0.308703     0.458966 
    0.308892     0.549148     0.571840 
    0.412721     0.584521     0.335057 
    0.395798     0.446885     0.467895 
    0.577870     0.403354     0.338058 
    0.553499     0.466424     0.505301 
    0.461972     0.359060     0.620539 
    0.603711     0.627646     0.471793 
    0.642788     0.531077     0.634605 
    0.495913     0.612399     0.598004 
    0.462304     0.707768     0.458778 
    0.491866     0.482437     0.274718 
    0.451496     0.394076     0.342807 
    0.281054     0.403118     0.528881 
    0.307501     0.555508     0.413431 
    0.262268     0.473851     0.455253 
    0.357448     0.635933     0.460578 
    0.485354     0.491253     0.387871 
    0.360486     0.327255     0.540164 
    0.415281     0.495382     0.639055 
    0.587394     0.400034     0.640069 
    0.610644     0.328530     0.460736 
    0.574880     0.319595     0.563832 
    0.345209     0.413817     0.612364 
    0.657341     0.394640     0.554540 
    0.525345     0.649651     0.357014 
    0.564927     0.550626     0.339891 
    0.647295     0.507434     0.399009 
    0.689417     0.659859     0.583071 
    0.701522     0.490934     0.506209 
    0.732207     0.583280     0.537756 
    0.602995     0.670147     0.620317 
    0.672252     0.410473     0.440103 
    0.379124     0.671600     0.563714 
    0.381248     0.611960     0.659089 
    0.519996     0.481620     0.658693 
EA13504 16.616 15.201 14.724 90.00 90.00 90.00 Sym.group:    0
1.0
   16.616281     0.000000     0.000000
    0.000000    15.201294     0.000000
    0.000000     0.000000    14.723720
   W   B
  15  21
Direct
    0.547465     0.418914     0.375231 
    0.608318     0.307866     0.577461 
    0.481797     0.419721     0.624892 
    0.264237     0.496757     0.481562 
    0.386831     0.468348     0.368884 
    0.328409     0.467941     0.642252 
    0.530915     0.679447     0.436195 
    0.711339     0.459703     0.538710 
    0.589822     0.570641     0.668860 
    0.696575     0.625015     0.429395 
    0.399264     0.575162     0.527405 
    0.388596     0.643200     0.343547 
    0.469960     0.256445     0.585459 
    0.572385     0.537145     0.509884 
    0.271377     0.661069     0.438565 
    0.438633     0.349460     0.452754 
    0.713297     0.326232     0.488651 
    0.625646     0.305411     0.430062 
    0.529621     0.292776     0.458119 
    0.685806     0.390819     0.404266 
    0.333691     0.369235     0.458111 
    0.285158     0.555839     0.346418 
    0.466258     0.457186     0.484910 
    0.278888     0.373940     0.553982 
    0.371340     0.344723     0.578054 
    0.636053     0.678711     0.549717 
    0.702432     0.600421     0.573462 
    0.595779     0.569446     0.354059 
    0.545774     0.694739     0.587789 
    0.664107     0.494696     0.396139 
    0.496420     0.558626     0.342022 
    0.616783     0.433733     0.638807 
    0.396169     0.715511     0.468585 
    0.472055     0.642805     0.645539 
    0.446281     0.545941     0.683354 
    0.452520     0.712380     0.556893 
EA13663 16.781 16.291 15.085 90.00 90.00 90.00 Sym.group:    0
1.0
   16.780632     0.000000     0.000000
    0.000000    16.291453     0.000000
    0.000000     0.000000    15.084649
   W   B
  14  25
Direct
    0.519693     0.351795     0.489038 
    0.595064     0.622441     0.642398 
    0.621045     0.366381     0.608938 
    0.575394     0.507822     0.512011 
    0.613370     0.407650     0.345293 
    0.590991     0.633802     0.388079 
    0.700388     0.507826     0.415559 
    0.405934     0.479437     0.506711 
    0.502993     0.478193     0.662888 
    0.377108     0.303710     0.516332 
    0.289950     0.410272     0.434550 
    0.463911     0.640732     0.544266 
    0.485345     0.542214     0.280313 
    0.436594     0.666434     0.359804 
    0.492407     0.338291     0.637273 
    0.411652     0.372410     0.400307 
    0.489124     0.448642     0.385453 
    0.699168     0.560937     0.575842 
    0.725036     0.379880     0.510871 
    0.645753     0.329782     0.467428 
    0.709836     0.461630     0.571043 
    0.642401     0.496462     0.647497 
    0.664211     0.629253     0.507303 
    0.721207     0.371642     0.403539 
    0.620523     0.534399     0.296367 
    0.276625     0.488624     0.562836 
    0.311299     0.397135     0.586797 
    0.402791     0.382638     0.632976 
    0.393222     0.571830     0.655743 
    0.352328     0.476776     0.646411 
    0.479060     0.610289     0.691181 
    0.386084     0.456579     0.341677 
    0.587674     0.696153     0.523098 
    0.517129     0.727227     0.450176 
    0.354934     0.617803     0.458177 
    0.281250     0.547216     0.475219 
    0.330765     0.584721     0.566243 
    0.339187     0.542362     0.380264 
    0.488554     0.558611     0.420098 
EA13998 16.522 16.469 14.529 90.00 90.00 90.00 Sym.group:    0
1.0
   16.522332     0.000000     0.000000
    0.000000    16.469151     0.000000
    0.000000     0.000000    14.529125
   W   B
  13  25
Direct
    0.604617     0.493019     0.496833 
    0.555521     0.461742     0.685281 
    0.676973     0.509000     0.319225 
    0.585227     0.606274     0.619381 
    0.657337     0.644170     0.446882 
    0.449459     0.687226     0.616003 
    0.338267     0.524451     0.604608 
    0.460829     0.437066     0.551177 
    0.469758     0.365401     0.370475 
    0.326034     0.681403     0.386604 
    0.446862     0.597105     0.480236 
    0.552301     0.592971     0.340419 
    0.374935     0.519932     0.344991 
    0.730130     0.458287     0.543013 
    0.550236     0.692650     0.510498 
    0.712865     0.429856     0.427385 
    0.712225     0.569200     0.556841 
    0.669518     0.410974     0.616919 
    0.679206     0.508094     0.641931 
    0.459924     0.558785     0.670468 
    0.737007     0.527126     0.454117 
    0.423295     0.466716     0.705171 
    0.584375     0.370142     0.582965 
    0.367511     0.393378     0.656787 
    0.390498     0.320087     0.581672 
    0.305430     0.471829     0.465954 
    0.563550     0.343137     0.475807 
    0.373963     0.329654     0.468153 
    0.342085     0.399072     0.391892 
    0.466912     0.303179     0.502800 
    0.323360     0.397119     0.546722 
    0.621630     0.389412     0.386110 
    0.488346     0.487669     0.405398 
    0.325520     0.649292     0.539905 
    0.427968     0.644979     0.322421 
    0.306820     0.572489     0.463427 
    0.379733     0.729928     0.500784 
    0.559772     0.457188     0.320745 
EA14532 16.213 15.340 14.754 90.00 90.00 90.00 Sym.group:    0
1.0
   16.212743     0.000000     0.000000
    0.000000    15.339980     0.000000
    0.000000     0.000000    14.754416
   W   B
  12  21
Direct
    0.553834     0.560016     0.506110 
    0.467275     0.580911     0.651655 
    0.591672     0.544922     0.339012 
    0.615286     0.474603     0.667189 
    0.697766     0.520552     0.485710 
    0.568691     0.325506     0.587154 
    0.423224     0.588921     0.370871 
    0.368185     0.373043     0.405035 
    0.280318     0.505407     0.384695 
    0.398769     0.499786     0.519010 
    0.664505     0.327255     0.455727 
    0.433815     0.683328     0.508549 
    0.571942     0.714349     0.488151 
    0.685279     0.401377     0.573467 
    0.536628     0.672129     0.391078 
    0.650650     0.662942     0.541572 
    0.673737     0.436746     0.369825 
    0.507316     0.448324     0.587293 
    0.553537     0.684099     0.594818 
    0.500796     0.415678     0.701782 
    0.641950     0.651430     0.425390 
    0.576397     0.399287     0.357773 
    0.485544     0.350846     0.339810 
    0.426400     0.379384     0.631418 
    0.621799     0.610818     0.637885 
    0.265761     0.538886     0.530918 
    0.276535     0.430920     0.511034 
    0.349509     0.361924     0.552689 
    0.313469     0.619586     0.473117 
    0.481878     0.460000     0.363801 
    0.335491     0.611014     0.587129 
    0.531811     0.320187     0.440190 
    0.450230     0.345826     0.520144 
EA14584 17.082 16.779 15.414 90.00 90.00 90.00 Sym.group:    0
1.0
   17.082077     0.000000     0.000000
    0.000000    16.778773     0.000000
    0.000000     0.000000    15.413933
   W   B
  15  24
Direct
    0.581516     0.474944     0.522877 
    0.500953     0.318945     0.560459 
    0.571932     0.438132     0.342846 
    0.702652     0.405223     0.451885 
    0.668289     0.408138     0.640326 
    0.681204     0.556505     0.426969 
    0.308550     0.469403     0.524210 
    0.418190     0.591726     0.619270 
    0.439746     0.511258     0.452520 
    0.548534     0.592547     0.355725 
    0.533544     0.648321     0.518466 
    0.391805     0.626159     0.347911 
    0.436149     0.509788     0.262725 
    0.571789     0.559248     0.669510 
    0.323584     0.465491     0.346612 
    0.375802     0.368101     0.592093 
    0.494394     0.379011     0.437465 
    0.647848     0.533372     0.292850 
    0.384391     0.287899     0.517979 
    0.437975     0.405420     0.350507 
    0.587536     0.345749     0.447063 
    0.701859     0.460904     0.327573 
    0.629212     0.328401     0.539741 
    0.545076     0.421113     0.665960 
    0.725251     0.494977     0.551942 
    0.451342     0.390974     0.655336 
    0.309362     0.345813     0.505247 
    0.694277     0.532323     0.648126 
    0.469648     0.486706     0.678031 
    0.422780     0.720574     0.450220 
    0.494221     0.701522     0.388475 
    0.518886     0.672432     0.669784 
    0.452189     0.720249     0.625457 
    0.392617     0.706777     0.546375 
    0.381669     0.464724     0.634872 
    0.303613     0.567449     0.425050 
    0.352008     0.622712     0.495402 
    0.392686     0.377418     0.446802 
    0.656924     0.589548     0.565337 
EA14872 16.916 16.599 14.449 90.00 90.00 90.00 Sym.group:    0
1.0
   16.916350     0.000000     0.000000
    0.000000    16.599385     0.000000
    0.000000     0.000000    14.449470
   W   B
  15  25
Direct
    0.402249     0.367222     0.338761 
    0.411358     0.480813     0.640972 
    0.344160     0.481183     0.455197 
    0.263389     0.484498     0.608290 
    0.492400     0.498847     0.345285 
    0.472274     0.577451     0.495339 
    0.386549     0.699453     0.553209 
    0.415318     0.695310     0.358510 
    0.502670     0.752798     0.474877 
    0.560455     0.414911     0.642039 
    0.721785     0.579458     0.586323 
    0.613360     0.645219     0.487344 
    0.554729     0.351196     0.391512 
    0.633193     0.585488     0.322463 
    0.615561     0.476163     0.485389 
    0.344596     0.378747     0.578125 
    0.263839     0.383077     0.509446 
    0.284998     0.376823     0.393382 
    0.379366     0.574551     0.356697 
    0.440264     0.610249     0.650256 
    0.528616     0.648868     0.362864 
    0.520609     0.666268     0.606016 
    0.332761     0.623934     0.442761 
    0.342563     0.593030     0.640438 
    0.344279     0.331280     0.468992 
    0.288017     0.591881     0.537241 
    0.611761     0.628710     0.642351 
    0.441150     0.359514     0.607095 
    0.525741     0.553102     0.661040 
    0.689814     0.463247     0.631155 
    0.623053     0.529155     0.665051 
    0.441484     0.307688     0.457779 
    0.510439     0.325398     0.535848 
    0.680692     0.346588     0.466470 
    0.619056     0.455493     0.319099 
    0.682723     0.377435     0.577451 
    0.715705     0.568769     0.437512 
    0.709817     0.489990     0.362266 
    0.684912     0.394790     0.371515 
    0.604300     0.331398     0.533643 
EA15446 15.956 14.648 15.731 90.00 90.00 90.00 Sym.group:    0
1.0
   15.956209     0.000000     0.000000
    0.000000    14.647744     0.000000
    0.000000     0.000000    15.731144
   W   B
  12  21
Direct
    0.494886     0.538982     0.507144 
    0.605954     0.518221     0.365433 
    0.496658     0.369315     0.584342 
    0.332605     0.591834     0.495980 
    0.391111     0.506279     0.637422 
    0.667084     0.595981     0.503827 
    0.412042     0.514200     0.360470 
    0.500357     0.370576     0.412225 
    0.598222     0.508415     0.640431 
    0.495800     0.663379     0.667122 
    0.649630     0.358645     0.366539 
    0.426921     0.685396     0.401852 
    0.299966     0.361333     0.489687 
    0.701246     0.361736     0.492605 
    0.510367     0.546579     0.262634 
    0.290535     0.458136     0.545592 
    0.613977     0.658557     0.612985 
    0.604023     0.321571     0.494868 
    0.523789     0.438193     0.284422 
    0.355639     0.373506     0.578868 
    0.437947     0.699058     0.543127 
    0.699493     0.462067     0.554359 
    0.493837     0.437120     0.705223 
    0.293147     0.461264     0.434262 
    0.548666     0.689676     0.532065 
    0.710108     0.464423     0.446550 
    0.492833     0.541703     0.735148 
    0.395163     0.317928     0.493514 
    0.562035     0.651330     0.424230 
    0.373046     0.650198     0.612747 
    0.638352     0.376017     0.583688 
    0.359395     0.376555     0.405279 
    0.525165     0.631823     0.325362 
EA15734 16.440 15.450 15.045 90.00 90.00 90.00 Sym.group:    0
1.0
   16.440423     0.000000     0.000000
    0.000000    15.449521     0.000000
    0.000000     0.000000    15.044631
   W   B
  12  21
Direct
    0.614253     0.508496     0.652033 
    0.489421     0.342674     0.418714 
    0.293193     0.588548     0.490093 
    0.408377     0.491232     0.374770 
    0.719842     0.586742     0.513184 
    0.384525     0.509995     0.626959 
    0.506529     0.367508     0.601701 
    0.506189     0.638296     0.590699 
    0.514665     0.633473     0.406628 
    0.320897     0.342541     0.441268 
    0.570869     0.492854     0.486371 
    0.635433     0.709803     0.481474 
    0.428097     0.437001     0.511177 
    0.494369     0.556368     0.702190 
    0.277526     0.467752     0.423936 
    0.653473     0.599202     0.392564 
    0.599714     0.336456     0.492022 
    0.497112     0.454475     0.709756 
    0.405045     0.683010     0.490641 
    0.685264     0.404369     0.472932 
    0.639838     0.386011     0.579102 
    0.549168     0.442756     0.335895 
    0.288850     0.449805     0.534226 
    0.713424     0.457697     0.564033 
    0.507070     0.533815     0.293921 
    0.409304     0.298796     0.528288 
    0.371583     0.648533     0.588922 
    0.638881     0.641649     0.604295 
    0.378919     0.630859     0.397908 
    0.619907     0.381750     0.391426 
    0.352950     0.377006     0.578939 
    0.426635     0.556997     0.499438 
    0.598676     0.543532     0.324501 
EA15903 17.058 16.720 14.855 90.00 90.00 90.00 Sym.group:    0
1.0
   17.058303     0.000000     0.000000
    0.000000    16.719784     0.000000
    0.000000     0.000000    14.854543
   W   B
  15  21
Direct
    0.531128     0.418184     0.596697 
    0.558243     0.319848     0.462990 
    0.272136     0.460071     0.460072 
    0.368455     0.509938     0.596034 
    0.531495     0.698542     0.521414 
    0.588781     0.619060     0.367133 
    0.350807     0.667864     0.560316 
    0.348105     0.591842     0.414303 
    0.730056     0.470808     0.498915 
    0.494460     0.557804     0.509860 
    0.404557     0.352479     0.397272 
    0.654826     0.595543     0.564534 
    0.634276     0.445128     0.354240 
    0.723338     0.580233     0.388901 
    0.468884     0.512470     0.332107 
    0.680324     0.360594     0.451014 
    0.408304     0.379226     0.630442 
    0.507891     0.435980     0.445290 
    0.452712     0.252193     0.461948 
    0.655894     0.463905     0.621407 
    0.652790     0.377694     0.559665 
    0.437734     0.319335     0.544710 
    0.439455     0.449086     0.697024 
    0.587812     0.527888     0.660828 
    0.485892     0.534814     0.674336 
    0.402149     0.471617     0.456847 
    0.614983     0.523469     0.458574 
    0.648517     0.690915     0.462322 
    0.347760     0.468738     0.346586 
    0.461584     0.645047     0.373107 
    0.416265     0.705623     0.447265 
    0.450664     0.630594     0.634949 
    0.265736     0.572285     0.529091 
    0.354921     0.383578     0.532314 
    0.547794     0.620278     0.647965 
    0.521269     0.387324     0.339533 
EA16356 17.009 14.101 13.978 90.00 90.00 90.00 Sym.group:    0
1.0
   17.008974     0.000000     0.000000
    0.000000    14.101050     0.000000
    0.000000     0.000000    13.978238
   W   B
  12  21
Direct
    0.608008     0.366644     0.581075 
    0.377701     0.344162     0.485741 
    0.608002     0.381639     0.396700 
    0.377295     0.465703     0.345586 
    0.607383     0.561007     0.355667 
    0.377527     0.632786     0.417523 
    0.612000     0.652644     0.510766 
    0.375856     0.616502     0.601708 
    0.611800     0.533619     0.651150 
    0.376011     0.437937     0.645093 
    0.741551     0.608348     0.592320 
    0.244270     0.529674     0.625330 
    0.718696     0.454225     0.593771 
    0.271709     0.401644     0.551697 
    0.715192     0.391725     0.487692 
    0.272181     0.418604     0.427721 
    0.715192     0.472503     0.393598 
    0.271428     0.539076     0.397925 
    0.720254     0.585151     0.441286 
    0.269610     0.607146     0.501815 
    0.509325     0.460152     0.322396 
    0.475411     0.569878     0.333891 
    0.507280     0.657434     0.404024 
    0.475738     0.677607     0.515135 
    0.510236     0.632810     0.616200 
    0.475388     0.538973     0.672831 
    0.509566     0.429420     0.670946 
    0.474663     0.349745     0.593670 
    0.509159     0.324110     0.485719 
    0.475031     0.367103     0.382662 
    0.768398     0.494919     0.496696 
    0.335867     0.499170     0.502245 
    0.602277     0.497940     0.499423 
EA16615 18.047 16.160 15.935 90.00 90.00 90.00 Sym.group:    0
1.0
   18.047376     0.000000     0.000000
    0.000000    16.160476     0.000000
    0.000000     0.000000    15.934507
   W   B
  13  22
Direct
    0.383667     0.431884     0.652842 
    0.533432     0.450529     0.667034 
    0.495674     0.319143     0.596825 
    0.596456     0.632883     0.564067 
    0.752917     0.447095     0.577404 
    0.495672     0.459229     0.506002 
    0.666903     0.516314     0.489136 
    0.441656     0.713642     0.488160 
    0.376657     0.568647     0.538650 
    0.599808     0.409554     0.394292 
    0.447451     0.576859     0.373981 
    0.379342     0.434389     0.413787 
    0.663492     0.538635     0.333834 
    0.288909     0.493467     0.593347 
    0.603615     0.315927     0.508205 
    0.525584     0.596979     0.670483 
    0.609038     0.567018     0.685704 
    0.529939     0.305449     0.456150 
    0.475028     0.647594     0.596943 
    0.498348     0.596901     0.494587 
    0.671608     0.522995     0.630567 
    0.380040     0.347584     0.548970 
    0.453567     0.539471     0.636426 
    0.673124     0.375965     0.524678 
    0.625658     0.628821     0.422521 
    0.537881     0.677662     0.422039 
    0.353745     0.654774     0.428498 
    0.323347     0.558318     0.411713 
    0.311652     0.412637     0.538656 
    0.550229     0.516020     0.307373 
    0.480121     0.359246     0.384917 
    0.439958     0.326212     0.472677 
    0.563660     0.613108     0.342326 
    0.487070     0.450449     0.342523 
    0.284748     0.494600     0.484680 
EA16896 17.529 16.843 14.662 90.00 90.00 90.00 Sym.group:    0
1.0
   17.529284     0.000000     0.000000
    0.000000    16.843352     0.000000
    0.000000     0.000000    14.661816
   W   B
  15  21
Direct
    0.564907     0.449626     0.623216 
    0.642581     0.340095     0.535427 
    0.633923     0.668343     0.412913 
    0.552989     0.635063     0.569458 
    0.323664     0.584721     0.518761 
    0.319622     0.460977     0.377756 
    0.430935     0.723791     0.522974 
    0.477561     0.649410     0.391185 
    0.415849     0.288624     0.515270 
    0.456014     0.522718     0.507386 
    0.671856     0.515051     0.388868 
    0.348047     0.419199     0.562424 
    0.504270     0.476685     0.352159 
    0.596409     0.363505     0.368612 
    0.713834     0.470296     0.549548 
    0.535527     0.297518     0.475662 
    0.647353     0.557692     0.626847 
    0.584311     0.457039     0.475842 
    0.711570     0.396377     0.429977 
    0.452984     0.365825     0.631852 
    0.527264     0.320844     0.588735 
    0.572466     0.565254     0.693270 
    0.437471     0.458745     0.657932 
    0.479346     0.552062     0.670734 
    0.566221     0.562105     0.443742 
    0.420784     0.411415     0.443052 
    0.256716     0.481158     0.490104 
    0.575762     0.586971     0.323690 
    0.373307     0.575504     0.376359 
    0.355763     0.670726     0.417838 
    0.418988     0.625595     0.618219 
    0.544092     0.738892     0.470180 
    0.675784     0.594959     0.522495 
    0.380616     0.537007     0.644850 
    0.355364     0.340066     0.407984 
    0.475850     0.336148     0.394682 
EA17236 17.824 16.303 14.085 90.00 90.00 90.00 Sym.group:    0
1.0
   17.823799     0.000000     0.000000
    0.000000    16.302988     0.000000
    0.000000     0.000000    14.084760
   W   B
  13  22
Direct
    0.627704     0.479597     0.373583 
    0.680166     0.501778     0.571092 
    0.573330     0.371049     0.510928 
    0.546654     0.539015     0.513404 
    0.607821     0.660850     0.598026 
    0.394221     0.359115     0.593940 
    0.451186     0.503066     0.669650 
    0.448042     0.659084     0.595618 
    0.450471     0.646002     0.408840 
    0.608591     0.669301     0.404728 
    0.397502     0.508357     0.500439 
    0.270173     0.410210     0.535691 
    0.285377     0.468532     0.381183 
    0.685328     0.384023     0.468123 
    0.585203     0.363030     0.350143 
    0.737795     0.456384     0.436912 
    0.510142     0.376066     0.653656 
    0.695626     0.621992     0.503407 
    0.728577     0.553656     0.436235 
    0.592123     0.546270     0.681121 
    0.574804     0.450646     0.641269 
    0.331897     0.478603     0.639637 
    0.524554     0.613500     0.699558 
    0.459220     0.301700     0.473303 
    0.495750     0.292918     0.585709 
    0.514714     0.311230     0.382959 
    0.528889     0.720348     0.499051 
    0.344881     0.633523     0.510441 
    0.475128     0.509355     0.365628 
    0.318800     0.593280     0.406901 
    0.544251     0.576159     0.348116 
    0.383506     0.541160     0.339915 
    0.401527     0.441150     0.355958 
    0.351346     0.582421     0.620706 
    0.374703     0.376634     0.444132 
EA17571 16.980 16.229 14.993 90.00 90.00 90.00 Sym.group:    0
1.0
   16.980445     0.000000     0.000000
    0.000000    16.229177     0.000000
    0.000000     0.000000    14.993406
   W   B
  13  22
Direct
    0.667588     0.627864     0.523535 
    0.609071     0.472333     0.338379 
    0.571550     0.354768     0.445053 
    0.559499     0.582734     0.623757 
    0.706560     0.385275     0.541174 
    0.566166     0.404188     0.609130 
    0.495630     0.507557     0.492395 
    0.426334     0.420861     0.376404 
    0.379086     0.557115     0.604994 
    0.339516     0.415006     0.528989 
    0.442714     0.671135     0.500908 
    0.485968     0.578782     0.348229 
    0.462016     0.707326     0.655762 
    0.696855     0.551164     0.408208 
    0.735790     0.510519     0.511593 
    0.728388     0.456831     0.416101 
    0.460755     0.377800     0.514818 
    0.497323     0.283319     0.550387 
    0.465183     0.284722     0.439448 
    0.479235     0.496375     0.689764 
    0.663847     0.503020     0.590142 
    0.395438     0.289841     0.514092 
    0.687699     0.369780     0.398822 
    0.426979     0.328906     0.612832 
    0.287600     0.574155     0.396887 
    0.367661     0.633232     0.380820 
    0.459610     0.593817     0.719392 
    0.323904     0.623780     0.484647 
    0.561738     0.708548     0.560360 
    0.362321     0.535164     0.335128 
    0.283978     0.531091     0.499201 
    0.560145     0.662156     0.451557 
    0.306293     0.472790     0.403716 
    0.420926     0.426708     0.645233 
    0.616634     0.601339     0.388145 
