EA40115 11.899 11.996 11.927 90.00 90.00 90.00 Sym.group:    0
1.0
   11.898520     0.000000     0.000000
    0.000000    11.995906     0.000000
    0.000000     0.000000    11.927353
   W   B
   1   6
Direct
    0.542916     0.406122     0.426503 
    0.567879     0.604703     0.474544 
    0.505931     0.508264     0.563764 
    0.644514     0.504673     0.511040 
    0.372044     0.493870     0.510071 
    0.436303     0.600728     0.470018 
    0.430414     0.381640     0.544058 
EA1730 12.410 12.170 10.728 90.00 90.00 90.00 Sym.group:    0
1.0
   12.409723     0.000000     0.000000
    0.000000    12.170094     0.000000
    0.000000     0.000000    10.727710
   W   B
   1   7
Direct
    0.346024     0.489645     0.535325 
    0.627709     0.514828     0.515497 
    0.555867     0.619909     0.496449 
    0.430919     0.616323     0.462408 
    0.497641     0.498099     0.424642 
    0.503686     0.490224     0.590056 
    0.455913     0.375073     0.485741 
    0.582240     0.395897     0.489881 
EA6456 11.472 12.411 12.300 90.00 90.00 90.00 Sym.group:    0
1.0
   11.472386     0.000000     0.000000
    0.000000    12.411489     0.000000
    0.000000     0.000000    12.300039
   W   B
   1   8
Direct
    0.499918     0.497514     0.620291 
    0.503473     0.436216     0.410041 
    0.433009     0.378685     0.514573 
    0.370892     0.494269     0.492776 
    0.419981     0.613975     0.520995 
    0.495501     0.567037     0.414491 
    0.580277     0.385626     0.514272 
    0.567624     0.620444     0.520341 
    0.629327     0.506233     0.492223 
EA39972 13.076 12.869 10.821 90.00 90.00 90.00 Sym.group:    0
1.0
   13.075734     0.000000     0.000000
    0.000000    12.868852     0.000000
    0.000000     0.000000    10.821432
   W   B
   1   9
Direct
    0.498947     0.506535     0.377554 
    0.563408     0.486562     0.592624 
    0.610587     0.409887     0.474792 
    0.384131     0.417735     0.478445 
    0.563893     0.620376     0.504607 
    0.645074     0.529132     0.485488 
    0.438554     0.494331     0.593941 
    0.356281     0.538948     0.489237 
    0.443124     0.624973     0.505275 
    0.496001     0.371522     0.498037 
EA39881 13.634 13.010 11.255 90.00 90.00 90.00 Sym.group:    0
1.0
   13.633928     0.000000     0.000000
    0.000000    13.010293     0.000000
    0.000000     0.000000    11.255173
   W   B
   1  10
Direct
    0.499969     0.505881     0.610156 
    0.610521     0.396837     0.519046 
    0.561037     0.495155     0.420378 
    0.438964     0.493845     0.420445 
    0.390657     0.395852     0.519765 
    0.389176     0.604330     0.501871 
    0.336492     0.500224     0.518210 
    0.663558     0.501783     0.518161 
    0.499278     0.629565     0.477084 
    0.609610     0.605448     0.502520 
    0.500740     0.371080     0.492364 
EA40103 11.960 11.988 10.472 90.00 90.00 90.00 Sym.group:    0
1.0
   11.959923     0.000000     0.000000
    0.000000    11.988180     0.000000
    0.000000     0.000000    10.472334
   W   B
   2   6
Direct
    0.511175     0.509349     0.635380 
    0.637742     0.594753     0.509408 
    0.618935     0.426887     0.483512 
    0.503842     0.363277     0.493023 
    0.386437     0.421270     0.484261 
    0.373215     0.551421     0.491989 
    0.473480     0.636727     0.482426 
    0.495174     0.496317     0.420003 
EA29503 12.315 12.992 11.686 90.00 90.00 90.00 Sym.group:    0
1.0
   12.314760     0.000000     0.000000
    0.000000    12.992005     0.000000
    0.000000     0.000000    11.686236
   W   B
   2   7
Direct
    0.595716     0.587006     0.444435 
    0.569048     0.412719     0.590719 
    0.618407     0.431985     0.424962 
    0.582598     0.567515     0.617255 
    0.483181     0.453746     0.428949 
    0.432435     0.583276     0.413209 
    0.406135     0.417374     0.552440 
    0.353703     0.500455     0.469114 
    0.458779     0.545922     0.558915 
EA39973 11.371 13.067 12.661 90.00 90.00 90.00 Sym.group:    0
1.0
   11.371135     0.000000     0.000000
    0.000000    13.067206     0.000000
    0.000000     0.000000    12.661203
   W   B
   2   8
Direct
    0.496441     0.506950     0.589305 
    0.503862     0.493115     0.410627 
    0.679816     0.503680     0.507557 
    0.629443     0.392403     0.514753 
    0.503409     0.344111     0.513322 
    0.624669     0.612745     0.495791 
    0.496438     0.655731     0.486682 
    0.370415     0.607543     0.485385 
    0.375449     0.387261     0.504102 
    0.320058     0.496462     0.492476 
EA38501 11.803 13.001 12.927 90.00 90.00 90.00 Sym.group:    0
1.0
   11.802590     0.000000     0.000000
    0.000000    13.000574     0.000000
    0.000000     0.000000    12.926990
   W   B
   2   9
Direct
    0.466204     0.511133     0.585512 
    0.495727     0.500699     0.411647 
    0.417207     0.649875     0.483821 
    0.324135     0.562566     0.473095 
    0.558199     0.365232     0.513362 
    0.423285     0.357989     0.498223 
    0.327822     0.440863     0.482073 
    0.636637     0.451542     0.581355 
    0.549248     0.651805     0.499020 
    0.642689     0.564030     0.514343 
    0.658848     0.444263     0.457550 
EA39835 13.753 13.525 11.448 90.00 90.00 90.00 Sym.group:    0
1.0
   13.753338     0.000000     0.000000
    0.000000    13.524967     0.000000
    0.000000     0.000000    11.447554
   W   B
   2  10
Direct
    0.451700     0.504488     0.395006 
    0.490913     0.496295     0.587351 
    0.604320     0.503404     0.430313 
    0.657603     0.447427     0.544262 
    0.652368     0.562559     0.544514 
    0.459676     0.656874     0.489285 
    0.569684     0.625255     0.480133 
    0.580142     0.376360     0.483278 
    0.471053     0.341664     0.484644 
    0.328174     0.493962     0.530770 
    0.370582     0.388158     0.509983 
    0.363783     0.603554     0.520461 
EA33940 12.926 12.323 12.127 90.00 90.00 90.00 Sym.group:    0
1.0
   12.925761     0.000000     0.000000
    0.000000    12.323365     0.000000
    0.000000     0.000000    12.126664
   W   B
   3   6
Direct
    0.530384     0.538574     0.387823 
    0.525753     0.464853     0.614788 
    0.609755     0.622389     0.544049 
    0.436343     0.412035     0.468679 
    0.366920     0.484543     0.563643 
    0.370170     0.527890     0.433307 
    0.559345     0.385249     0.463032 
    0.444445     0.595140     0.531059 
    0.656886     0.469326     0.493620 
EA39974 13.051 12.835 12.283 90.00 90.00 90.00 Sym.group:    0
1.0
   13.051237     0.000000     0.000000
    0.000000    12.835363     0.000000
    0.000000     0.000000    12.282709
   W   B
   3   7
Direct
    0.498686     0.490458     0.400467 
    0.489990     0.352803     0.530657 
    0.432329     0.509373     0.613162 
    0.347257     0.427768     0.487170 
    0.348128     0.550535     0.458763 
    0.440719     0.627789     0.484325 
    0.652521     0.534199     0.463117 
    0.590063     0.490426     0.574233 
    0.638403     0.407361     0.477241 
    0.561905     0.609287     0.510864 
EA14089 13.574 12.868 11.609 90.00 90.00 90.00 Sym.group:    0
1.0
   13.574350     0.000000     0.000000
    0.000000    12.867854     0.000000
    0.000000     0.000000    11.609064
   W   B
   3   8
Direct
    0.569510     0.504923     0.391961 
    0.642459     0.372049     0.488195 
    0.490568     0.511505     0.594199 
    0.492323     0.356242     0.503020 
    0.417655     0.462300     0.419859 
    0.339450     0.503375     0.521962 
    0.400477     0.598477     0.468119 
    0.382976     0.389666     0.536302 
    0.500275     0.658966     0.491393 
    0.607839     0.625827     0.525936 
    0.656469     0.516669     0.559054 
EA36789 11.989 13.404 12.854 90.00 90.00 90.00 Sym.group:    0
1.0
   11.989456     0.000000     0.000000
    0.000000    13.403529     0.000000
    0.000000     0.000000    12.853828
   W   B
   3   9
Direct
    0.495752     0.447111     0.375218 
    0.469285     0.622593     0.433343 
    0.508381     0.508633     0.587932 
    0.397612     0.388293     0.520740 
    0.325671     0.474272     0.581189 
    0.350450     0.493482     0.453985 
    0.347085     0.588810     0.543843 
    0.630718     0.534456     0.428138 
    0.527796     0.359630     0.512664 
    0.687759     0.528816     0.546951 
    0.619049     0.630053     0.517061 
    0.640441     0.423850     0.498938 
EA39805 13.948 13.301 11.799 90.00 90.00 90.00 Sym.group:    0
1.0
   13.947508     0.000000     0.000000
    0.000000    13.301416     0.000000
    0.000000     0.000000    11.799196
   W   B
   3  10
Direct
    0.655281     0.499586     0.443133 
    0.460415     0.497555     0.603773 
    0.459688     0.503601     0.397814 
    0.567758     0.379562     0.409178 
    0.578269     0.394094     0.551708 
    0.570589     0.623615     0.418046 
    0.580979     0.601261     0.559138 
    0.622696     0.495339     0.615050 
    0.476186     0.648111     0.502374 
    0.367675     0.610179     0.506758 
    0.322217     0.501922     0.502096 
    0.472899     0.352523     0.491532 
    0.365350     0.392651     0.499401 
EA39975 13.540 12.802 11.773 90.00 90.00 90.00 Sym.group:    0
1.0
   13.539889     0.000000     0.000000
    0.000000    12.801744     0.000000
    0.000000     0.000000    11.772968
   W   B
   4   6
Direct
    0.581220     0.492424     0.611962 
    0.485941     0.506445     0.398861 
    0.323253     0.551020     0.465926 
    0.518230     0.346263     0.519514 
    0.644556     0.550871     0.449474 
    0.563199     0.629301     0.493820 
    0.639955     0.425424     0.452273 
    0.424835     0.483908     0.583692 
    0.368021     0.399848     0.484290 
    0.450791     0.614497     0.540190 
EA14769 13.619 13.103 11.700 90.00 90.00 90.00 Sym.group:    0
1.0
   13.618504     0.000000     0.000000
    0.000000    13.103085     0.000000
    0.000000     0.000000    11.700376
   W   B
   4   7
Direct
    0.333308     0.539712     0.525303 
    0.487935     0.504808     0.597159 
    0.590053     0.483067     0.392550 
    0.600765     0.640784     0.485727 
    0.381473     0.384405     0.525218 
    0.447688     0.661358     0.530387 
    0.656335     0.505204     0.560541 
    0.608941     0.392655     0.543177 
    0.498010     0.357024     0.503505 
    0.436327     0.452089     0.416655 
    0.459166     0.578892     0.419779 
EA39836 13.193 13.193 11.569 90.00 90.00 90.00 Sym.group:    0
1.0
   13.192703     0.000000     0.000000
    0.000000    13.192703     0.000000
    0.000000     0.000000    11.568821
   W   B
   4   8
Direct
    0.585829     0.475508     0.632117 
    0.524531     0.585849     0.367882 
    0.414062     0.524551     0.632102 
    0.475402     0.414070     0.368000 
    0.375252     0.535409     0.443968 
    0.464618     0.375248     0.556025 
    0.624793     0.464585     0.443975 
    0.535425     0.624770     0.555999 
    0.360014     0.422126     0.500422 
    0.577903     0.360006     0.499553 
    0.640021     0.577878     0.500423 
    0.422148     0.639999     0.499534 
EA39806 14.384 13.695 12.392 90.00 90.00 90.00 Sym.group:    0
1.0
   14.384422     0.000000     0.000000
    0.000000    13.694655     0.000000
    0.000000     0.000000    12.392032
   W   B
   4   9
Direct
    0.494655     0.545441     0.596161 
    0.627845     0.490691     0.389764 
    0.463942     0.527521     0.380413 
    0.539359     0.348675     0.447686 
    0.618184     0.449819     0.564070 
    0.634943     0.566793     0.542218 
    0.460383     0.667035     0.484140 
    0.362065     0.487430     0.512391 
    0.400333     0.394360     0.431358 
    0.427239     0.396682     0.566268 
    0.371942     0.604263     0.502236 
    0.531498     0.384928     0.612256 
    0.567611     0.636362     0.471041 
EA39785 14.120 13.428 11.995 90.00 90.00 90.00 Sym.group:    0
1.0
   14.119765     0.000000     0.000000
    0.000000    13.427868     0.000000
    0.000000     0.000000    11.995451
   W   B
   4  10
Direct
    0.474779     0.413977     0.610792 
    0.519209     0.584933     0.609477 
    0.678942     0.551494     0.515320 
    0.436036     0.514120     0.407061 
    0.521557     0.374372     0.426522 
    0.362848     0.529759     0.576637 
    0.475360     0.669664     0.448167 
    0.389579     0.637584     0.524144 
    0.567477     0.604352     0.411580 
    0.584705     0.481798     0.387041 
    0.616568     0.407045     0.495626 
    0.410534     0.355300     0.446591 
    0.621677     0.453082     0.624659 
    0.340730     0.422519     0.516386 
EA39882 13.042 12.973 12.028 90.00 90.00 90.00 Sym.group:    0
1.0
   13.041928     0.000000     0.000000
    0.000000    12.973203     0.000000
    0.000000     0.000000    12.028467
   W   B
   5   6
Direct
    0.613414     0.610048     0.556516 
    0.469566     0.342672     0.534983 
    0.642493     0.426613     0.555296 
    0.505937     0.492719     0.671810 
    0.340893     0.472976     0.562457 
    0.451229     0.604062     0.549299 
    0.624927     0.527836     0.408967 
    0.545600     0.425069     0.405910 
    0.504072     0.567414     0.409363 
    0.420992     0.454493     0.410496 
    0.380877     0.576099     0.434902 
EA39837 13.835 13.984 11.450 90.00 90.00 90.00 Sym.group:    0
1.0
   13.835320     0.000000     0.000000
    0.000000    13.984458     0.000000
    0.000000     0.000000    11.449850
   W   B
   5   7
Direct
    0.423637     0.533859     0.376923 
    0.487710     0.483999     0.591682 
    0.440440     0.668757     0.501482 
    0.678683     0.528098     0.515061 
    0.580970     0.446126     0.378898 
    0.562696     0.597746     0.426142 
    0.341718     0.449788     0.515869 
    0.350160     0.559739     0.554496 
    0.415852     0.366555     0.493501 
    0.572830     0.624730     0.572267 
    0.526059     0.342381     0.512419 
    0.619246     0.398221     0.561261 
EA30640 13.635 13.979 11.922 90.00 90.00 90.00 Sym.group:    0
1.0
   13.635405     0.000000     0.000000
    0.000000    13.978620     0.000000
    0.000000     0.000000    11.922179
   W   B
   5   8
Direct
    0.502974     0.463622     0.592046 
    0.641406     0.540285     0.391499 
    0.464494     0.453329     0.391223 
    0.494642     0.641759     0.423367 
    0.645734     0.613345     0.563610 
    0.665575     0.465320     0.550764 
    0.358998     0.564735     0.418423 
    0.392567     0.580530     0.551900 
    0.391456     0.364669     0.522023 
    0.494871     0.628256     0.599942 
    0.602625     0.384840     0.481767 
    0.499723     0.326858     0.500085 
    0.344935     0.472451     0.513349 
EA39786 13.498 13.290 12.623 90.00 90.00 90.00 Sym.group:    0
1.0
   13.498424     0.000000     0.000000
    0.000000    13.290095     0.000000
    0.000000     0.000000    12.622942
   W   B
   5   9
Direct
    0.557889     0.422079     0.364541 
    0.392367     0.512820     0.374897 
    0.545499     0.603605     0.369997 
    0.374537     0.557752     0.598935 
    0.626881     0.423772     0.580734 
    0.376118     0.419327     0.526798 
    0.473407     0.434269     0.620670 
    0.506239     0.350716     0.516357 
    0.420724     0.359102     0.423168 
    0.407807     0.646609     0.466753 
    0.668269     0.506985     0.448385 
    0.505344     0.637120     0.542721 
    0.531762     0.545620     0.630871 
    0.613158     0.580223     0.535173 
EA39781 14.216 13.048 12.906 90.00 90.00 90.00 Sym.group:    0
1.0
   14.215708     0.000000     0.000000
    0.000000    13.047784     0.000000
    0.000000     0.000000    12.905560
   W   B
   5  10
Direct
    0.616365     0.507034     0.607477 
    0.537191     0.571805     0.364924 
    0.471239     0.597695     0.648809 
    0.431000     0.423307     0.593630 
    0.511106     0.390593     0.414599 
    0.441097     0.631520     0.475427 
    0.651240     0.598242     0.470990 
    0.659110     0.478715     0.436332 
    0.551958     0.643869     0.516432 
    0.401829     0.510833     0.427128 
    0.363040     0.384544     0.432659 
    0.561190     0.347749     0.575349 
    0.352561     0.569929     0.540479 
    0.303701     0.468756     0.493670 
    0.647373     0.375410     0.502095 
