EA3    14.018 12.428 12.428 90.00 90.00 90.00 Sym.group:    0
1.0
   14.017917     0.000000     0.000000
    0.000000    12.427548     0.000000
    0.000000     0.000000    12.427548
   W   B
   5  10
Direct
    0.577846     0.610346     0.606593 
    0.596283     0.611837     0.404386 
    0.577093     0.392277     0.397558 
    0.593796     0.407898     0.618255 
    0.398214     0.386823     0.390173 
    0.450763     0.362793     0.643989 
    0.414419     0.604331     0.595573 
    0.456295     0.638806     0.353410 
    0.459726     0.652243     0.485124 
    0.479941     0.514400     0.320142 
    0.479486     0.321221     0.522333 
    0.457088     0.495467     0.649141 
    0.505530     0.502894     0.500602 
    0.673387     0.493328     0.496280 
    0.380134     0.505338     0.516441 
EA520  12.960 12.663 12.406 90.00 90.00 90.00 Sym.group:    0
1.0
   12.959914     0.000000     0.000000
    0.000000    12.662810     0.000000
    0.000000     0.000000    12.406482
   W   B
   5   6
Direct
    0.659164     0.518474     0.454350 
    0.334511     0.504082     0.487352 
    0.411575     0.355326     0.548193 
    0.588440     0.408195     0.598435 
    0.593044     0.596587     0.613820 
    0.555987     0.644464     0.448370 
    0.549346     0.398270     0.426497 
    0.441468     0.622021     0.511554 
    0.447958     0.514308     0.616867 
    0.427373     0.408874     0.384560 
    0.491133     0.529402     0.410002 
EA822  13.423 12.618 12.121 90.00 90.00 90.00 Sym.group:    0
1.0
   13.423437     0.000000     0.000000
    0.000000    12.617811     0.000000
    0.000000     0.000000    12.120713
   W   B
   5   7
Direct
    0.345556     0.566506     0.543105 
    0.624944     0.613029     0.456988 
    0.647412     0.424191     0.455979 
    0.371105     0.478259     0.378368 
    0.620795     0.518599     0.628521 
    0.499528     0.614223     0.569621 
    0.462612     0.490324     0.634646 
    0.463099     0.609328     0.428570 
    0.493679     0.381054     0.432386 
    0.530892     0.504312     0.365796 
    0.409609     0.412314     0.534374 
    0.530769     0.387861     0.571645 
EA1085 13.239 13.679 11.962 90.00 90.00 90.00 Sym.group:    0
1.0
   13.238536     0.000000     0.000000
    0.000000    13.678674     0.000000
    0.000000     0.000000    11.961684
   W   B
   4  10
Direct
    0.364121     0.499807     0.601110 
    0.539341     0.561036     0.612657 
    0.635853     0.397986     0.606167 
    0.491337     0.540213     0.393805 
    0.468424     0.379428     0.402994 
    0.406815     0.639993     0.512221 
    0.620995     0.630020     0.467521 
    0.519135     0.683038     0.488697 
    0.647715     0.513844     0.478094 
    0.586827     0.416547     0.426369 
    0.534892     0.329426     0.506420 
    0.366157     0.442134     0.430329 
    0.482757     0.406645     0.632566 
    0.335630     0.559883     0.441052 
EA1426 13.641 13.405 11.880 90.00 90.00 90.00 Sym.group:    0
1.0
   13.641006     0.000000     0.000000
    0.000000    13.405433     0.000000
    0.000000     0.000000    11.880083
   W   B
   4  10
Direct
    0.517869     0.391069     0.602547 
    0.528591     0.566583     0.616849 
    0.345784     0.605652     0.565548 
    0.552597     0.503341     0.396306 
    0.420500     0.402521     0.434737 
    0.660563     0.469596     0.535443 
    0.579780     0.657145     0.462187 
    0.662617     0.587067     0.507308 
    0.462765     0.634857     0.451134 
    0.400179     0.532636     0.408646 
    0.330943     0.464260     0.498896 
    0.521322     0.342330     0.420822 
    0.389885     0.474005     0.630810 
    0.626603     0.368939     0.468768 
EA1950 13.649 12.411 11.830 90.00 90.00 90.00 Sym.group:    0
1.0
   13.649242     0.000000     0.000000
    0.000000    12.410792     0.000000
    0.000000     0.000000    11.829770
   W   B
   3   7
Direct
    0.351237     0.506365     0.466601 
    0.434605     0.420138     0.619684 
    0.446753     0.613823     0.594631 
    0.449438     0.371367     0.449709 
    0.508349     0.489337     0.416011 
    0.463697     0.618362     0.416969 
    0.577096     0.597968     0.472586 
    0.565023     0.388952     0.499581 
    0.568076     0.506755     0.594822 
    0.635727     0.486933     0.469404 
EA2145 12.464 13.565 12.098 90.00 90.00 90.00 Sym.group:    0
1.0
   12.463831     0.000000     0.000000
    0.000000    13.565473     0.000000
    0.000000     0.000000    12.098430
   W   B
   3   9
Direct
    0.403336     0.440899     0.395414 
    0.564378     0.474868     0.609049 
    0.461826     0.609562     0.414629 
    0.667851     0.455662     0.475053 
    0.455147     0.365176     0.541368 
    0.565305     0.377085     0.466266 
    0.568279     0.486147     0.388446 
    0.633260     0.576091     0.476127 
    0.545941     0.626616     0.569499 
    0.425929     0.582994     0.590389 
    0.328426     0.548150     0.498372 
    0.380322     0.456747     0.575387 
EA2572 13.383 12.030 11.982 90.00 90.00 90.00 Sym.group:    0
1.0
   13.382974     0.000000     0.000000
    0.000000    12.029846     0.000000
    0.000000     0.000000    11.982470
   W   B
   3   7
Direct
    0.442249     0.355207     0.525420 
    0.563841     0.467908     0.615697 
    0.496972     0.488758     0.399846 
    0.383431     0.611416     0.457560 
    0.413313     0.541515     0.578841 
    0.338556     0.487126     0.471820 
    0.603023     0.353067     0.482220 
    0.657646     0.471369     0.462962 
    0.606042     0.589300     0.490742 
    0.494926     0.634335     0.514891 
EA2860 13.448 13.203 11.515 90.00 90.00 90.00 Sym.group:    0
1.0
   13.448275     0.000000     0.000000
    0.000000    13.203026     0.000000
    0.000000     0.000000    11.515180
   W   B
   3   8
Direct
    0.495469     0.498526     0.408484 
    0.445644     0.511031     0.616430 
    0.393675     0.661427     0.535244 
    0.650875     0.459854     0.446357 
    0.362617     0.411747     0.486435 
    0.575943     0.373210     0.501739 
    0.461828     0.346783     0.493910 
    0.540180     0.645661     0.494610 
    0.335706     0.528461     0.469562 
    0.634936     0.576990     0.471924 
    0.603129     0.486311     0.575306 
EA3275 12.933 11.401 12.391 90.00 90.00 90.00 Sym.group:    0
1.0
   12.932695     0.000000     0.000000
    0.000000    11.400924     0.000000
    0.000000     0.000000    12.391409
   W   B
   2   8
Direct
    0.504579     0.498047     0.408703 
    0.495552     0.504148     0.591110 
    0.619938     0.381009     0.509769 
    0.513135     0.323879     0.506189 
    0.340079     0.486031     0.492676 
    0.396500     0.367308     0.499305 
    0.379355     0.618422     0.491308 
    0.487002     0.675867     0.494117 
    0.603747     0.632794     0.500734 
    0.660113     0.512493     0.506087 
EA3651 13.002 12.548 11.609 90.00 90.00 90.00 Sym.group:    0
1.0
   13.002354     0.000000     0.000000
    0.000000    12.548078     0.000000
    0.000000     0.000000    11.608530
   W   B
   1   9
Direct
    0.500149     0.496711     0.385018 
    0.399196     0.602866     0.483561 
    0.516620     0.631461     0.503239 
    0.624759     0.574355     0.482424 
    0.638994     0.447613     0.486529 
    0.438490     0.507747     0.586886 
    0.422901     0.382646     0.496296 
    0.564387     0.502370     0.588071 
    0.350943     0.485504     0.485627 
    0.543563     0.368729     0.502348 
EA3875 12.263 12.126 13.249 90.00 90.00 90.00 Sym.group:    0
1.0
   12.263489     0.000000     0.000000
    0.000000    12.125842     0.000000
    0.000000     0.000000    13.248575
   W   B
   1  10
Direct
    0.503138     0.492507     0.593294 
    0.605377     0.626926     0.519999 
    0.363952     0.592561     0.516736 
    0.321913     0.473280     0.515212 
    0.434219     0.493435     0.432285 
    0.480407     0.639251     0.496598 
    0.564800     0.525959     0.431067 
    0.518778     0.356217     0.484384 
    0.635690     0.405816     0.494592 
    0.393656     0.370556     0.502310 
    0.678069     0.523492     0.513523 
EA4323 13.736 12.709 11.824 90.00 90.00 90.00 Sym.group:    0
1.0
   13.735690     0.000000     0.000000
    0.000000    12.709437     0.000000
    0.000000     0.000000    11.824218
   W   B
   4   6
Direct
    0.496074     0.508610     0.403824 
    0.496820     0.657469     0.522808 
    0.564434     0.489681     0.612087 
    0.454207     0.350514     0.554191 
    0.631223     0.599060     0.466623 
    0.585518     0.371024     0.470739 
    0.351847     0.451070     0.474128 
    0.410939     0.516362     0.576322 
    0.649870     0.474216     0.448247 
    0.359069     0.581994     0.471030 
EA4610 13.420 13.048 11.431 90.00 90.00 90.00 Sym.group:    0
1.0
   13.419981     0.000000     0.000000
    0.000000    13.048177     0.000000
    0.000000     0.000000    11.431036
   W   B
   1  10
Direct
    0.500945     0.501677     0.608346 
    0.427917     0.361881     0.513570 
    0.343759     0.442511     0.518187 
    0.361609     0.559239     0.511918 
    0.441708     0.480263     0.422819 
    0.457069     0.625118     0.488917 
    0.572058     0.638008     0.502625 
    0.655922     0.557747     0.515286 
    0.637678     0.440677     0.513910 
    0.540727     0.377925     0.485418 
    0.560608     0.514955     0.419005 
EA4917 13.429 12.843 11.404 90.00 90.00 90.00 Sym.group:    0
1.0
   13.429210     0.000000     0.000000
    0.000000    12.842950     0.000000
    0.000000     0.000000    11.404368
   W   B
   3   8
Direct
    0.500180     0.497578     0.599937 
    0.570635     0.515948     0.376426 
    0.505573     0.666970     0.449060 
    0.376987     0.598667     0.526429 
    0.334814     0.483998     0.535388 
    0.391582     0.379139     0.508575 
    0.416098     0.499642     0.420808 
    0.502062     0.357901     0.481906 
    0.611485     0.392454     0.515855 
    0.663883     0.495168     0.548659 
    0.626702     0.612533     0.536956 
EA5336 12.400 12.908 12.196 90.00 90.00 90.00 Sym.group:    0
1.0
   12.399856     0.000000     0.000000
    0.000000    12.908437     0.000000
    0.000000     0.000000    12.195839
   W   B
   4   6
Direct
    0.497105     0.558913     0.409437 
    0.612062     0.439035     0.598140 
    0.423284     0.442713     0.606524 
    0.557483     0.623970     0.578426 
    0.628370     0.440190     0.421085 
    0.669123     0.551722     0.467847 
    0.384145     0.601119     0.565014 
    0.333328     0.529228     0.467142 
    0.511129     0.391630     0.451542 
    0.383971     0.421477     0.434844 
EA5648 11.853 13.557 12.328 90.00 90.00 90.00 Sym.group:    0
1.0
   11.853490     0.000000     0.000000
    0.000000    13.557029     0.000000
    0.000000     0.000000    12.327564
   W   B
   3   7
Direct
    0.507140     0.532442     0.407989 
    0.528034     0.364327     0.460338 
    0.569193     0.467791     0.611709 
    0.331042     0.531796     0.467076 
    0.399560     0.454594     0.552030 
    0.361901     0.420128     0.422927 
    0.417193     0.582252     0.554837 
    0.675874     0.456915     0.468224 
    0.548885     0.618582     0.551883 
    0.661179     0.571172     0.502987 
EA5922 13.363 12.506 12.011 90.00 90.00 90.00 Sym.group:    0
1.0
   13.363090     0.000000     0.000000
    0.000000    12.506336     0.000000
    0.000000     0.000000    12.010749
   W   B
   5   6
Direct
    0.536009     0.611982     0.376746 
    0.349035     0.475780     0.578033 
    0.461824     0.650376     0.566814 
    0.631739     0.592046     0.548094 
    0.507198     0.489146     0.674544 
    0.628807     0.478674     0.415940 
    0.523535     0.417566     0.407414 
    0.394925     0.560127     0.431740 
    0.591857     0.422218     0.539203 
    0.471366     0.381246     0.538330 
    0.403706     0.420838     0.423143 
EA6191 12.749 11.445 13.508 90.00 90.00 90.00 Sym.group:    0
1.0
   12.748898     0.000000     0.000000
    0.000000    11.444651     0.000000
    0.000000     0.000000    13.507753
   W   B
   2  10
Direct
    0.484837     0.510046     0.587124 
    0.308622     0.548091     0.538953 
    0.646893     0.465341     0.503189 
    0.644802     0.603867     0.516428 
    0.547760     0.561233     0.438531 
    0.546744     0.686902     0.510573 
    0.427801     0.653400     0.479875 
    0.595265     0.342001     0.528743 
    0.424042     0.512606     0.428403 
    0.521041     0.415419     0.445679 
    0.377252     0.390275     0.493629 
    0.474942     0.310817     0.528873 
EA6578 11.839 13.097 12.998 90.00 90.00 90.00 Sym.group:    0
1.0
   11.839035     0.000000     0.000000
    0.000000    13.096570     0.000000
    0.000000     0.000000    12.997762
   W   B
   3   8
Direct
    0.488925     0.504387     0.581078 
    0.692206     0.466790     0.588791 
    0.465866     0.507338     0.403306 
    0.338066     0.417894     0.497972 
    0.579960     0.362158     0.512088 
    0.446358     0.348009     0.501305 
    0.389262     0.636825     0.493446 
    0.314734     0.536297     0.501646 
    0.635071     0.468005     0.445095 
    0.518880     0.660830     0.484439 
    0.630671     0.591465     0.490836 
EA6857 11.963 13.087 13.328 90.00 90.00 90.00 Sym.group:    0
1.0
   11.962838     0.000000     0.000000
    0.000000    13.086767     0.000000
    0.000000     0.000000    13.328107
   W   B
   2  10
Direct
    0.494083     0.476974     0.446513 
    0.432587     0.571255     0.589174 
    0.676509     0.451020     0.507508 
    0.674375     0.564612     0.469161 
    0.483385     0.312637     0.508173 
    0.608561     0.346960     0.508527 
    0.369852     0.370843     0.517889 
    0.602402     0.549200     0.572859 
    0.567512     0.641350     0.487556 
    0.339157     0.582055     0.443182 
    0.441251     0.657046     0.452958 
    0.310325     0.476049     0.496499 
EA7324 12.155 13.102 12.202 90.00 90.00 90.00 Sym.group:    0
1.0
   12.154602     0.000000     0.000000
    0.000000    13.101669     0.000000
    0.000000     0.000000    12.201937
   W   B
   2   8
Direct
    0.492995     0.495882     0.407482 
    0.506485     0.503935     0.592317 
    0.332503     0.504140     0.510278 
    0.378272     0.392519     0.509520 
    0.615694     0.386798     0.497018 
    0.495449     0.343826     0.504179 
    0.504539     0.656546     0.495581 
    0.384712     0.613226     0.503473 
    0.621632     0.607465     0.490029 
    0.667719     0.495666     0.490125 
EA7786 13.065 12.103 12.133 90.00 90.00 90.00 Sym.group:    0
1.0
   13.064785     0.000000     0.000000
    0.000000    12.102503     0.000000
    0.000000     0.000000    12.133195
   W   B
   3   6
Direct
    0.474167     0.518841     0.381892 
    0.470010     0.477457     0.616620 
    0.391275     0.370328     0.474843 
    0.344590     0.531510     0.502794 
    0.441048     0.620582     0.520324 
    0.631303     0.506254     0.433384 
    0.562952     0.593165     0.517559 
    0.629309     0.482418     0.569012 
    0.555344     0.399446     0.483574 
EA7923 12.935 12.546 12.562 90.00 90.00 90.00 Sym.group:    0
1.0
   12.934909     0.000000     0.000000
    0.000000    12.546482     0.000000
    0.000000     0.000000    12.562072
   W   B
   3   8
Direct
    0.466281     0.673470     0.469687 
    0.539367     0.520861     0.390797 
    0.516311     0.483266     0.584401 
    0.365179     0.582266     0.563669 
    0.385199     0.516577     0.448576 
    0.347497     0.455789     0.559521 
    0.535538     0.342474     0.479493 
    0.418209     0.383867     0.478033 
    0.612156     0.627777     0.518033 
    0.672274     0.517756     0.510296 
    0.641990     0.395895     0.497496 
EA8233 11.989 13.404 12.854 90.00 90.00 90.00 Sym.group:    0
1.0
   11.989456     0.000000     0.000000
    0.000000    13.403529     0.000000
    0.000000     0.000000    12.853828
   W   B
   3   9
Direct
    0.495752     0.447111     0.375218 
    0.469285     0.622593     0.433343 
    0.508381     0.508633     0.587932 
    0.397612     0.388293     0.520740 
    0.325671     0.474272     0.581189 
    0.350450     0.493482     0.453985 
    0.347085     0.588810     0.543843 
    0.630718     0.534456     0.428138 
    0.527796     0.359630     0.512664 
    0.687759     0.528816     0.546951 
    0.619049     0.630053     0.517061 
    0.640441     0.423850     0.498938 
EA8629 12.452 11.892 13.148 90.00 90.00 90.00 Sym.group:    0
1.0
   12.451897     0.000000     0.000000
    0.000000    11.891888     0.000000
    0.000000     0.000000    13.148123
   W   B
   2   9
Direct
    0.494048     0.551593     0.400316 
    0.511028     0.507494     0.580785 
    0.580646     0.666648     0.506117 
    0.360700     0.588567     0.510541 
    0.359847     0.451247     0.504159 
    0.452734     0.678163     0.518734 
    0.655014     0.562805     0.482865 
    0.640581     0.428795     0.487062 
    0.555889     0.335319     0.519464 
    0.460373     0.383325     0.436450 
    0.429141     0.346045     0.553506 
EA8958 12.937 11.456 13.222 90.00 90.00 90.00 Sym.group:    0
1.0
   12.936666     0.000000     0.000000
    0.000000    11.456020     0.000000
    0.000000     0.000000    13.221738
   W   B
   2   9
Direct
    0.509378     0.510548     0.584710 
    0.524525     0.507767     0.412161 
    0.441511     0.666460     0.491181 
    0.363551     0.558046     0.490384 
    0.562279     0.677515     0.497359 
    0.374680     0.425481     0.438576 
    0.364706     0.427836     0.561334 
    0.582404     0.346694     0.507561 
    0.662735     0.449765     0.508933 
    0.655597     0.588216     0.506304 
    0.458633     0.341671     0.501497 
EA9313 13.484 12.897 11.416 90.00 90.00 90.00 Sym.group:    0
1.0
   13.484084     0.000000     0.000000
    0.000000    12.897283     0.000000
    0.000000     0.000000    11.415843
   W   B
   1  10
Direct
    0.502462     0.498256     0.392632 
    0.628618     0.417917     0.489632 
    0.524435     0.367349     0.512446 
    0.660174     0.533323     0.483684 
    0.560758     0.508808     0.581397 
    0.410300     0.373437     0.491916 
    0.438857     0.491548     0.579427 
    0.589299     0.626934     0.493307 
    0.371108     0.581934     0.485205 
    0.474177     0.633518     0.508441 
    0.339813     0.466977     0.481912 
EA9878 11.207 12.771 12.233 90.00 90.00 90.00 Sym.group:    0
1.0
   11.207218     0.000000     0.000000
    0.000000    12.771287     0.000000
    0.000000     0.000000    12.233034
   W   B
   2   6
Direct
    0.368158     0.395573     0.477913 
    0.490775     0.503830     0.381968 
    0.473832     0.623396     0.516834 
    0.362217     0.549277     0.521968 
    0.503463     0.496549     0.568561 
    0.607586     0.586033     0.529437 
    0.643800     0.467997     0.513167 
    0.550168     0.377343     0.490153 
EA9969 13.000 12.784 11.494 90.00 90.00 90.00 Sym.group:    0
1.0
   13.000246     0.000000     0.000000
    0.000000    12.783810     0.000000
    0.000000     0.000000    11.493658
   W   B
   1  10
Direct
    0.500124     0.494212     0.393741 
    0.347009     0.536988     0.484823 
    0.442228     0.481831     0.579895 
    0.562598     0.521174     0.580307 
    0.548033     0.648611     0.490679 
    0.429987     0.624914     0.495369 
    0.646498     0.582376     0.479756 
    0.652158     0.463171     0.486635 
    0.452031     0.349680     0.501220 
    0.566796     0.380538     0.516832 
    0.352536     0.416506     0.490744 
EA10262 12.365 13.335 12.337 90.00 90.00 90.00 Sym.group:    0
1.0
   12.365425     0.000000     0.000000
    0.000000    13.335310     0.000000
    0.000000     0.000000    12.336873
   W   B
   2  10
Direct
    0.553209     0.519509     0.404346 
    0.505592     0.504763     0.581476 
    0.396759     0.454123     0.430603 
    0.316194     0.481811     0.535428 
    0.372675     0.377176     0.534824 
    0.611271     0.371224     0.490174 
    0.485683     0.355622     0.475711 
    0.364355     0.580863     0.482066 
    0.458853     0.659224     0.488490 
    0.670662     0.577073     0.536804 
    0.580928     0.657831     0.516632 
    0.683816     0.460780     0.523446 
EA10744 13.632 12.989 11.716 90.00 90.00 90.00 Sym.group:    0
1.0
   13.631661     0.000000     0.000000
    0.000000    12.988727     0.000000
    0.000000     0.000000    11.715555
   W   B
   1   9
Direct
    0.507737     0.479357     0.611002 
    0.465337     0.621216     0.523137 
    0.426862     0.521001     0.420263 
    0.373018     0.544517     0.546859 
    0.380696     0.427168     0.505788 
    0.591824     0.399800     0.474455 
    0.547190     0.522518     0.412697 
    0.644865     0.508249     0.498646 
    0.581941     0.608755     0.530164 
    0.480529     0.367419     0.476991 
EA11245 12.799 12.359 11.584 90.00 90.00 90.00 Sym.group:    0
1.0
   12.798811     0.000000     0.000000
    0.000000    12.359284     0.000000
    0.000000     0.000000    11.584042
   W   B
   2   6
Direct
    0.611533     0.387039     0.507077 
    0.505127     0.469115     0.379361 
    0.618869     0.553510     0.487173 
    0.457985     0.377708     0.545091 
    0.499904     0.515094     0.569570 
    0.522937     0.633722     0.491192 
    0.376227     0.470498     0.515084 
    0.407417     0.593314     0.505454 
EA11371 13.425 13.283 11.494 90.00 90.00 90.00 Sym.group:    0
1.0
   13.424669     0.000000     0.000000
    0.000000    13.283467     0.000000
    0.000000     0.000000    11.493706
   W   B
   1  10
Direct
    0.482506     0.499450     0.605814 
    0.607167     0.394817     0.530343 
    0.608760     0.601966     0.531806 
    0.574990     0.496932     0.432489 
    0.498917     0.364691     0.494768 
    0.388323     0.398871     0.485415 
    0.658266     0.497782     0.551151 
    0.500979     0.635692     0.499036 
    0.336243     0.501954     0.476355 
    0.389732     0.604407     0.486821 
    0.454117     0.503438     0.406002 
EA11667 13.904 12.800 11.982 90.00 90.00 90.00 Sym.group:    0
1.0
   13.903896     0.000000     0.000000
    0.000000    12.799804     0.000000
    0.000000     0.000000    11.982321
   W   B
   5   7
Direct
    0.505002     0.369331     0.561279 
    0.490930     0.496585     0.404308 
    0.657979     0.371313     0.455015 
    0.501435     0.547325     0.636755 
    0.672452     0.493250     0.588319 
    0.374098     0.377864     0.470795 
    0.374743     0.476236     0.567976 
    0.645778     0.525540     0.405002 
    0.377630     0.592655     0.493599 
    0.480463     0.648722     0.489926 
    0.590125     0.610489     0.490323 
    0.329364     0.490688     0.436704 
EA11981 13.900 13.332 11.653 90.00 90.00 90.00 Sym.group:    0
1.0
   13.899575     0.000000     0.000000
    0.000000    13.331721     0.000000
    0.000000     0.000000    11.653218
   W   B
   5   7
Direct
    0.514671     0.483824     0.414174 
    0.555910     0.678244     0.495792 
    0.568961     0.535105     0.620578 
    0.321541     0.524141     0.476264 
    0.410714     0.446167     0.620534 
    0.591172     0.361128     0.507833 
    0.652077     0.566241     0.450495 
    0.662792     0.452050     0.486285 
    0.482101     0.334128     0.493226 
    0.430364     0.602188     0.566693 
    0.423602     0.630246     0.422573 
    0.386094     0.386536     0.445553 
EA12607 13.592 11.262 11.163 90.00 90.00 90.00 Sym.group:    0
1.0
   13.592275     0.000000     0.000000
    0.000000    11.261888     0.000000
    0.000000     0.000000    11.162929
   W   B
   1   6
Direct
    0.499947     0.367465     0.588387 
    0.500009     0.401403     0.403241 
    0.500023     0.552322     0.378889 
    0.500023     0.630848     0.499194 
    0.500013     0.550039     0.629412 
    0.565216     0.498961     0.500440 
    0.434769     0.498962     0.500434 
EA12784 13.134 12.731 11.314 90.00 90.00 90.00 Sym.group:    0
1.0
   13.134047     0.000000     0.000000
    0.000000    12.731242     0.000000
    0.000000     0.000000    11.314368
   W   B
   1   9
Direct
    0.493604     0.490436     0.382996 
    0.631109     0.447887     0.484361 
    0.626455     0.572778     0.466493 
    0.418067     0.381302     0.507096 
    0.538316     0.370389     0.508127 
    0.564981     0.526242     0.584349 
    0.521474     0.635404     0.480727 
    0.446089     0.489131     0.596895 
    0.407019     0.599373     0.492129 
    0.352886     0.487056     0.496827 
EA13128 11.375 13.039 11.742 90.00 90.00 90.00 Sym.group:    0
1.0
   11.375402     0.000000     0.000000
    0.000000    13.038728     0.000000
    0.000000     0.000000    11.741607
   W   B
   1   9
Direct
    0.498146     0.487217     0.611991 
    0.633499     0.579064     0.526934 
    0.574389     0.508530     0.414999 
    0.430440     0.514481     0.412691 
    0.506278     0.628869     0.516225 
    0.374452     0.589286     0.522854 
    0.332240     0.473015     0.507887 
    0.424129     0.382658     0.485724 
    0.562775     0.377311     0.487283 
    0.663652     0.459567     0.513412 
EA13372 12.905 13.451 11.900 90.00 90.00 90.00 Sym.group:    0
1.0
   12.904730     0.000000     0.000000
    0.000000    13.451243     0.000000
    0.000000     0.000000    11.899572
   W   B
   5   6
Direct
    0.500034     0.513338     0.409776 
    0.342245     0.605361     0.431307 
    0.627854     0.604578     0.553087 
    0.531480     0.472072     0.636397 
    0.689716     0.439711     0.512175 
    0.456068     0.611554     0.556414 
    0.328703     0.453841     0.443503 
    0.423386     0.389325     0.502414 
    0.384235     0.502427     0.562776 
    0.666610     0.543093     0.387536 
    0.549672     0.364698     0.504615 
EA13696 12.627 12.921 11.826 90.00 90.00 90.00 Sym.group:    0
1.0
   12.626777     0.000000     0.000000
    0.000000    12.921337     0.000000
    0.000000     0.000000    11.825973
   W   B
   1  10
Direct
    0.498915     0.503998     0.604219 
    0.547409     0.436642     0.424439 
    0.527537     0.348086     0.531753 
    0.639587     0.398158     0.528032 
    0.420241     0.398448     0.485854 
    0.338872     0.490117     0.490815 
    0.583807     0.611327     0.492733 
    0.355715     0.606220     0.514892 
    0.467556     0.654624     0.504475 
    0.460744     0.537404     0.422993 
    0.659619     0.514976     0.499793 
EA14083 12.644 12.677 12.665 90.00 90.00 90.00 Sym.group:    0
1.0
   12.643781     0.000000     0.000000
    0.000000    12.677041     0.000000
    0.000000     0.000000    12.664639
   W   B
   5   6
Direct
    0.417405     0.358394     0.449422 
    0.493418     0.593457     0.633407 
    0.483174     0.395408     0.624244 
    0.432930     0.653358     0.462921 
    0.337433     0.506062     0.562894 
    0.386800     0.510985     0.394821 
    0.520087     0.503633     0.404928 
    0.588019     0.599452     0.486398 
    0.615221     0.490702     0.567533 
    0.576720     0.393601     0.476614 
    0.648791     0.494946     0.436816 
EA14439 13.336 13.326 11.693 90.00 90.00 90.00 Sym.group:    0
1.0
   13.336034     0.000000     0.000000
    0.000000    13.326446     0.000000
    0.000000     0.000000    11.693340
   W   B
   4   7
Direct
    0.666684     0.550490     0.528808 
    0.513489     0.499053     0.598492 
    0.408826     0.482916     0.391318 
    0.388096     0.630783     0.496737 
    0.628955     0.394592     0.515752 
    0.541916     0.659992     0.542021 
    0.340839     0.490151     0.561244 
    0.396531     0.384561     0.534922 
    0.511889     0.360486     0.492437 
    0.567735     0.462461     0.412572 
    0.535040     0.584514     0.425698 
EA14697 13.600 13.555 11.678 90.00 90.00 90.00 Sym.group:    0
1.0
   13.599726     0.000000     0.000000
    0.000000    13.555036     0.000000
    0.000000     0.000000    11.677634
   W   B
   3   9
Direct
    0.420772     0.455537     0.620157 
    0.496130     0.508024     0.402293 
    0.493337     0.320971     0.525899 
    0.402298     0.607987     0.506578 
    0.341854     0.507800     0.473472 
    0.378464     0.396759     0.449918 
    0.511656     0.577242     0.583305 
    0.572233     0.463080     0.566144 
    0.614747     0.391872     0.456687 
    0.655063     0.501461     0.460423 
    0.609045     0.607570     0.480648 
    0.504401     0.661696     0.474474 
EA15028 13.184 11.644 13.470 90.00 90.00 90.00 Sym.group:    0
1.0
   13.183806     0.000000     0.000000
    0.000000    11.643700     0.000000
    0.000000     0.000000    13.469795
   W   B
   2  10
Direct
    0.502372     0.482243     0.571877 
    0.561716     0.518375     0.416070 
    0.520471     0.316044     0.472094 
    0.627043     0.361847     0.498983 
    0.327491     0.448039     0.511315 
    0.340510     0.579585     0.528736 
    0.401817     0.521670     0.431244 
    0.407997     0.360683     0.468566 
    0.552208     0.678770     0.518725 
    0.675358     0.474853     0.540153 
    0.645871     0.605058     0.546715 
    0.437144     0.652832     0.495522 
EA15378 13.481 13.302 11.827 90.00 90.00 90.00 Sym.group:    0
1.0
   13.480738     0.000000     0.000000
    0.000000    13.302138     0.000000
    0.000000     0.000000    11.827393
   W   B
   3   9
Direct
    0.496386     0.502335     0.595536 
    0.547580     0.323922     0.469627 
    0.593766     0.477429     0.385622 
    0.641407     0.422962     0.554235 
    0.440957     0.447141     0.425522 
    0.408482     0.365491     0.529609 
    0.345879     0.467928     0.524359 
    0.367859     0.585277     0.520311 
    0.473501     0.576367     0.420966 
    0.651966     0.542594     0.538158 
    0.459977     0.659349     0.531708 
    0.572239     0.629204     0.504348 
EA15682 14.384 13.695 12.392 90.00 90.00 90.00 Sym.group:    0
1.0
   14.384422     0.000000     0.000000
    0.000000    13.694655     0.000000
    0.000000     0.000000    12.392032
   W   B
   4   9
Direct
    0.494655     0.545441     0.596161 
    0.627845     0.490691     0.389764 
    0.463942     0.527521     0.380413 
    0.539359     0.348675     0.447686 
    0.618184     0.449819     0.564070 
    0.634943     0.566793     0.542218 
    0.460383     0.667035     0.484140 
    0.362065     0.487430     0.512391 
    0.400333     0.394360     0.431358 
    0.427239     0.396682     0.566268 
    0.371942     0.604263     0.502236 
    0.531498     0.384928     0.612256 
    0.567611     0.636362     0.471041 
EA16197 11.180 12.799 12.458 90.00 90.00 90.00 Sym.group:    0
1.0
   11.179548     0.000000     0.000000
    0.000000    12.798945     0.000000
    0.000000     0.000000    12.457741
   W   B
   1   9
Direct
    0.525081     0.532151     0.598049 
    0.530722     0.510151     0.394447 
    0.568163     0.626235     0.447311 
    0.609461     0.413672     0.495985 
    0.431364     0.634582     0.484300 
    0.657416     0.530486     0.474635 
    0.347096     0.546656     0.528945 
    0.372559     0.426772     0.560167 
    0.500336     0.368004     0.569251 
    0.457803     0.411293     0.446909 
EA16511 11.362 13.159 13.478 90.00 90.00 90.00 Sym.group:    0
1.0
   11.361756     0.000000     0.000000
    0.000000    13.158636     0.000000
    0.000000     0.000000    13.477628
   W   B
   2   8
Direct
    0.344128     0.375774     0.473871 
    0.480784     0.484952     0.403955 
    0.577565     0.631286     0.491736 
    0.326308     0.531372     0.495329 
    0.427419     0.480449     0.574398 
    0.438236     0.609673     0.503760 
    0.677988     0.550583     0.483214 
    0.562889     0.519483     0.560619 
    0.641314     0.433165     0.483122 
    0.523370     0.383264     0.529998 
EA16710 13.635 13.979 11.922 90.00 90.00 90.00 Sym.group:    0
1.0
   13.635405     0.000000     0.000000
    0.000000    13.978620     0.000000
    0.000000     0.000000    11.922179
   W   B
   5   8
Direct
    0.502974     0.463622     0.592046 
    0.641406     0.540285     0.391499 
    0.464494     0.453329     0.391223 
    0.494642     0.641759     0.423367 
    0.645734     0.613345     0.563610 
    0.665575     0.465320     0.550764 
    0.358998     0.564735     0.418423 
    0.392567     0.580530     0.551900 
    0.391456     0.364669     0.522023 
    0.494871     0.628256     0.599942 
    0.602625     0.384840     0.481767 
    0.499723     0.326858     0.500085 
    0.344935     0.472451     0.513349 
EA17206 12.900 12.696 12.390 90.00 90.00 90.00 Sym.group:    0
1.0
   12.899728     0.000000     0.000000
    0.000000    12.695821     0.000000
    0.000000     0.000000    12.390349
   W   B
   4   6
Direct
    0.410147     0.512529     0.367906 
    0.366115     0.421493     0.526245 
    0.511751     0.356887     0.431426 
    0.506585     0.553655     0.633535 
    0.386540     0.589246     0.521042 
    0.514542     0.390678     0.600286 
    0.609238     0.456631     0.532193 
    0.503531     0.619889     0.467505 
    0.574146     0.513811     0.405611 
    0.617404     0.585180     0.514251 
EA17469 12.748 13.211 11.732 90.00 90.00 90.00 Sym.group:    0
1.0
   12.747931     0.000000     0.000000
    0.000000    13.210615     0.000000
    0.000000     0.000000    11.732334
   W   B
   1  10
Direct
    0.504613     0.487117     0.395691 
    0.442897     0.382808     0.524143 
    0.564060     0.361902     0.509746 
    0.660058     0.431463     0.499385 
    0.346009     0.450509     0.494344 
    0.438476     0.538779     0.571977 
    0.342988     0.563354     0.464844 
    0.556558     0.620441     0.497660 
    0.437621     0.636033     0.465197 
    0.654170     0.547954     0.494504 
    0.552547     0.479640     0.582509 
EA17723 13.403 12.942 12.817 90.00 90.00 90.00 Sym.group:    0
1.0
   13.402747     0.000000     0.000000
    0.000000    12.941944     0.000000
    0.000000     0.000000    12.816601
   W   B
   5   8
Direct
    0.503314     0.460579     0.350501 
    0.365130     0.467075     0.592062 
    0.505588     0.633652     0.427550 
    0.505093     0.578145     0.633943 
    0.620513     0.369813     0.453637 
    0.466514     0.359075     0.493980 
    0.382100     0.622308     0.535463 
    0.367942     0.540251     0.436850 
    0.366821     0.412997     0.438031 
    0.634499     0.529656     0.436014 
    0.629804     0.489132     0.570623 
    0.525940     0.420372     0.596579 
    0.626744     0.616945     0.534766 
EA18119 12.938 12.466 12.976 90.00 90.00 90.00 Sym.group:    0
1.0
   12.937936     0.000000     0.000000
    0.000000    12.465554     0.000000
    0.000000     0.000000    12.975723
   W   B
   5   7
Direct
    0.505187     0.349348     0.498682 
    0.499660     0.645982     0.508623 
    0.502877     0.470136     0.643927 
    0.501821     0.518474     0.359522 
    0.333372     0.582702     0.432824 
    0.628770     0.426329     0.416795 
    0.637378     0.445290     0.544868 
    0.378270     0.420955     0.415511 
    0.371716     0.447345     0.540937 
    0.626254     0.571429     0.587969 
    0.377717     0.569878     0.590279 
    0.636979     0.552133     0.460064 
EA18717 12.201 11.931 11.015 90.00 90.00 90.00 Sym.group:    0
1.0
   12.201186     0.000000     0.000000
    0.000000    11.931343     0.000000
    0.000000     0.000000    11.014693
   W   B
   1   6
Direct
    0.477323     0.596792     0.412259 
    0.619662     0.457460     0.493742 
    0.611682     0.587917     0.511405 
    0.516759     0.379715     0.475783 
    0.397601     0.426238     0.499968 
    0.372998     0.551813     0.538745 
    0.503976     0.500064     0.568099 
EA18906 12.633 12.310 12.885 90.00 90.00 90.00 Sym.group:    0
1.0
   12.632717     0.000000     0.000000
    0.000000    12.309672     0.000000
    0.000000     0.000000    12.884682
   W   B
   1   9
Direct
    0.491019     0.484531     0.602245 
    0.567889     0.377992     0.487535 
    0.648316     0.471227     0.522922 
    0.492708     0.632681     0.509906 
    0.609941     0.594825     0.539971 
    0.573179     0.526745     0.429991 
    0.443422     0.367485     0.483479 
    0.351535     0.455305     0.492671 
    0.376752     0.581643     0.514153 
    0.445239     0.507566     0.417125 
EA19226 12.420 11.294 12.891 90.00 90.00 90.00 Sym.group:    0
1.0
   12.420382     0.000000     0.000000
    0.000000    11.293526     0.000000
    0.000000     0.000000    12.890648
   W   B
   1   9
Direct
    0.520301     0.485155     0.399490 
    0.418294     0.512962     0.565530 
    0.454390     0.640455     0.477654 
    0.547192     0.516024     0.589499 
    0.654962     0.519313     0.513223 
    0.580219     0.632113     0.492900 
    0.360853     0.547790     0.451845 
    0.375567     0.408932     0.477004 
    0.603661     0.390640     0.522766 
    0.484561     0.346616     0.510089 
EA19504 13.254 12.635 11.908 90.00 90.00 90.00 Sym.group:    0
1.0
   13.253939     0.000000     0.000000
    0.000000    12.635480     0.000000
    0.000000     0.000000    11.907681
   W   B
   3   8
Direct
    0.487459     0.522860     0.588796 
    0.460987     0.456814     0.392799 
    0.561964     0.332042     0.485777 
    0.339127     0.451050     0.527108 
    0.417126     0.356619     0.544039 
    0.436064     0.645661     0.466713 
    0.345299     0.572358     0.496315 
    0.647609     0.453535     0.560640 
    0.608877     0.502071     0.436166 
    0.640777     0.579021     0.543082 
    0.554711     0.627968     0.458565 
EA20075 12.698 11.265 11.204 90.00 90.00 90.00 Sym.group:    0
1.0
   12.698362     0.000000     0.000000
    0.000000    11.265004     0.000000
    0.000000     0.000000    11.203870
   W   B
   1   6
Direct
    0.351509     0.464944     0.569387 
    0.509008     0.481359     0.574597 
    0.427232     0.588093     0.482079 
    0.444729     0.413359     0.440525 
    0.554897     0.603841     0.478533 
    0.572166     0.434056     0.436703 
    0.640457     0.514349     0.518178 
EA20230 12.984 12.280 12.690 90.00 90.00 90.00 Sym.group:    0
1.0
   12.984078     0.000000     0.000000
    0.000000    12.279750     0.000000
    0.000000     0.000000    12.689916
   W   B
   4   6
Direct
    0.588631     0.350091     0.518561 
    0.350504     0.505456     0.433059 
    0.429340     0.411290     0.599717 
    0.418539     0.607160     0.578739 
    0.646437     0.502908     0.490639 
    0.449223     0.367500     0.433271 
    0.576734     0.613932     0.490512 
    0.560471     0.521532     0.593430 
    0.463470     0.625016     0.418724 
    0.516652     0.495114     0.443346 
EA20503 13.784 11.687 13.177 90.00 90.00 90.00 Sym.group:    0
1.0
   13.784221     0.000000     0.000000
    0.000000    11.687153     0.000000
    0.000000     0.000000    13.176527
   W   B
   1  10
Direct
    0.501451     0.478562     0.406616 
    0.608093     0.381801     0.506743 
    0.551823     0.505582     0.565975 
    0.659733     0.497196     0.486428 
    0.611859     0.616981     0.481192 
    0.500663     0.341747     0.525347 
    0.343137     0.494840     0.496126 
    0.392450     0.382424     0.520026 
    0.501810     0.642910     0.482151 
    0.392550     0.608739     0.459634 
    0.436431     0.549218     0.569765 
EA20932 11.483 11.427 11.474 90.00 90.00 90.00 Sym.group:    0
1.0
   11.482561     0.000000     0.000000
    0.000000    11.426863     0.000000
    0.000000     0.000000    11.473763
   W   B
   1   9
Direct
    0.426041     0.586279     0.519872 
    0.464719     0.523871     0.335352 
    0.391150     0.432935     0.413777 
    0.390510     0.402426     0.548815 
    0.464138     0.450728     0.658775 
    0.614576     0.600438     0.522331 
    0.568639     0.600566     0.391681 
    0.556331     0.445098     0.414613 
    0.555622     0.413382     0.553978 
    0.568274     0.544276     0.640809 
EA21258 13.407 12.490 11.686 90.00 90.00 90.00 Sym.group:    0
1.0
   13.406971     0.000000     0.000000
    0.000000    12.489847     0.000000
    0.000000     0.000000    11.686447
   W   B
   4   6
Direct
    0.424355     0.478197     0.616161 
    0.511641     0.499933     0.397251 
    0.649075     0.613404     0.449400 
    0.535498     0.350987     0.542559 
    0.346611     0.484523     0.449577 
    0.395725     0.596598     0.478673 
    0.395111     0.368278     0.470257 
    0.576801     0.523052     0.581695 
    0.658788     0.454357     0.489360 
    0.506393     0.630672     0.525067 
EA21624 13.540 12.802 11.773 90.00 90.00 90.00 Sym.group:    0
1.0
   13.539889     0.000000     0.000000
    0.000000    12.801744     0.000000
    0.000000     0.000000    11.772968
   W   B
   4   6
Direct
    0.581220     0.492424     0.611962 
    0.485941     0.506445     0.398861 
    0.323253     0.551020     0.465926 
    0.518230     0.346263     0.519514 
    0.644556     0.550871     0.449474 
    0.563199     0.629301     0.493820 
    0.639955     0.425424     0.452273 
    0.424835     0.483908     0.583692 
    0.368021     0.399848     0.484290 
    0.450791     0.614497     0.540190 
EA21951 13.983 12.643 11.467 90.00 90.00 90.00 Sym.group:    0
1.0
   13.983205     0.000000     0.000000
    0.000000    12.642946     0.000000
    0.000000     0.000000    11.466855
   W   B
   2   8
Direct
    0.498128     0.508526     0.614106 
    0.367596     0.612136     0.557423 
    0.365619     0.452389     0.528150 
    0.459287     0.383385     0.493054 
    0.431604     0.517110     0.423362 
    0.543650     0.484790     0.417816 
    0.573915     0.369737     0.495732 
    0.503956     0.627642     0.474744 
    0.646902     0.462812     0.495533 
    0.609342     0.581474     0.500079 
EA22454 12.635 11.045 12.275 90.00 90.00 90.00 Sym.group:    0
1.0
   12.634966     0.000000     0.000000
    0.000000    11.044854     0.000000
    0.000000     0.000000    12.275328
   W   B
   1   6
Direct
    0.586225     0.542495     0.576558 
    0.406113     0.431193     0.526005 
    0.494067     0.655851     0.493306 
    0.398849     0.572772     0.518420 
    0.505176     0.360837     0.488174 
    0.612737     0.425581     0.458321 
    0.496833     0.511269     0.439215 
EA22515 13.835 13.984 11.450 90.00 90.00 90.00 Sym.group:    0
1.0
   13.835320     0.000000     0.000000
    0.000000    13.984458     0.000000
    0.000000     0.000000    11.449850
   W   B
   5   7
Direct
    0.423637     0.533859     0.376923 
    0.487710     0.483999     0.591682 
    0.440440     0.668757     0.501482 
    0.678683     0.528098     0.515061 
    0.580970     0.446126     0.378898 
    0.562696     0.597746     0.426142 
    0.341718     0.449788     0.515869 
    0.350160     0.559739     0.554496 
    0.415852     0.366555     0.493501 
    0.572830     0.624730     0.572267 
    0.526059     0.342381     0.512419 
    0.619246     0.398221     0.561261 
EA22893 12.193 12.842 13.379 90.00 90.00 90.00 Sym.group:    0
1.0
   12.193115     0.000000     0.000000
    0.000000    12.841629     0.000000
    0.000000     0.000000    13.379312
   W   B
   3   8
Direct
    0.568684     0.458420     0.404272 
    0.499696     0.517023     0.579053 
    0.522921     0.309166     0.486541 
    0.322666     0.506223     0.533803 
    0.402468     0.512051     0.428066 
    0.371841     0.616526     0.503742 
    0.491928     0.647025     0.473397 
    0.385215     0.398879     0.516636 
    0.679021     0.516836     0.528479 
    0.638950     0.400319     0.551606 
    0.616609     0.617531     0.494404 
EA23474 11.399 12.085 12.433 90.00 90.00 90.00 Sym.group:    0
1.0
   11.399477     0.000000     0.000000
    0.000000    12.084555     0.000000
    0.000000     0.000000    12.432659
   W   B
   1   6
Direct
    0.536386     0.387379     0.533957 
    0.370809     0.533976     0.513119 
    0.497473     0.525016     0.438672 
    0.381812     0.415038     0.468577 
    0.634533     0.478542     0.440682 
    0.604020     0.561104     0.539315 
    0.474968     0.598946     0.565679 
EA23574 11.558 13.027 13.513 90.00 90.00 90.00 Sym.group:    0
1.0
   11.558252     0.000000     0.000000
    0.000000    13.026773     0.000000
    0.000000     0.000000    13.512826
   W   B
   3   8
Direct
    0.511855     0.507799     0.578903 
    0.530400     0.504805     0.412802 
    0.320501     0.436293     0.422613 
    0.336134     0.451320     0.567908 
    0.455411     0.657465     0.495571 
    0.354473     0.574757     0.492992 
    0.683412     0.562638     0.512334 
    0.590273     0.651113     0.504244 
    0.449343     0.355106     0.492948 
    0.586440     0.357059     0.505803 
    0.681760     0.441643     0.513881 
EA23995 12.787 12.048 12.080 90.00 90.00 90.00 Sym.group:    0
1.0
   12.787244     0.000000     0.000000
    0.000000    12.047685     0.000000
    0.000000     0.000000    12.080048
   W   B
   4   6
Direct
    0.638808     0.454520     0.436932 
    0.601637     0.489917     0.627731 
    0.358073     0.575241     0.458799 
    0.513772     0.335849     0.534802 
    0.475525     0.443000     0.395979 
    0.510557     0.581393     0.405751 
    0.607158     0.616493     0.498376 
    0.434916     0.482048     0.598418 
    0.374828     0.410555     0.489060 
    0.484726     0.610984     0.554154 
EA24492 12.321 10.997 11.964 90.00 90.00 90.00 Sym.group:    0
1.0
   12.320720     0.000000     0.000000
    0.000000    10.996917     0.000000
    0.000000     0.000000    11.964436
   W   B
   1   6
Direct
    0.529459     0.390782     0.431449 
    0.420440     0.383424     0.550305 
    0.641220     0.490543     0.505465 
    0.505970     0.509330     0.565057 
    0.375446     0.506777     0.505832 
    0.576054     0.610905     0.483746 
    0.451409     0.608238     0.458146 
EA24684 12.665 12.956 11.758 90.00 90.00 90.00 Sym.group:    0
1.0
   12.665405     0.000000     0.000000
    0.000000    12.955824     0.000000
    0.000000     0.000000    11.757546
   W   B
   1   9
Direct
    0.520854     0.490731     0.388247 
    0.400246     0.397154     0.467711 
    0.374678     0.519665     0.479807 
    0.512293     0.352314     0.509700 
    0.456601     0.447172     0.588505 
    0.634518     0.539835     0.515118 
    0.617529     0.419494     0.523189 
    0.559613     0.637775     0.489444 
    0.437596     0.625565     0.457381 
    0.486071     0.570297     0.580898 
EA25023 12.134 11.811 13.090 90.00 90.00 90.00 Sym.group:    0
1.0
   12.134441     0.000000     0.000000
    0.000000    11.811284     0.000000
    0.000000     0.000000    13.090092
   W   B
   3   7
Direct
    0.424473     0.360348     0.467158 
    0.547987     0.485079     0.382479 
    0.512352     0.479536     0.588663 
    0.502270     0.640108     0.502769 
    0.389261     0.611858     0.566392 
    0.399254     0.551708     0.451574 
    0.329129     0.487605     0.548199 
    0.598322     0.343117     0.484617 
    0.626334     0.584314     0.503463 
    0.670618     0.456327     0.504686 
EA25500 12.562 12.108 11.650 90.00 90.00 90.00 Sym.group:    0
1.0
   12.562102     0.000000     0.000000
    0.000000    12.107938     0.000000
    0.000000     0.000000    11.649806
   W   B
   1   7
Direct
    0.355057     0.504714     0.449478 
    0.440679     0.392403     0.546137 
    0.445602     0.640626     0.498845 
    0.486635     0.523689     0.564724 
    0.571151     0.390547     0.554381 
    0.624931     0.490948     0.484830 
    0.567617     0.608558     0.477038 
    0.508327     0.448516     0.424566 
EA25679 13.044 11.581 13.315 90.00 90.00 90.00 Sym.group:    0
1.0
   13.043669     0.000000     0.000000
    0.000000    11.580922     0.000000
    0.000000     0.000000    13.315417
   W   B
   2   8
Direct
    0.530785     0.475281     0.402403 
    0.677486     0.433630     0.489599 
    0.379867     0.605492     0.484989 
    0.440045     0.499115     0.556107 
    0.531607     0.378982     0.547256 
    0.419783     0.373032     0.485993 
    0.337181     0.480005     0.480433 
    0.499484     0.629741     0.491193 
    0.560175     0.523274     0.574112 
    0.623585     0.601445     0.487915 
EA26179 12.826 12.417 11.647 90.00 90.00 90.00 Sym.group:    0
1.0
   12.825522     0.000000     0.000000
    0.000000    12.416978     0.000000
    0.000000     0.000000    11.647472
   W   B
   2   6
Direct
    0.494446     0.472144     0.379115 
    0.575732     0.359661     0.502838 
    0.558624     0.622256     0.499365 
    0.627639     0.517227     0.483929 
    0.504756     0.512398     0.568852 
    0.425941     0.394593     0.547114 
    0.376245     0.505493     0.513615 
    0.436619     0.616227     0.505172 
EA26264 12.713 12.479 12.899 90.00 90.00 90.00 Sym.group:    0
1.0
   12.713115     0.000000     0.000000
    0.000000    12.479024     0.000000
    0.000000     0.000000    12.898883
   W   B
   5   6
Direct
    0.410311     0.640728     0.558128 
    0.557683     0.649032     0.449936 
    0.670396     0.483301     0.508178 
    0.568368     0.473037     0.353884 
    0.552198     0.332846     0.489223 
    0.558811     0.425765     0.622505 
    0.546264     0.562450     0.605630 
    0.425061     0.554076     0.406703 
    0.344848     0.500399     0.499639 
    0.442820     0.461011     0.576600 
    0.423239     0.417355     0.429575 
EA26623 13.379 13.186 12.705 90.00 90.00 90.00 Sym.group:    0
1.0
   13.378721     0.000000     0.000000
    0.000000    13.185689     0.000000
    0.000000     0.000000    12.704903
   W   B
   5   6
Direct
    0.347832     0.563275     0.523811 
    0.463709     0.573734     0.361727 
    0.634564     0.568503     0.429015 
    0.564669     0.411798     0.375718 
    0.500458     0.658395     0.536053 
    0.594933     0.544045     0.592911 
    0.416546     0.434844     0.437048 
    0.389623     0.420272     0.571234 
    0.475476     0.508453     0.609830 
    0.497896     0.383351     0.533138 
    0.614296     0.433329     0.529515 
EA26897 13.660 13.496 11.689 90.00 90.00 90.00 Sym.group:    0
1.0
   13.659642     0.000000     0.000000
    0.000000    13.496472     0.000000
    0.000000     0.000000    11.688503
   W   B
   5   8
Direct
    0.481188     0.407630     0.375135 
    0.658123     0.604846     0.537765 
    0.489307     0.501680     0.596935 
    0.521336     0.579858     0.370037 
    0.660336     0.472840     0.405059 
    0.578254     0.374673     0.533362 
    0.651586     0.458595     0.593703 
    0.461752     0.349850     0.544801 
    0.376073     0.518895     0.422133 
    0.517004     0.660434     0.537768 
    0.366461     0.419289     0.516854 
    0.404136     0.620054     0.509123 
    0.334444     0.531356     0.557327 
EA27546 11.829 11.645 11.457 90.00 90.00 90.00 Sym.group:    0
1.0
   11.829222     0.000000     0.000000
    0.000000    11.644951     0.000000
    0.000000     0.000000    11.457398
   W   B
   1   6
Direct
    0.335682     0.447962     0.498701 
    0.423338     0.587825     0.478264 
    0.558662     0.581463     0.443749 
    0.456808     0.487417     0.604245 
    0.494245     0.441565     0.442962 
    0.592416     0.478178     0.579144 
    0.638849     0.475590     0.452934 
EA27866 12.475 12.511 11.492 90.00 90.00 90.00 Sym.group:    0
1.0
   12.475133     0.000000     0.000000
    0.000000    12.510801     0.000000
    0.000000     0.000000    11.492475
   W   B
   2   6
Direct
    0.514319     0.475668     0.379282 
    0.532375     0.342064     0.512582 
    0.473110     0.631393     0.500421 
    0.496360     0.511759     0.573492 
    0.592708     0.590579     0.498274 
    0.376578     0.550845     0.507844 
    0.388314     0.425038     0.490700 
    0.626236     0.472655     0.537405 
EA28225 12.123 11.741 12.446 90.00 90.00 90.00 Sym.group:    0
1.0
   12.123496     0.000000     0.000000
    0.000000    11.741083     0.000000
    0.000000     0.000000    12.445720
   W   B
   1   6
Direct
    0.488902     0.570596     0.602213 
    0.486581     0.516079     0.442259 
    0.360964     0.520487     0.515169 
    0.413449     0.402050     0.486307 
    0.585161     0.617541     0.483340 
    0.622810     0.488730     0.481528 
    0.542132     0.384517     0.489185 
EA28388 11.559 12.335 12.278 90.00 90.00 90.00 Sym.group:    0
1.0
   11.558752     0.000000     0.000000
    0.000000    12.334925     0.000000
    0.000000     0.000000    12.277880
   W   B
   1   9
Direct
    0.531861     0.599243     0.529867 
    0.659953     0.464901     0.499997 
    0.595468     0.455641     0.616715 
    0.604925     0.513911     0.391275 
    0.358808     0.532795     0.563238 
    0.457232     0.469683     0.626891 
    0.413238     0.445293     0.460753 
    0.478079     0.552377     0.366217 
    0.535145     0.395396     0.505692 
    0.365290     0.570760     0.439356 
EA28612 12.844 12.414 13.201 90.00 90.00 90.00 Sym.group:    0
1.0
   12.843974     0.000000     0.000000
    0.000000    12.413947     0.000000
    0.000000     0.000000    13.201010
   W   B
   2  10
Direct
    0.448363     0.491162     0.407972 
    0.490013     0.502840     0.573785 
    0.493272     0.321125     0.497149 
    0.379056     0.359110     0.514379 
    0.318253     0.467773     0.529209 
    0.339827     0.591554     0.516659 
    0.434003     0.664045     0.484581 
    0.609737     0.508154     0.434446 
    0.673905     0.469035     0.536772 
    0.555945     0.656291     0.489901 
    0.655694     0.591345     0.525475 
    0.601933     0.377566     0.489672 
EA29124 13.396 12.753 11.817 90.00 90.00 90.00 Sym.group:    0
1.0
   13.396142     0.000000     0.000000
    0.000000    12.752940     0.000000
    0.000000     0.000000    11.817078
   W   B
   3   7
Direct
    0.424528     0.497884     0.612912 
    0.474478     0.650111     0.511567 
    0.507550     0.504810     0.397411 
    0.631386     0.603969     0.484710 
    0.578942     0.518607     0.584786 
    0.348097     0.558330     0.460574 
    0.653471     0.476170     0.480749 
    0.360700     0.433094     0.452573 
    0.452779     0.364966     0.491941 
    0.568070     0.392058     0.522777 
EA29433 11.293 12.776 12.315 90.00 90.00 90.00 Sym.group:    0
1.0
   11.293356     0.000000     0.000000
    0.000000    12.775960     0.000000
    0.000000     0.000000    12.314605
   W   B
   1   9
Direct
    0.474492     0.489264     0.393400 
    0.344498     0.478592     0.524846 
    0.423415     0.378925     0.522222 
    0.372696     0.597800     0.505959 
    0.497628     0.640902     0.465242 
    0.492102     0.568782     0.580901 
    0.559426     0.360379     0.496686 
    0.647551     0.450645     0.455198 
    0.616299     0.570557     0.477819 
    0.571894     0.464155     0.577727 
EA29926 11.573 12.185 11.934 90.00 90.00 90.00 Sym.group:    0
1.0
   11.572736     0.000000     0.000000
    0.000000    12.184745     0.000000
    0.000000     0.000000    11.934090
   W   B
   1   6
Direct
    0.635571     0.465167     0.558179 
    0.384748     0.457580     0.474423 
    0.473295     0.384943     0.555398 
    0.430600     0.577807     0.436952 
    0.477255     0.526678     0.561329 
    0.566004     0.610686     0.483651 
    0.532527     0.477141     0.430068 
EA30108 11.844 11.813 10.568 90.00 90.00 90.00 Sym.group:    0
1.0
   11.844436     0.000000     0.000000
    0.000000    11.813478     0.000000
    0.000000     0.000000    10.567984
   W   B
   1   9
Direct
    0.509650     0.416811     0.415265 
    0.656693     0.529327     0.458805 
    0.556431     0.592613     0.388072 
    0.423415     0.577404     0.387993 
    0.340553     0.490887     0.458744 
    0.512749     0.394033     0.617069 
    0.631740     0.445759     0.573959 
    0.560945     0.575424     0.562932 
    0.422686     0.560585     0.562291 
    0.385141     0.417156     0.574870 
EA30390 13.703 13.591 11.459 90.00 90.00 90.00 Sym.group:    0
1.0
   13.703092     0.000000     0.000000
    0.000000    13.591429     0.000000
    0.000000     0.000000    11.459410
   W   B
   1  10
Direct
    0.501360     0.496634     0.393224 
    0.628668     0.487004     0.511253 
    0.612177     0.599188     0.486140 
    0.517643     0.659759     0.475270 
    0.388219     0.400755     0.490803 
    0.412669     0.619076     0.485837 
    0.511635     0.561182     0.576128 
    0.371922     0.514026     0.507346 
    0.486499     0.442734     0.584060 
    0.587238     0.380616     0.500366 
    0.481967     0.339025     0.489574 
EA30621 13.765 12.788 13.239 90.00 90.00 90.00 Sym.group:    0
1.0
   13.765067     0.000000     0.000000
    0.000000    12.788178     0.000000
    0.000000     0.000000    13.238919
   W   B
   5   9
Direct
    0.460247     0.407954     0.372849 
    0.617989     0.646871     0.468166 
    0.539464     0.586812     0.628365 
    0.455546     0.309985     0.522993 
    0.452831     0.690888     0.488748 
    0.598491     0.489370     0.402794 
    0.503162     0.575434     0.383513 
    0.395454     0.559814     0.564941 
    0.444514     0.453041     0.614557 
    0.366991     0.439377     0.511879 
    0.583647     0.381248     0.478021 
    0.631746     0.495137     0.528597 
    0.560542     0.417692     0.600735 
    0.389373     0.546377     0.433842 
EA30966 14.006 12.621 13.001 90.00 90.00 90.00 Sym.group:    0
1.0
   14.006455     0.000000     0.000000
    0.000000    12.620642     0.000000
    0.000000     0.000000    13.000551
   W   B
   5   9
Direct
    0.433080     0.497436     0.353037 
    0.655785     0.407024     0.515258 
    0.561811     0.499980     0.647706 
    0.318738     0.506554     0.484971 
    0.663516     0.592251     0.504284 
    0.524163     0.380716     0.425311 
    0.588441     0.495034     0.395136 
    0.523465     0.634085     0.549980 
    0.430582     0.565432     0.592946 
    0.421322     0.624647     0.473336 
    0.413721     0.381539     0.481146 
    0.514075     0.365586     0.556908 
    0.419275     0.434607     0.602793 
    0.532025     0.615108     0.417186 
EA31626 12.242 11.632 11.896 90.00 90.00 90.00 Sym.group:    0
1.0
   12.242035     0.000000     0.000000
    0.000000    11.632344     0.000000
    0.000000     0.000000    11.896473
   W   B
   1   6
Direct
    0.332914     0.515782     0.524532 
    0.492539     0.488235     0.560399 
    0.431793     0.412778     0.445426 
    0.564166     0.397168     0.463962 
    0.586200     0.592394     0.498570 
    0.454456     0.616293     0.473619 
    0.637932     0.477349     0.533492 
EA31720 11.636 13.220 12.854 90.00 90.00 90.00 Sym.group:    0
1.0
   11.636483     0.000000     0.000000
    0.000000    13.220231     0.000000
    0.000000     0.000000    12.853710
   W   B
   1  10
Direct
    0.496034     0.497766     0.404686 
    0.650598     0.578844     0.478238 
    0.576795     0.500944     0.568667 
    0.680743     0.465382     0.475826 
    0.532690     0.631078     0.502092 
    0.399689     0.623588     0.492980 
    0.315147     0.533329     0.497258 
    0.465842     0.364291     0.507864 
    0.347495     0.420446     0.501889 
    0.598663     0.375384     0.496784 
    0.436301     0.508949     0.573716 
EA32297 12.091 12.450 11.546 90.00 90.00 90.00 Sym.group:    0
1.0
   12.090946     0.000000     0.000000
    0.000000    12.449751     0.000000
    0.000000     0.000000    11.546229
   W   B
   1   6
Direct
    0.641644     0.459721     0.506375 
    0.420890     0.591254     0.497331 
    0.488732     0.374669     0.502141 
    0.560017     0.609859     0.488592 
    0.501415     0.497301     0.425694 
    0.502958     0.501238     0.577605 
    0.384342     0.465960     0.502261 
EA32425 13.042 12.973 12.028 90.00 90.00 90.00 Sym.group:    0
1.0
   13.041928     0.000000     0.000000
    0.000000    12.973203     0.000000
    0.000000     0.000000    12.028467
   W   B
   5   6
Direct
    0.613414     0.610048     0.556516 
    0.469566     0.342672     0.534983 
    0.642493     0.426613     0.555296 
    0.505937     0.492719     0.671810 
    0.340893     0.472976     0.562457 
    0.451229     0.604062     0.549299 
    0.624927     0.527836     0.408967 
    0.545600     0.425069     0.405910 
    0.504072     0.567414     0.409363 
    0.420992     0.454493     0.410496 
    0.380877     0.576099     0.434902 
EA32825 11.432 13.305 12.147 90.00 90.00 90.00 Sym.group:    0
1.0
   11.431597     0.000000     0.000000
    0.000000    13.304988     0.000000
    0.000000     0.000000    12.147048
   W   B
   1   9
Direct
    0.495423     0.503041     0.392217 
    0.356653     0.422093     0.472623 
    0.417399     0.486824     0.575971 
    0.337197     0.542120     0.477720 
    0.453372     0.605978     0.526255 
    0.489082     0.383514     0.514366 
    0.623845     0.412014     0.489644 
    0.677271     0.522028     0.487940 
    0.559305     0.507195     0.570908 
    0.590451     0.615192     0.492355 
EA33156 12.503 11.639 12.912 90.00 90.00 90.00 Sym.group:    0
1.0
   12.503136     0.000000     0.000000
    0.000000    11.639002     0.000000
    0.000000     0.000000    12.912222
   W   B
   1   9
Direct
    0.505367     0.517032     0.397943 
    0.403053     0.618886     0.502892 
    0.345780     0.499388     0.477223 
    0.412185     0.382208     0.475537 
    0.431452     0.493492     0.575069 
    0.561639     0.479569     0.581132 
    0.642089     0.435794     0.485368 
    0.536460     0.358526     0.481565 
    0.634545     0.571402     0.505325 
    0.527431     0.643703     0.517947 
EA33658 12.035 11.868 11.805 90.00 90.00 90.00 Sym.group:    0
1.0
   12.035447     0.000000     0.000000
    0.000000    11.868233     0.000000
    0.000000     0.000000    11.804829
   W   B
   1   6
Direct
    0.525232     0.553837     0.401620 
    0.406348     0.534926     0.544693 
    0.523879     0.576943     0.582518 
    0.570999     0.427268     0.537607 
    0.370108     0.477844     0.425130 
    0.644519     0.532619     0.526784 
    0.458916     0.396564     0.481648 
EA33974 11.545 12.541 12.199 90.00 90.00 90.00 Sym.group:    0
1.0
   11.545143     0.000000     0.000000
    0.000000    12.541495     0.000000
    0.000000     0.000000    12.199412
   W   B
   2   6
Direct
    0.667463     0.504930     0.537279 
    0.547603     0.488057     0.390558 
    0.552637     0.377677     0.536422 
    0.550861     0.628145     0.515890 
    0.420705     0.390093     0.503010 
    0.356537     0.498393     0.485274 
    0.426107     0.605120     0.466847 
    0.478087     0.507584     0.564721 
EA34341 10.931 13.270 12.410 90.00 90.00 90.00 Sym.group:    0
1.0
   10.931147     0.000000     0.000000
    0.000000    13.269780     0.000000
    0.000000     0.000000    12.409936
   W   B
   1   6
Direct
    0.328546     0.461687     0.442730 
    0.450318     0.409694     0.544244 
    0.408614     0.568431     0.526725 
    0.658536     0.526830     0.481579 
    0.554929     0.594064     0.525833 
    0.592823     0.441631     0.544631 
    0.506233     0.497664     0.434258 
EA34524 13.037 11.810 12.596 90.00 90.00 90.00 Sym.group:    0
1.0
   13.037065     0.000000     0.000000
    0.000000    11.810241     0.000000
    0.000000     0.000000    12.596319
   W   B
   1   9
Direct
    0.502016     0.479947     0.604075 
    0.357114     0.451805     0.509756 
    0.644993     0.473911     0.504328 
    0.445356     0.361763     0.483760 
    0.566209     0.374066     0.480947 
    0.385313     0.582941     0.522846 
    0.609645     0.601282     0.527872 
    0.493395     0.643486     0.528505 
    0.437245     0.497871     0.416870 
    0.558714     0.532930     0.421040 
EA34700 13.729 12.878 12.296 90.00 90.00 90.00 Sym.group:    0
1.0
   13.728737     0.000000     0.000000
    0.000000    12.878100     0.000000
    0.000000     0.000000    12.295612
   W   B
   5   8
Direct
    0.509241     0.492618     0.416687 
    0.354121     0.372428     0.449474 
    0.332999     0.501286     0.577971 
    0.619436     0.531072     0.609167 
    0.488755     0.403972     0.611268 
    0.351030     0.536186     0.408299 
    0.507619     0.328044     0.455353 
    0.614141     0.386786     0.498251 
    0.669469     0.487088     0.446471 
    0.632655     0.604937     0.448479 
    0.414654     0.623076     0.482081 
    0.473605     0.582410     0.599176 
    0.532273     0.650097     0.497323 
EA35030 13.575 13.064 12.402 90.00 90.00 90.00 Sym.group:    0
1.0
   13.575210     0.000000     0.000000
    0.000000    13.063972     0.000000
    0.000000     0.000000    12.401610
   W   B
   5   9
Direct
    0.375961     0.515423     0.624120 
    0.514403     0.368396     0.408339 
    0.654766     0.569717     0.541100 
    0.346406     0.384917     0.502404 
    0.439586     0.513451     0.340888 
    0.509101     0.605666     0.573727 
    0.540062     0.624704     0.440134 
    0.542227     0.500920     0.642371 
    0.661723     0.437010     0.452561 
    0.481119     0.389401     0.587570 
    0.323795     0.542765     0.461603 
    0.421074     0.613959     0.482659 
    0.597925     0.414575     0.559911 
    0.591850     0.519097     0.382615 
EA35370 13.498 13.290 12.623 90.00 90.00 90.00 Sym.group:    0
1.0
   13.498424     0.000000     0.000000
    0.000000    13.290095     0.000000
    0.000000     0.000000    12.622942
   W   B
   5   9
Direct
    0.557889     0.422079     0.364541 
    0.392367     0.512820     0.374897 
    0.545499     0.603605     0.369997 
    0.374537     0.557752     0.598935 
    0.626881     0.423772     0.580734 
    0.376118     0.419327     0.526798 
    0.473407     0.434269     0.620670 
    0.506239     0.350716     0.516357 
    0.420724     0.359102     0.423168 
    0.407807     0.646609     0.466753 
    0.668269     0.506985     0.448385 
    0.505344     0.637120     0.542721 
    0.531762     0.545620     0.630871 
    0.613158     0.580223     0.535173 
EA35710 13.161 13.544 12.662 90.00 90.00 90.00 Sym.group:    0
1.0
   13.161440     0.000000     0.000000
    0.000000    13.543950     0.000000
    0.000000     0.000000    12.662222
   W   B
   5  10
Direct
    0.610746     0.371696     0.545423 
    0.330585     0.426676     0.539124 
    0.487836     0.530303     0.608088 
    0.420687     0.546022     0.404825 
    0.288571     0.597528     0.550526 
    0.532914     0.425808     0.410395 
    0.462793     0.372067     0.606802 
    0.471567     0.329191     0.476345 
    0.404816     0.388440     0.390473 
    0.654133     0.513354     0.594891 
    0.674661     0.499268     0.461566 
    0.415688     0.673875     0.522320 
    0.528888     0.654124     0.474064 
    0.629914     0.607500     0.521453 
    0.586199     0.564148     0.393704 
EA36063 11.910 13.630 12.388 90.00 90.00 90.00 Sym.group:    0
1.0
   11.910020     0.000000     0.000000
    0.000000    13.630246     0.000000
    0.000000     0.000000    12.388049
   W   B
   3  10
Direct
    0.686995     0.501131     0.442625 
    0.453117     0.517306     0.602108 
    0.445854     0.490831     0.410346 
    0.575753     0.608454     0.400638 
    0.588148     0.604353     0.534095 
    0.588756     0.377846     0.427127 
    0.589913     0.412277     0.559438 
    0.648430     0.514577     0.607661 
    0.479562     0.348608     0.509112 
    0.351292     0.387879     0.521991 
    0.292510     0.490304     0.509735 
    0.461321     0.644985     0.484177 
    0.338349     0.601448     0.490946 
EA36495 12.822 12.231 12.210 90.00 90.00 90.00 Sym.group:    0
1.0
   12.822258     0.000000     0.000000
    0.000000    12.231114     0.000000
    0.000000     0.000000    12.210394
   W   B
   1  10
Direct
    0.503837     0.480164     0.399795 
    0.388622     0.613454     0.460297 
    0.326943     0.508127     0.478422 
    0.378710     0.399447     0.512295 
    0.609897     0.381798     0.524525 
    0.491233     0.353777     0.526966 
    0.624504     0.600245     0.475401 
    0.507751     0.636685     0.483860 
    0.433842     0.527349     0.568881 
    0.562684     0.513646     0.577681 
    0.671977     0.485308     0.491876 
EA36750 13.948 13.301 11.799 90.00 90.00 90.00 Sym.group:    0
1.0
   13.947508     0.000000     0.000000
    0.000000    13.301416     0.000000
    0.000000     0.000000    11.799196
   W   B
   3  10
Direct
    0.655281     0.499586     0.443133 
    0.460415     0.497555     0.603773 
    0.459688     0.503601     0.397814 
    0.567758     0.379562     0.409178 
    0.578269     0.394094     0.551708 
    0.570589     0.623615     0.418046 
    0.580979     0.601261     0.559138 
    0.622696     0.495339     0.615050 
    0.476186     0.648111     0.502374 
    0.367675     0.610179     0.506758 
    0.322217     0.501922     0.502096 
    0.472899     0.352523     0.491532 
    0.365350     0.392651     0.499401 
EA37225 12.233 11.770 13.413 90.00 90.00 90.00 Sym.group:    0
1.0
   12.233003     0.000000     0.000000
    0.000000    11.770301     0.000000
    0.000000     0.000000    13.412616
   W   B
   1   9
Direct
    0.497021     0.496789     0.600665 
    0.585795     0.372065     0.508446 
    0.660738     0.484838     0.511532 
    0.457979     0.366023     0.490936 
    0.480102     0.643445     0.503623 
    0.565015     0.494345     0.425718 
    0.431630     0.508640     0.423005 
    0.352954     0.444678     0.511414 
    0.363517     0.581723     0.509891 
    0.605248     0.607453     0.514769 
EA37710 12.964 11.402 11.573 90.00 90.00 90.00 Sym.group:    0
1.0
   12.963523     0.000000     0.000000
    0.000000    11.401911     0.000000
    0.000000     0.000000    11.573212
   W   B
   2   6
Direct
    0.566819     0.657853     0.487327 
    0.549614     0.488892     0.386727 
    0.443731     0.369697     0.517473 
    0.420423     0.599027     0.444488 
    0.374281     0.471693     0.471313 
    0.473680     0.508541     0.562622 
    0.561592     0.389827     0.551897 
    0.609859     0.514470     0.578152 
EA37745 14.404 13.109 12.792 90.00 90.00 90.00 Sym.group:    0
1.0
   14.403755     0.000000     0.000000
    0.000000    13.109449     0.000000
    0.000000     0.000000    12.792227
   W   B
   5  10
Direct
    0.612477     0.499926     0.611344 
    0.543921     0.576333     0.370788 
    0.469854     0.588571     0.652420 
    0.421404     0.418893     0.588758 
    0.511233     0.394790     0.409236 
    0.447004     0.632452     0.481412 
    0.654900     0.597983     0.480046 
    0.659007     0.479353     0.440645 
    0.555955     0.642994     0.526174 
    0.406031     0.514973     0.424775 
    0.364532     0.390130     0.421273 
    0.552164     0.346891     0.570330 
    0.355386     0.569896     0.538497 
    0.305796     0.472954     0.483148 
    0.640338     0.373859     0.501153 
EA38086 14.216 13.048 12.906 90.00 90.00 90.00 Sym.group:    0
1.0
   14.215708     0.000000     0.000000
    0.000000    13.047784     0.000000
    0.000000     0.000000    12.905560
   W   B
   5  10
Direct
    0.616365     0.507034     0.607477 
    0.537191     0.571805     0.364924 
    0.471239     0.597695     0.648809 
    0.431000     0.423307     0.593630 
    0.511106     0.390593     0.414599 
    0.441097     0.631520     0.475427 
    0.651240     0.598242     0.470990 
    0.659110     0.478715     0.436332 
    0.551958     0.643869     0.516432 
    0.401829     0.510833     0.427128 
    0.363040     0.384544     0.432659 
    0.561190     0.347749     0.575349 
    0.352561     0.569929     0.540479 
    0.303701     0.468756     0.493670 
    0.647373     0.375410     0.502095 
EA38566 12.938 12.647 12.703 90.00 90.00 90.00 Sym.group:    0
1.0
   12.937589     0.000000     0.000000
    0.000000    12.646631     0.000000
    0.000000     0.000000    12.702626
   W   B
   4   6
Direct
    0.544127     0.483133     0.621891 
    0.477550     0.347618     0.511809 
    0.534046     0.519730     0.399628 
    0.350989     0.470804     0.571210 
    0.668234     0.535878     0.506578 
    0.635173     0.414684     0.498834 
    0.376337     0.563738     0.430164 
    0.453865     0.606652     0.523693 
    0.579802     0.621072     0.527640 
    0.379876     0.436689     0.408553 
EA38835 12.901 11.977 13.008 90.00 90.00 90.00 Sym.group:    0
1.0
   12.901061     0.000000     0.000000
    0.000000    11.976759     0.000000
    0.000000     0.000000    13.007649
   W   B
   1  10
Direct
    0.511265     0.487411     0.592307 
    0.547729     0.538264     0.425504 
    0.449048     0.637037     0.511106 
    0.434762     0.346893     0.496808 
    0.347715     0.430027     0.529028 
    0.427303     0.493448     0.434499 
    0.353642     0.557601     0.534457 
    0.660090     0.567898     0.494548 
    0.556054     0.352465     0.481946 
    0.643455     0.441665     0.476641 
    0.568939     0.647291     0.523156 
EA39421 13.031 12.036 11.402 90.00 90.00 90.00 Sym.group:    0
1.0
   13.031336     0.000000     0.000000
    0.000000    12.036267     0.000000
    0.000000     0.000000    11.402249
   W   B
   2   6
Direct
    0.470321     0.473619     0.619658 
    0.394863     0.381232     0.469004 
    0.553390     0.374785     0.493409 
    0.626458     0.477278     0.502080 
    0.470149     0.629622     0.513917 
    0.588119     0.599783     0.512505 
    0.512952     0.515624     0.427035 
    0.383749     0.548056     0.462391 
EA39777 13.567 11.136 11.112 90.00 90.00 90.00 Sym.group:    0
1.0
   13.566918     0.000000     0.000000
    0.000000    11.135873     0.000000
    0.000000     0.000000    11.111868
   W   B
   1   6
Direct
    0.499989     0.384054     0.608349 
    0.499960     0.378804     0.419593 
    0.500060     0.530677     0.368489 
    0.500038     0.633327     0.478333 
    0.499945     0.571353     0.626353 
    0.565352     0.500895     0.499423 
    0.434656     0.500889     0.499461 
EA39929 12.313 11.485 13.047 90.00 90.00 90.00 Sym.group:    0
1.0
   12.312770     0.000000     0.000000
    0.000000    11.485011     0.000000
    0.000000     0.000000    13.046707
   W   B
   1   9
Direct
    0.491670     0.488493     0.602106 
    0.345172     0.461436     0.499916 
    0.446385     0.489078     0.419914 
    0.384306     0.593703     0.511794 
    0.431540     0.357030     0.492392 
    0.558850     0.371425     0.485285 
    0.501505     0.649430     0.504345 
    0.618842     0.599902     0.532009 
    0.574613     0.525661     0.428216 
    0.647114     0.463843     0.524021 
