EA28545 11.470 11.635 11.128 90.00 90.00 90.00 Sym.group:    0
1.0
   11.470076     0.000000     0.000000
    0.000000    11.635182     0.000000
    0.000000     0.000000    11.128319
   W   B
   6   1
Direct
    0.390822     0.426651     0.607019 
    0.617741     0.444882     0.607914 
    0.489265     0.629146     0.607764 
    0.511876     0.359851     0.448757 
    0.617161     0.579260     0.447967 
    0.372989     0.560846     0.447976 
    0.500145     0.499365     0.332603 
EA28533 13.356 11.667 11.519 90.00 90.00 90.00 Sym.group:    0
1.0
   13.356459     0.000000     0.000000
    0.000000    11.667002     0.000000
    0.000000     0.000000    11.519178
   W   B
   6   2
Direct
    0.438267     0.430135     0.375081 
    0.562931     0.357838     0.495256 
    0.437975     0.425370     0.620824 
    0.561682     0.569974     0.625267 
    0.436989     0.642043     0.504505 
    0.561995     0.574585     0.379081 
    0.659394     0.500880     0.499878 
    0.340769     0.499175     0.500107 
EA13578 13.321 12.824 12.989 90.00 90.00 90.00 Sym.group:    0
1.0
   13.321150     0.000000     0.000000
    0.000000    12.824140     0.000000
    0.000000     0.000000    12.989193
   W   B
   6   3
Direct
    0.392851     0.531787     0.396230 
    0.579979     0.370616     0.529018 
    0.391792     0.610650     0.559610 
    0.402875     0.416811     0.575134 
    0.535200     0.517608     0.643635 
    0.543090     0.647467     0.473399 
    0.470093     0.394493     0.418784 
    0.631602     0.518788     0.500412 
    0.552515     0.491782     0.403779 
EA28467 13.345 13.157 12.950 90.00 90.00 90.00 Sym.group:    0
1.0
   13.345230     0.000000     0.000000
    0.000000    13.157253     0.000000
    0.000000     0.000000    12.949721
   W   B
   6   4
Direct
    0.544586     0.398667     0.387736 
    0.400216     0.504729     0.378352 
    0.548223     0.604491     0.392054 
    0.430690     0.355645     0.523419 
    0.437186     0.640645     0.529888 
    0.596479     0.586683     0.596990 
    0.472004     0.494187     0.614689 
    0.639539     0.495270     0.476653 
    0.364638     0.495870     0.541506 
    0.566439     0.423815     0.558714 
EA28401 12.846 12.652 12.786 90.00 90.00 90.00 Sym.group:    0
1.0
   12.845887     0.000000     0.000000
    0.000000    12.652441     0.000000
    0.000000     0.000000    12.785695
   W   B
   6   5
Direct
    0.510225     0.407914     0.377235 
    0.381944     0.506339     0.621217 
    0.451317     0.663291     0.549483 
    0.364237     0.568435     0.412386 
    0.539965     0.592906     0.364357 
    0.565877     0.496536     0.637860 
    0.377390     0.413408     0.473182 
    0.476761     0.378612     0.549169 
    0.627683     0.489601     0.471997 
    0.605012     0.608631     0.523231 
    0.599587     0.374328     0.519883 
EA28534 13.278 12.821 12.436 90.00 90.00 90.00 Sym.group:    0
1.0
   13.277981     0.000000     0.000000
    0.000000    12.821304     0.000000
    0.000000     0.000000    12.435793
   W   B
   7   1
Direct
    0.428901     0.565486     0.399284 
    0.454409     0.370124     0.511702 
    0.628613     0.495488     0.457892 
    0.330620     0.500646     0.547825 
    0.595577     0.409194     0.624511 
    0.561255     0.667641     0.475213 
    0.489279     0.561481     0.616052 
    0.511346     0.429939     0.367521 
EA26821 12.720 12.940 12.163 90.00 90.00 90.00 Sym.group:    0
1.0
   12.719793     0.000000     0.000000
    0.000000    12.939876     0.000000
    0.000000     0.000000    12.162678
   W   B
   7   2
Direct
    0.425311     0.621167     0.429882 
    0.530249     0.352042     0.447884 
    0.633439     0.460028     0.573582 
    0.609572     0.511717     0.385380 
    0.582291     0.644717     0.532867 
    0.453681     0.560367     0.645626 
    0.343102     0.477236     0.515183 
    0.476171     0.404082     0.599594 
    0.446185     0.468645     0.370002 
EA28468 13.835 12.702 12.725 90.00 90.00 90.00 Sym.group:    0
1.0
   13.834958     0.000000     0.000000
    0.000000    12.701865     0.000000
    0.000000     0.000000    12.725485
   W   B
   7   3
Direct
    0.381225     0.501089     0.599307 
    0.440625     0.345912     0.507133 
    0.398374     0.483226     0.381637 
    0.393502     0.650696     0.479176 
    0.541047     0.604750     0.384459 
    0.651859     0.525427     0.511163 
    0.526114     0.622877     0.602432 
    0.546222     0.437378     0.411942 
    0.531275     0.453902     0.604174 
    0.589755     0.374744     0.518578 
EA14437 13.236 13.360 13.052 90.00 90.00 90.00 Sym.group:    0
1.0
   13.235968     0.000000     0.000000
    0.000000    13.359902     0.000000
    0.000000     0.000000    13.051692
   W   B
   7   4
Direct
    0.488902     0.579244     0.629786 
    0.657802     0.437725     0.457469 
    0.391402     0.415419     0.589055 
    0.366571     0.464976     0.389376 
    0.445195     0.643580     0.441470 
    0.495633     0.348591     0.451223 
    0.536176     0.519641     0.342968 
    0.548490     0.430614     0.587534 
    0.631171     0.524124     0.591997 
    0.355697     0.551683     0.527566 
    0.582959     0.584403     0.491557 
EA28315 13.877 12.716 13.105 90.00 90.00 90.00 Sym.group:    0
1.0
   13.877374     0.000000     0.000000
    0.000000    12.716405     0.000000
    0.000000     0.000000    13.105064
   W   B
   7   5
Direct
    0.664467     0.509189     0.509413 
    0.415268     0.659517     0.509596 
    0.414890     0.545184     0.359808 
    0.422662     0.361543     0.423593 
    0.576720     0.439345     0.355499 
    0.564853     0.637502     0.414779 
    0.576860     0.340036     0.517113 
    0.544710     0.598224     0.576961 
    0.443491     0.535754     0.618642 
    0.447680     0.407330     0.580837 
    0.551331     0.471209     0.617588 
    0.377066     0.495165     0.516172 
EA11181 12.846 12.846 12.289 90.00 90.00 90.00 Sym.group:    0
1.0
   12.846063     0.000000     0.000000
    0.000000    12.845547     0.000000
    0.000000     0.000000    12.288673
   W   B
   8   1
Direct
    0.359310     0.444374     0.594025 
    0.371385     0.548951     0.424882 
    0.450801     0.605605     0.611981 
    0.550952     0.642179     0.452212 
    0.448589     0.369652     0.429112 
    0.640643     0.435959     0.462802 
    0.538218     0.398325     0.619257 
    0.535223     0.506837     0.320502 
    0.604881     0.548117     0.585228 
EA28469 13.120 13.089 12.908 90.00 90.00 90.00 Sym.group:    0
1.0
   13.120114     0.000000     0.000000
    0.000000    13.089359     0.000000
    0.000000     0.000000    12.908337
   W   B
   8   2
Direct
    0.404437     0.579912     0.609317 
    0.464261     0.377812     0.605950 
    0.648432     0.433075     0.521305 
    0.590262     0.635585     0.526366 
    0.604038     0.532786     0.374559 
    0.432027     0.636659     0.437347 
    0.342214     0.453841     0.492620 
    0.513815     0.349968     0.431760 
    0.447055     0.487225     0.370157 
    0.553457     0.513140     0.630619 
EA5640 14.506 12.952 12.101 90.00 90.00 90.00 Sym.group:    0
1.0
   14.506089     0.000000     0.000000
    0.000000    12.952397     0.000000
    0.000000     0.000000    12.100845
   W   B
   8   3
Direct
    0.365137     0.516853     0.381373 
    0.526145     0.434157     0.391869 
    0.376332     0.367906     0.486279 
    0.489340     0.510759     0.611189 
    0.521681     0.625521     0.443871 
    0.639351     0.603041     0.594296 
    0.658255     0.423906     0.557528 
    0.676929     0.536140     0.403312 
    0.518906     0.361379     0.548847 
    0.337318     0.506534     0.557729 
    0.390606     0.613806     0.523704 
EA28316 12.110 12.110 12.110 90.00 90.00 90.00 Sym.group:    0
1.0
   12.110078     0.000000     0.000000
    0.000000    12.110078     0.000000
    0.000000     0.000000    12.110078
   W   B
   8   4
Direct
    0.489731     0.677546     0.426914 
    0.395517     0.358429     0.416411 
    0.661811     0.441505     0.582029 
    0.491788     0.322232     0.580692 
    0.390080     0.630859     0.594588 
    0.662606     0.546482     0.412156 
    0.495303     0.504981     0.309264 
    0.594541     0.637085     0.595014 
    0.375721     0.457445     0.565398 
    0.494494     0.493495     0.637908 
    0.569507     0.393826     0.433993 
    0.378900     0.536117     0.445633 
EA25560 14.422 13.147 12.741 90.00 90.00 90.00 Sym.group:    0
1.0
   14.422380     0.000000     0.000000
    0.000000    13.146784     0.000000
    0.000000     0.000000    12.740894
   W   B
   8   5
Direct
    0.685428     0.525561     0.495651 
    0.527837     0.544224     0.345348 
    0.365988     0.457497     0.388097 
    0.388338     0.632058     0.428383 
    0.579137     0.377177     0.569799 
    0.333357     0.507542     0.567034 
    0.597005     0.543384     0.648540 
    0.563212     0.657758     0.482316 
    0.464711     0.464696     0.628672 
    0.457141     0.594028     0.584990 
    0.499077     0.392672     0.423044 
    0.610414     0.416936     0.409676 
    0.428357     0.386466     0.528450 
EA28470 15.011 13.313 13.316 90.00 90.00 90.00 Sym.group:    0
1.0
   15.011035     0.000000     0.000000
    0.000000    13.313281     0.000000
    0.000000     0.000000    13.315582
   W   B
   9   1
Direct
    0.567645     0.577805     0.622061 
    0.567284     0.376842     0.577849 
    0.566070     0.422078     0.375745 
    0.567218     0.623262     0.422373 
    0.441490     0.358006     0.470234 
    0.441869     0.469955     0.642285 
    0.442374     0.642538     0.530623 
    0.441253     0.530313     0.358422 
    0.336108     0.499995     0.501379 
    0.628689     0.499206     0.499029 
EA20951 14.294 12.619 12.111 90.00 90.00 90.00 Sym.group:    0
1.0
   14.294414     0.000000     0.000000
    0.000000    12.618509     0.000000
    0.000000     0.000000    12.110503
   W   B
   9   2
Direct
    0.364202     0.533605     0.619632 
    0.334770     0.453586     0.411538 
    0.502625     0.367282     0.414597 
    0.542796     0.451162     0.589087 
    0.673381     0.456988     0.412876 
    0.381345     0.356111     0.574228 
    0.511666     0.553531     0.381635 
    0.362528     0.634698     0.454754 
    0.642823     0.614019     0.504707 
    0.691476     0.467441     0.581125 
    0.492388     0.611577     0.555820 
EA28319 13.417 13.424 13.111 90.00 90.00 90.00 Sym.group:    0
1.0
   13.416962     0.000000     0.000000
    0.000000    13.424480     0.000000
    0.000000     0.000000    13.110975
   W   B
   9   3
Direct
    0.349475     0.518836     0.409051 
    0.506381     0.585073     0.652875 
    0.572949     0.337625     0.491923 
    0.654351     0.473946     0.588567 
    0.507481     0.601550     0.357462 
    0.396186     0.353255     0.492236 
    0.347164     0.509224     0.588442 
    0.591887     0.648484     0.509315 
    0.655372     0.485507     0.410758 
    0.492563     0.427420     0.603175 
    0.431968     0.620027     0.506014 
    0.494222     0.439052     0.390183 
EA26233 13.047 12.885 14.062 90.00 90.00 90.00 Sym.group:    0
1.0
   13.046624     0.000000     0.000000
    0.000000    12.885140     0.000000
    0.000000     0.000000    14.062380
   W   B
   9   4
Direct
    0.481153     0.351921     0.579451 
    0.313204     0.406390     0.525606 
    0.419943     0.373730     0.390075 
    0.383313     0.550943     0.395428 
    0.469478     0.523341     0.644263 
    0.614387     0.362365     0.457623 
    0.658911     0.462886     0.614371 
    0.603254     0.636905     0.576111 
    0.683827     0.531099     0.447213 
    0.343878     0.565394     0.543348 
    0.451331     0.627068     0.518584 
    0.537372     0.613818     0.430754 
    0.539949     0.494141     0.377171 
EA28223 13.830 13.829 12.684 90.00 90.00 90.00 Sym.group:    0
1.0
   13.830097     0.000000     0.000000
    0.000000    13.829338     0.000000
    0.000000     0.000000    12.683815
   W   B
   9   5
Direct
    0.500131     0.499491     0.568618 
    0.420059     0.396479     0.414489 
    0.399223     0.584622     0.409977 
    0.574534     0.611502     0.409696 
    0.605921     0.423800     0.416394 
    0.300207     0.476705     0.540054 
    0.697509     0.535075     0.541943 
    0.528300     0.298641     0.545036 
    0.500619     0.501670     0.269668 
    0.633372     0.402068     0.587304 
    0.399021     0.368635     0.586394 
    0.373327     0.604459     0.579463 
    0.591076     0.636998     0.580638 
    0.476700     0.659856     0.550324 
EA28402 14.129 12.897 11.932 90.00 90.00 90.00 Sym.group:    0
1.0
   14.129458     0.000000     0.000000
    0.000000    12.897389     0.000000
    0.000000     0.000000    11.932164
   W   B
  10   1
Direct
    0.647181     0.630103     0.467691 
    0.480700     0.585353     0.409578 
    0.311744     0.530131     0.405557 
    0.610789     0.340776     0.521442 
    0.642992     0.459693     0.378693 
    0.464839     0.394607     0.402740 
    0.656759     0.502004     0.604796 
    0.363570     0.600493     0.577235 
    0.472916     0.450726     0.610037 
    0.318712     0.396691     0.535899 
    0.529797     0.609422     0.586332 
EA25623 13.561 13.584 11.951 90.00 90.00 90.00 Sym.group:    0
1.0
   13.560618     0.000000     0.000000
    0.000000    13.583709     0.000000
    0.000000     0.000000    11.951316
   W   B
  10   2
Direct
    0.641786     0.645907     0.485822 
    0.505587     0.571009     0.368327 
    0.310425     0.504246     0.584088 
    0.351644     0.633965     0.465522 
    0.491174     0.600272     0.598911 
    0.497009     0.428681     0.627026 
    0.360367     0.353307     0.503392 
    0.510307     0.400573     0.393430 
    0.682898     0.516423     0.608041 
    0.648910     0.363155     0.526248 
    0.353732     0.486126     0.408701 
    0.646163     0.496335     0.430492 
EA26230 13.301 13.688 13.459 90.00 90.00 90.00 Sym.group:    0
1.0
   13.300666     0.000000     0.000000
    0.000000    13.687662     0.000000
    0.000000     0.000000    13.459276
   W   B
  10   3
Direct
    0.677487     0.470851     0.473244 
    0.430380     0.335894     0.501282 
    0.610361     0.290814     0.531731 
    0.577195     0.348116     0.377272 
    0.478043     0.505543     0.428504 
    0.292046     0.476500     0.447282 
    0.352853     0.481236     0.607037 
    0.617364     0.631165     0.565424 
    0.613784     0.630591     0.392465 
    0.544609     0.456387     0.607170 
    0.461762     0.598899     0.586873 
    0.362753     0.608077     0.502126 
    0.481362     0.665926     0.479590 
EA28224 14.141 14.200 13.274 90.00 90.00 90.00 Sym.group:    0
1.0
   14.140725     0.000000     0.000000
    0.000000    14.199799     0.000000
    0.000000     0.000000    13.273898
   W   B
  10   4
Direct
    0.316318     0.422512     0.459934 
    0.684179     0.577508     0.456545 
    0.578265     0.316089     0.456565 
    0.422689     0.683107     0.460277 
    0.500946     0.499365     0.721693 
    0.497982     0.500915     0.435171 
    0.453247     0.381013     0.582803 
    0.619649     0.452551     0.581219 
    0.380690     0.547416     0.585055 
    0.548189     0.618570     0.583717 
    0.439161     0.349252     0.418960 
    0.649300     0.439258     0.416832 
    0.347397     0.561903     0.421462 
    0.561985     0.650541     0.419766 
EA28209 14.917 14.192 12.624 90.00 90.00 90.00 Sym.group:    0
1.0
   14.917381     0.000000     0.000000
    0.000000    14.192005     0.000000
    0.000000     0.000000    12.624442
   W   B
  10   5
Direct
    0.497337     0.504142     0.456592 
    0.368005     0.485495     0.613820 
    0.573848     0.330662     0.490082 
    0.423054     0.650774     0.573011 
    0.548441     0.692079     0.451228 
    0.686166     0.454484     0.558998 
    0.584897     0.599354     0.614514 
    0.651895     0.442507     0.376039 
    0.534151     0.433356     0.652033 
    0.316798     0.561379     0.450191 
    0.450049     0.351146     0.414456 
    0.426338     0.636762     0.396969 
    0.641124     0.575261     0.453649 
    0.364738     0.418555     0.452760 
    0.433158     0.364042     0.545659 
