EA107  12.794 12.794 12.035 90.00 90.00 90.00 Sym.group:    0
1.0
   12.793918     0.000000     0.000000
    0.000000    12.793918     0.000000
    0.000000     0.000000    12.035225
   W   B
   8   4
Direct
    0.633796     0.461206     0.500523 
    0.463006     0.365438     0.498149 
    0.366981     0.538452     0.500770 
    0.535490     0.634828     0.497481 
    0.458962     0.613128     0.314976 
    0.614855     0.540945     0.688119 
    0.540459     0.387510     0.315779 
    0.386524     0.458260     0.685641 
    0.548484     0.406969     0.646677 
    0.406947     0.451330     0.353131 
    0.450791     0.592813     0.646877 
    0.593704     0.549122     0.351877 
EA530  13.236 13.439 13.201 90.00 90.00 90.00 Sym.group:    0
1.0
   13.235619     0.000000     0.000000
    0.000000    13.438936     0.000000
    0.000000     0.000000    13.200740
   W   B
   6   5
Direct
    0.479002     0.485935     0.661279 
    0.412484     0.366680     0.532501 
    0.525172     0.628343     0.548819 
    0.525345     0.565064     0.351739 
    0.523016     0.389899     0.390523 
    0.666517     0.557243     0.455127 
    0.402189     0.605890     0.447539 
    0.391980     0.483413     0.422810 
    0.382798     0.530232     0.545144 
    0.569992     0.388594     0.549386 
    0.621501     0.498707     0.595134 
EA902  13.413 13.116 13.438 90.00 90.00 90.00 Sym.group:    0
1.0
   13.413042     0.000000     0.000000
    0.000000    13.115869     0.000000
    0.000000     0.000000    13.438375
   W   B
   6   5
Direct
    0.603894     0.451735     0.379435 
    0.397152     0.634566     0.485160 
    0.453587     0.486593     0.631656 
    0.542946     0.637641     0.584112 
    0.624821     0.454459     0.595818 
    0.533635     0.336889     0.499684 
    0.387441     0.380011     0.506983 
    0.340895     0.492690     0.497628 
    0.640768     0.566175     0.477420 
    0.449859     0.471421     0.425001 
    0.525000     0.587817     0.417106 
EA1219 13.534 13.545 13.043 90.00 90.00 90.00 Sym.group:    0
1.0
   13.533796     0.000000     0.000000
    0.000000    13.544720     0.000000
    0.000000     0.000000    13.042741
   W   B
  10   1
Direct
    0.470415     0.617449     0.539202 
    0.408143     0.377377     0.568312 
    0.525662     0.481412     0.659403 
    0.342463     0.547695     0.647704 
    0.325611     0.509731     0.471874 
    0.486567     0.373646     0.392991 
    0.464466     0.545390     0.338688 
    0.666892     0.546678     0.544677 
    0.609140     0.371640     0.521799 
    0.599690     0.644460     0.409035 
    0.600947     0.484522     0.406317 
EA1595 13.988 13.158 12.830 90.00 90.00 90.00 Sym.group:    0
1.0
   13.988033     0.000000     0.000000
    0.000000    13.158186     0.000000
    0.000000     0.000000    12.829603
   W   B
  10   1
Direct
    0.518954     0.539727     0.631720 
    0.627009     0.442036     0.407480 
    0.562974     0.364037     0.569367 
    0.691640     0.488259     0.594581 
    0.614526     0.614076     0.484352 
    0.484211     0.543826     0.330378 
    0.437357     0.661336     0.470607 
    0.381511     0.391473     0.567116 
    0.451519     0.376405     0.390693 
    0.351313     0.569283     0.604988 
    0.378988     0.509543     0.448715 
EA1925 13.406 13.033 12.898 90.00 90.00 90.00 Sym.group:    0
1.0
   13.405587     0.000000     0.000000
    0.000000    13.032633     0.000000
    0.000000     0.000000    12.897652
   W   B
   6   5
Direct
    0.495553     0.370136     0.599349 
    0.489805     0.645527     0.490752 
    0.568874     0.536443     0.640485 
    0.677817     0.578983     0.496512 
    0.635626     0.395055     0.490985 
    0.572475     0.535742     0.358995 
    0.424213     0.515129     0.405411 
    0.377954     0.433723     0.501437 
    0.350224     0.563892     0.495074 
    0.420852     0.521528     0.590965 
    0.486607     0.403842     0.430033 
EA2105 13.962 13.425 12.909 90.00 90.00 90.00 Sym.group:    0
1.0
   13.961673     0.000000     0.000000
    0.000000    13.424811     0.000000
    0.000000     0.000000    12.908749
   W   B
  10   4
Direct
    0.572676     0.321337     0.480188 
    0.556346     0.419981     0.664109 
    0.686078     0.587931     0.444833 
    0.316759     0.449349     0.489729 
    0.527524     0.649503     0.420617 
    0.591951     0.453718     0.360021 
    0.598839     0.582340     0.618280 
    0.401963     0.509498     0.646221 
    0.335240     0.622853     0.479174 
    0.417554     0.536245     0.338215 
    0.639784     0.454615     0.523140 
    0.447376     0.390240     0.414960 
    0.446505     0.386470     0.549437 
    0.461406     0.635921     0.571077 
EA2681 14.103 12.750 11.860 90.00 90.00 90.00 Sym.group:    0
1.0
   14.103248     0.000000     0.000000
    0.000000    12.750038     0.000000
    0.000000     0.000000    11.860208
   W   B
   9   1
Direct
    0.523154     0.526380     0.395406 
    0.370423     0.641483     0.507544 
    0.346685     0.497465     0.384235 
    0.530693     0.605861     0.589870 
    0.532138     0.422225     0.621949 
    0.684485     0.464323     0.517222 
    0.362275     0.484056     0.614997 
    0.664111     0.629892     0.451432 
    0.415535     0.352876     0.469789 
    0.570500     0.375440     0.447558 
EA3070 12.618 12.614 12.241 90.00 90.00 90.00 Sym.group:    0
1.0
   12.618253     0.000000     0.000000
    0.000000    12.613838     0.000000
    0.000000     0.000000    12.241020
   W   B
   6   3
Direct
    0.548432     0.618910     0.414015 
    0.659074     0.456846     0.450527 
    0.607357     0.537507     0.614642 
    0.488555     0.452905     0.348978 
    0.364418     0.570611     0.456192 
    0.533913     0.350220     0.542508 
    0.467080     0.613873     0.578792 
    0.440850     0.485640     0.598450 
    0.390322     0.413488     0.495897 
EA3315 13.382 12.755 12.569 90.00 90.00 90.00 Sym.group:    0
1.0
   13.381912     0.000000     0.000000
    0.000000    12.754871     0.000000
    0.000000     0.000000    12.569246
   W   B
   7   3
Direct
    0.437046     0.675858     0.531804 
    0.425626     0.519621     0.642150 
    0.405064     0.368546     0.525566 
    0.362254     0.530168     0.431273 
    0.649929     0.479065     0.447585 
    0.527913     0.605723     0.379161 
    0.594036     0.594667     0.588713 
    0.552853     0.353189     0.474977 
    0.494473     0.441015     0.396029 
    0.550804     0.432146     0.582743 
EA3661 14.040 12.353 12.286 90.00 90.00 90.00 Sym.group:    0
1.0
   14.040428     0.000000     0.000000
    0.000000    12.353360     0.000000
    0.000000     0.000000    12.286450
   W   B
   9   1
Direct
    0.429464     0.346717     0.482844 
    0.434998     0.496336     0.660543 
    0.573142     0.608373     0.601883 
    0.677046     0.498897     0.488545 
    0.432118     0.654709     0.490876 
    0.571126     0.386583     0.596605 
    0.321346     0.500486     0.522265 
    0.560750     0.608922     0.381989 
    0.560773     0.396071     0.375982 
    0.439237     0.502904     0.398469 
EA3791 14.801 14.801 14.801 90.00 90.00 90.00 Sym.group:    0
1.0
   14.801241     0.000000     0.000000
    0.000000    14.801241     0.000000
    0.000000     0.000000    14.801241
   W   B
  10   4
Direct
    0.462148     0.499985     0.309467 
    0.462521     0.500209     0.690683 
    0.462222     0.308896     0.500009 
    0.462207     0.690902     0.499971 
    0.443562     0.500092     0.499910 
    0.699112     0.500033     0.500012 
    0.574814     0.587295     0.587308 
    0.574633     0.587227     0.412586 
    0.575125     0.412445     0.587378 
    0.574672     0.412710     0.412731 
    0.427211     0.609896     0.609566 
    0.427166     0.609855     0.390270 
    0.427414     0.390312     0.609874 
    0.427193     0.390141     0.390235 
EA4308 12.968 12.514 12.209 90.00 90.00 90.00 Sym.group:    0
1.0
   12.967966     0.000000     0.000000
    0.000000    12.513799     0.000000
    0.000000     0.000000    12.208999
   W   B
   6   4
Direct
    0.622744     0.586700     0.452507 
    0.464410     0.520985     0.339027 
    0.472518     0.340072     0.449941 
    0.342890     0.481718     0.475239 
    0.458493     0.659414     0.479203 
    0.566544     0.571578     0.641426 
    0.600203     0.420988     0.404552 
    0.592877     0.436596     0.546447 
    0.467536     0.430638     0.591982 
    0.411785     0.551308     0.619674 
EA4612 14.191 13.021 12.065 90.00 90.00 90.00 Sym.group:    0
1.0
   14.191418     0.000000     0.000000
    0.000000    13.021133     0.000000
    0.000000     0.000000    12.065178
   W   B
  10   1
Direct
    0.649483     0.515147     0.386287 
    0.474504     0.457121     0.373167 
    0.624315     0.361875     0.484872 
    0.680838     0.487658     0.607816 
    0.501304     0.497583     0.608985 
    0.473418     0.627688     0.448673 
    0.346451     0.581362     0.606724 
    0.327115     0.418182     0.537150 
    0.632894     0.644440     0.534332 
    0.320604     0.546996     0.393090 
    0.469074     0.361949     0.518907 
EA4951 14.487 13.040 12.137 90.00 90.00 90.00 Sym.group:    0
1.0
   14.486911     0.000000     0.000000
    0.000000    13.039782     0.000000
    0.000000     0.000000    12.137434
   W   B
  10   1
Direct
    0.360996     0.483276     0.381780 
    0.530904     0.548639     0.374775 
    0.375654     0.633534     0.487465 
    0.317591     0.505476     0.603440 
    0.493266     0.497983     0.607223 
    0.529079     0.375855     0.450703 
    0.646233     0.417287     0.610479 
    0.668189     0.581054     0.544300 
    0.368868     0.352075     0.524794 
    0.681098     0.468048     0.391811 
    0.528123     0.636773     0.523229 
EA5344 12.780 13.162 13.348 90.00 90.00 90.00 Sym.group:    0
1.0
   12.779645     0.000000     0.000000
    0.000000    13.162303     0.000000
    0.000000     0.000000    13.348059
   W   B
   8   2
Direct
    0.520004     0.343663     0.460677 
    0.372075     0.405854     0.549080 
    0.425954     0.472208     0.363442 
    0.326978     0.572463     0.497613 
    0.453083     0.588788     0.627224 
    0.624851     0.586746     0.564174 
    0.501062     0.645201     0.436279 
    0.609407     0.506981     0.378392 
    0.529249     0.444923     0.597935 
    0.637338     0.433173     0.525184 
EA5693 12.459 11.948 11.948 90.00 90.00 90.00 Sym.group:    0
1.0
   12.459306     0.000000     0.000000
    0.000000    11.948362     0.000000
    0.000000     0.000000    11.948362
   W   B
   8   2
Direct
    0.425979     0.458525     0.343014 
    0.425981     0.343001     0.541472 
    0.425961     0.541460     0.657003 
    0.425981     0.657000     0.458530 
    0.574016     0.640671     0.582329 
    0.574017     0.582305     0.359381 
    0.574035     0.359325     0.417671 
    0.574017     0.417707     0.640603 
    0.647220     0.500005     0.499993 
    0.352795     0.500001     0.500005 
EA6020 13.907 12.286 12.123 90.00 90.00 90.00 Sym.group:    0
1.0
   13.906807     0.000000     0.000000
    0.000000    12.286277     0.000000
    0.000000     0.000000    12.123120
   W   B
   9   1
Direct
    0.503977     0.362998     0.506242 
    0.494424     0.525455     0.376757 
    0.654618     0.432284     0.394622 
    0.660963     0.441731     0.595873 
    0.656605     0.602256     0.487199 
    0.340835     0.424276     0.410701 
    0.339359     0.592445     0.508362 
    0.503333     0.538515     0.618818 
    0.348784     0.429588     0.611086 
    0.497103     0.650454     0.490339 
EA6358 13.556 12.840 12.832 90.00 90.00 90.00 Sym.group:    0
1.0
   13.555836     0.000000     0.000000
    0.000000    12.839971     0.000000
    0.000000     0.000000    12.831871
   W   B
   9   1
Direct
    0.661832     0.544529     0.432000 
    0.541100     0.667498     0.462960 
    0.456380     0.322323     0.447728 
    0.513970     0.474512     0.358260 
    0.586319     0.560294     0.627432 
    0.415183     0.593599     0.599903 
    0.340635     0.449445     0.478197 
    0.459358     0.416459     0.636837 
    0.611570     0.387939     0.533453 
    0.413653     0.583403     0.423228 
EA6770 13.088 12.105 12.985 90.00 90.00 90.00 Sym.group:    0
1.0
   13.088301     0.000000     0.000000
    0.000000    12.105054     0.000000
    0.000000     0.000000    12.984805
   W   B
   8   1
Direct
    0.549917     0.670359     0.549608 
    0.614848     0.561611     0.409620 
    0.595897     0.491160     0.625407 
    0.416255     0.533835     0.623520 
    0.420039     0.619237     0.427454 
    0.466269     0.350834     0.567762 
    0.496822     0.429578     0.356074 
    0.342818     0.441351     0.455306 
    0.597134     0.402035     0.485249 
EA7044 13.075 13.011 12.443 90.00 90.00 90.00 Sym.group:    0
1.0
   13.074740     0.000000     0.000000
    0.000000    13.011233     0.000000
    0.000000     0.000000    12.442589
   W   B
   6   4
Direct
    0.458328     0.408525     0.373187 
    0.401891     0.396112     0.580211 
    0.349226     0.529679     0.456603 
    0.522550     0.578291     0.358529 
    0.644151     0.467632     0.441539 
    0.606504     0.610202     0.558215 
    0.543364     0.363383     0.518106 
    0.559868     0.463650     0.604481 
    0.454988     0.543966     0.601367 
    0.459130     0.638560     0.507762 
EA7396 13.096 12.820 12.300 90.00 90.00 90.00 Sym.group:    0
1.0
   13.096062     0.000000     0.000000
    0.000000    12.820382     0.000000
    0.000000     0.000000    12.300277
   W   B
   6   4
Direct
    0.407316     0.519102     0.365794 
    0.459094     0.659686     0.482447 
    0.587287     0.532395     0.365022 
    0.536031     0.363409     0.420427 
    0.638253     0.444871     0.555081 
    0.476265     0.393531     0.630569 
    0.389800     0.405380     0.491785 
    0.510966     0.550770     0.612801 
    0.599740     0.604043     0.525849 
    0.395250     0.526812     0.550226 
EA7823 13.356 11.667 11.519 90.00 90.00 90.00 Sym.group:    0
1.0
   13.356459     0.000000     0.000000
    0.000000    11.667002     0.000000
    0.000000     0.000000    11.519178
   W   B
   6   2
Direct
    0.438267     0.430135     0.375081 
    0.562931     0.357838     0.495256 
    0.437975     0.425370     0.620824 
    0.561682     0.569974     0.625267 
    0.436989     0.642043     0.504505 
    0.561995     0.574585     0.379081 
    0.659394     0.500880     0.499878 
    0.340769     0.499175     0.500107 
EA8068 12.599 13.191 12.627 90.00 90.00 90.00 Sym.group:    0
1.0
   12.599047     0.000000     0.000000
    0.000000    13.190870     0.000000
    0.000000     0.000000    12.627241
   W   B
   6   4
Direct
    0.531971     0.655863     0.524641 
    0.362359     0.586970     0.508951 
    0.535984     0.369282     0.594181 
    0.465226     0.549045     0.347408 
    0.587711     0.391928     0.418663 
    0.400787     0.398627     0.421759 
    0.499620     0.534342     0.626407 
    0.396928     0.450949     0.586833 
    0.611992     0.560082     0.425653 
    0.607421     0.502911     0.545504 
EA8507 13.207 12.252 11.897 90.00 90.00 90.00 Sym.group:    0
1.0
   13.207144     0.000000     0.000000
    0.000000    12.251716     0.000000
    0.000000     0.000000    11.896561
   W   B
   7   1
Direct
    0.322342     0.497851     0.505371 
    0.634218     0.493495     0.499873 
    0.456462     0.626266     0.503316 
    0.454006     0.426455     0.620323 
    0.462237     0.434026     0.373978 
    0.557109     0.584007     0.665522 
    0.571475     0.586142     0.336400 
    0.542152     0.351761     0.495217 
EA8658 13.384 13.003 12.583 90.00 90.00 90.00 Sym.group:    0
1.0
   13.384093     0.000000     0.000000
    0.000000    13.002559     0.000000
    0.000000     0.000000    12.582599
   W   B
   6   5
Direct
    0.650708     0.434181     0.461266 
    0.594483     0.606158     0.409368 
    0.502573     0.336506     0.521296 
    0.501842     0.448972     0.344026 
    0.403191     0.603267     0.407350 
    0.351180     0.430511     0.459487 
    0.562933     0.463775     0.606617 
    0.622528     0.565620     0.564977 
    0.437337     0.462663     0.605301 
    0.374888     0.562405     0.563135 
    0.498337     0.585941     0.557176 
EA8923 11.368 11.368 11.368 90.00 90.00 90.00 Sym.group:    0
1.0
   11.367916     0.000000     0.000000
    0.000000    11.367916     0.000000
    0.000000     0.000000    11.367916
   W   B
   9   3
Direct
    0.564325     0.677733     0.415882 
    0.502746     0.491629     0.706570 
    0.350375     0.392307     0.403011 
    0.439138     0.321603     0.594868 
    0.686137     0.501457     0.406728 
    0.343927     0.605331     0.414568 
    0.441804     0.675243     0.589896 
    0.504064     0.493424     0.292523 
    0.649593     0.391799     0.598286 
    0.540981     0.375183     0.437881 
    0.364656     0.495930     0.569031 
    0.612254     0.578361     0.570754 
EA9277 13.189 13.309 12.410 90.00 90.00 90.00 Sym.group:    0
1.0
   13.189188     0.000000     0.000000
    0.000000    13.309446     0.000000
    0.000000     0.000000    12.410189
   W   B
   7   5
Direct
    0.677594     0.448628     0.545737 
    0.636124     0.617164     0.491498 
    0.478660     0.605649     0.371770 
    0.442721     0.425708     0.375257 
    0.478923     0.371758     0.573314 
    0.545473     0.516192     0.664885 
    0.464703     0.656715     0.561163 
    0.360314     0.549600     0.474616 
    0.341716     0.431609     0.512532 
    0.598212     0.491695     0.391794 
    0.391170     0.511420     0.602703 
    0.584391     0.373865     0.434732 
EA9766 13.480 13.019 12.267 90.00 90.00 90.00 Sym.group:    0
1.0
   13.479795     0.000000     0.000000
    0.000000    13.018901     0.000000
    0.000000     0.000000    12.266829
   W   B
   8   2
Direct
    0.455557     0.569946     0.645646 
    0.417170     0.627463     0.435546 
    0.416032     0.418967     0.378221 
    0.454911     0.372827     0.592197 
    0.576604     0.642710     0.515935 
    0.602956     0.469037     0.629146 
    0.573917     0.366665     0.439447 
    0.322215     0.495476     0.520281 
    0.537725     0.528016     0.385156 
    0.642913     0.508890     0.458425 
EA10112 15.641 12.311 12.311 90.00 90.00 90.00 Sym.group:    0
1.0
   15.640826     0.000000     0.000000
    0.000000    12.311092     0.000000
    0.000000     0.000000    12.311092
   W   B
   9   1
Direct
    0.564109     0.646043     0.441958 
    0.563929     0.441891     0.353927 
    0.564030     0.354175     0.558041 
    0.563834     0.558199     0.646133 
    0.444722     0.353103     0.435267 
    0.444857     0.564087     0.353075 
    0.444703     0.646838     0.564828 
    0.444391     0.435698     0.646659 
    0.345632     0.499956     0.500062 
    0.619794     0.500010     0.500051 
EA10455 15.011 13.313 13.316 90.00 90.00 90.00 Sym.group:    0
1.0
   15.011035     0.000000     0.000000
    0.000000    13.313281     0.000000
    0.000000     0.000000    13.315582
   W   B
   9   1
Direct
    0.567645     0.577805     0.622061 
    0.567284     0.376842     0.577849 
    0.566070     0.422078     0.375745 
    0.567218     0.623262     0.422373 
    0.441490     0.358006     0.470234 
    0.441869     0.469955     0.642285 
    0.442374     0.642538     0.530623 
    0.441253     0.530313     0.358422 
    0.336108     0.499995     0.501379 
    0.628689     0.499206     0.499029 
EA10875 12.126 12.901 12.901 90.00 90.00 90.00 Sym.group:    0
1.0
   12.126296     0.000000     0.000000
    0.000000    12.900908     0.000000
    0.000000     0.000000    12.900908
   W   B
   7   1
Direct
    0.398743     0.420807     0.430018 
    0.429732     0.608594     0.398717 
    0.398341     0.581349     0.572787 
    0.425178     0.398840     0.612987 
    0.601070     0.393337     0.524201 
    0.583400     0.466887     0.360291 
    0.606882     0.606530     0.483963 
    0.556654     0.523656     0.617035 
EA11061 13.646 12.988 13.139 90.00 90.00 90.00 Sym.group:    0
1.0
   13.646204     0.000000     0.000000
    0.000000    12.987611     0.000000
    0.000000     0.000000    13.138716
   W   B
   6   5
Direct
    0.472468     0.429272     0.372361 
    0.416711     0.540445     0.614763 
    0.609784     0.602250     0.575837 
    0.656787     0.470730     0.456602 
    0.554669     0.590384     0.373424 
    0.560319     0.440567     0.640391 
    0.475843     0.647546     0.510565 
    0.408238     0.565730     0.443615 
    0.355612     0.460592     0.482153 
    0.440092     0.392985     0.537789 
    0.549478     0.359500     0.492499 
EA11263 13.960 13.310 13.017 90.00 90.00 90.00 Sym.group:    0
1.0
   13.959562     0.000000     0.000000
    0.000000    13.309778     0.000000
    0.000000     0.000000    13.016913
   W   B
   9   4
Direct
    0.679876     0.582433     0.470870 
    0.520036     0.534566     0.348402 
    0.535743     0.672340     0.475446 
    0.435992     0.606552     0.621726 
    0.463857     0.425513     0.628794 
    0.503476     0.358727     0.446958 
    0.637414     0.399928     0.574718 
    0.364923     0.449341     0.371209 
    0.613643     0.566850     0.640582 
    0.631438     0.441909     0.414605 
    0.361246     0.377236     0.516780 
    0.348907     0.501898     0.535393 
    0.403446     0.582708     0.454517 
EA11807 13.030 13.084 12.781 90.00 90.00 90.00 Sym.group:    0
1.0
   13.029829     0.000000     0.000000
    0.000000    13.084463     0.000000
    0.000000     0.000000    12.780713
   W   B
   8   2
Direct
    0.393472     0.395218     0.569335 
    0.591947     0.627936     0.546714 
    0.540902     0.351840     0.456449 
    0.413139     0.450536     0.368107 
    0.580966     0.527447     0.360398 
    0.449614     0.640553     0.433714 
    0.680968     0.471871     0.522127 
    0.550501     0.441003     0.648090 
    0.447252     0.558713     0.590549 
    0.351239     0.534884     0.504516 
EA12170 14.115 13.146 13.037 90.00 90.00 90.00 Sym.group:    0
1.0
   14.114991     0.000000     0.000000
    0.000000    13.145748     0.000000
    0.000000     0.000000    13.037003
   W   B
   9   1
Direct
    0.326547     0.499861     0.500130 
    0.571460     0.372920     0.575068 
    0.570439     0.573506     0.627781 
    0.570752     0.627330     0.424752 
    0.570696     0.427095     0.372182 
    0.437894     0.540809     0.355177 
    0.438832     0.356308     0.462264 
    0.438181     0.459137     0.644877 
    0.437500     0.642568     0.537668 
    0.637698     0.500465     0.500100 
EA12304 14.274 14.274 14.274 90.00 90.00 90.00 Sym.group:    0
1.0
   14.274105     0.000000     0.000000
    0.000000    14.274105     0.000000
    0.000000     0.000000    14.274105
   W   B
   8   4
Direct
    0.472930     0.637919     0.580439 
    0.540953     0.637793     0.424854 
    0.537753     0.361225     0.425717 
    0.471916     0.362379     0.579247 
    0.636666     0.416522     0.558666 
    0.473085     0.505243     0.340961 
    0.362306     0.582452     0.440156 
    0.366030     0.505157     0.589171 
    0.406493     0.433525     0.459730 
    0.605411     0.500805     0.436261 
    0.600489     0.556043     0.543915 
    0.525969     0.500938     0.620883 
EA12618 13.579 13.300 12.939 90.00 90.00 90.00 Sym.group:    0
1.0
   13.579423     0.000000     0.000000
    0.000000    13.300051     0.000000
    0.000000     0.000000    12.938748
   W   B
   8   4
Direct
    0.380187     0.546329     0.585095 
    0.555573     0.486026     0.681283 
    0.672333     0.484532     0.538521 
    0.406626     0.386133     0.448292 
    0.322742     0.543337     0.413329 
    0.609138     0.592338     0.402015 
    0.549783     0.637073     0.584575 
    0.582725     0.408704     0.383617 
    0.442598     0.399542     0.605161 
    0.549900     0.380453     0.543910 
    0.457175     0.618159     0.452001 
    0.471219     0.517374     0.362199 
EA13135 13.563 12.699 12.974 90.00 90.00 90.00 Sym.group:    0
1.0
   13.562610     0.000000     0.000000
    0.000000    12.699086     0.000000
    0.000000     0.000000    12.974301
   W   B
   8   2
Direct
    0.379305     0.390494     0.492755 
    0.531853     0.375139     0.400735 
    0.671359     0.450587     0.511526 
    0.520220     0.378217     0.606321 
    0.589546     0.580037     0.612361 
    0.421810     0.535537     0.638795 
    0.436254     0.530235     0.352839 
    0.602429     0.574407     0.396080 
    0.366469     0.565060     0.491763 
    0.480754     0.620286     0.496825 
EA13496 12.507 12.507 11.155 90.00 90.00 90.00 Sym.group:    0
1.0
   12.506734     0.000000     0.000000
    0.000000    12.506734     0.000000
    0.000000     0.000000    11.155376
   W   B
   8   2
Direct
    0.651921     0.481122     0.416300 
    0.480303     0.347215     0.415554 
    0.347073     0.519506     0.415945 
    0.520016     0.652996     0.416628 
    0.406089     0.621734     0.583259 
    0.378053     0.405028     0.583333 
    0.594704     0.378417     0.583772 
    0.621412     0.593692     0.582996 
    0.500170     0.499953     0.339390 
    0.500259     0.500338     0.662823 
EA13680 13.357 13.505 13.267 90.00 90.00 90.00 Sym.group:    0
1.0
   13.357348     0.000000     0.000000
    0.000000    13.504674     0.000000
    0.000000     0.000000    13.267236
   W   B
   7   5
Direct
    0.325339     0.483447     0.501262 
    0.579038     0.496674     0.654883 
    0.672516     0.487862     0.493125 
    0.584527     0.641503     0.543209 
    0.572334     0.576291     0.363559 
    0.412240     0.630994     0.440036 
    0.414704     0.583542     0.620381 
    0.445766     0.424480     0.589632 
    0.554028     0.388623     0.535642 
    0.552197     0.420927     0.408159 
    0.441588     0.481579     0.384063 
    0.445724     0.384080     0.466048 
EA14019 13.877 12.716 13.105 90.00 90.00 90.00 Sym.group:    0
1.0
   13.877374     0.000000     0.000000
    0.000000    12.716405     0.000000
    0.000000     0.000000    13.105064
   W   B
   7   5
Direct
    0.664467     0.509189     0.509413 
    0.415268     0.659517     0.509596 
    0.414890     0.545184     0.359808 
    0.422662     0.361543     0.423593 
    0.576720     0.439345     0.355499 
    0.564853     0.637502     0.414779 
    0.576860     0.340036     0.517113 
    0.544710     0.598224     0.576961 
    0.443491     0.535754     0.618642 
    0.447680     0.407330     0.580837 
    0.551331     0.471209     0.617588 
    0.377066     0.495165     0.516172 
EA14621 14.388 11.731 11.748 90.00 90.00 90.00 Sym.group:    0
1.0
   14.388435     0.000000     0.000000
    0.000000    11.730778     0.000000
    0.000000     0.000000    11.748318
   W   B
   6   2
Direct
    0.443279     0.367016     0.452433 
    0.558051     0.393207     0.591763 
    0.442828     0.525814     0.640010 
    0.556708     0.632830     0.547694 
    0.441894     0.606869     0.407954 
    0.557340     0.474246     0.360271 
    0.352563     0.499610     0.500125 
    0.647336     0.500409     0.499749 
EA14956 13.094 12.716 12.131 90.00 90.00 90.00 Sym.group:    0
1.0
   13.094163     0.000000     0.000000
    0.000000    12.715563     0.000000
    0.000000     0.000000    12.131156
   W   B
   7   1
Direct
    0.452099     0.507815     0.644674 
    0.561197     0.371915     0.519455 
    0.380849     0.385509     0.501313 
    0.463814     0.484362     0.351816 
    0.507170     0.644420     0.489228 
    0.629872     0.509927     0.398977 
    0.623189     0.544911     0.603360 
    0.381809     0.551142     0.491177 
EA14978 14.322 14.317 13.048 90.00 90.00 90.00 Sym.group:    0
1.0
   14.322103     0.000000     0.000000
    0.000000    14.316958     0.000000
    0.000000     0.000000    13.047531
   W   B
  10   4
Direct
    0.332702     0.399739     0.544080 
    0.667150     0.600172     0.544314 
    0.601977     0.329573     0.539673 
    0.397496     0.670008     0.540359 
    0.500365     0.500770     0.273267 
    0.500045     0.499953     0.567428 
    0.472763     0.376216     0.414864 
    0.624438     0.472849     0.415094 
    0.375992     0.527244     0.415217 
    0.527813     0.624778     0.416610 
    0.462384     0.343162     0.581663 
    0.655608     0.458517     0.581957 
    0.344253     0.540797     0.582083 
    0.537014     0.656222     0.583392 
EA15395 13.914 13.702 13.433 90.00 90.00 90.00 Sym.group:    0
1.0
   13.914452     0.000000     0.000000
    0.000000    13.701832     0.000000
    0.000000     0.000000    13.432702
   W   B
   8   4
Direct
    0.386836     0.418507     0.404595 
    0.377450     0.425484     0.587184 
    0.632147     0.561940     0.590282 
    0.650494     0.413028     0.509799 
    0.455137     0.583229     0.640035 
    0.348138     0.577616     0.485337 
    0.470762     0.564495     0.343516 
    0.509633     0.666678     0.494706 
    0.531192     0.440582     0.609015 
    0.500253     0.373325     0.504521 
    0.540759     0.434138     0.397579 
    0.597200     0.540978     0.433432 
EA15746 13.561 13.584 11.951 90.00 90.00 90.00 Sym.group:    0
1.0
   13.560618     0.000000     0.000000
    0.000000    13.583709     0.000000
    0.000000     0.000000    11.951316
   W   B
  10   2
Direct
    0.641786     0.645907     0.485822 
    0.505587     0.571009     0.368327 
    0.310425     0.504246     0.584088 
    0.351644     0.633965     0.465522 
    0.491174     0.600272     0.598911 
    0.497009     0.428681     0.627026 
    0.360367     0.353307     0.503392 
    0.510307     0.400573     0.393430 
    0.682898     0.516423     0.608041 
    0.648910     0.363155     0.526248 
    0.353732     0.486126     0.408701 
    0.646163     0.496335     0.430492 
EA15990 14.410 13.245 13.318 90.00 90.00 90.00 Sym.group:    0
1.0
   14.410167     0.000000     0.000000
    0.000000    13.244986     0.000000
    0.000000     0.000000    13.318359
   W   B
   9   5
Direct
    0.413730     0.572399     0.597331 
    0.594757     0.669722     0.566510 
    0.662069     0.522658     0.472319 
    0.488342     0.400364     0.524217 
    0.295541     0.432470     0.492478 
    0.541701     0.459082     0.345105 
    0.575102     0.516799     0.650633 
    0.359039     0.408308     0.649905 
    0.392822     0.565418     0.411783 
    0.471247     0.681087     0.483095 
    0.543815     0.609629     0.415779 
    0.404169     0.403937     0.384537 
    0.621128     0.368215     0.442722 
    0.636538     0.389912     0.563585 
EA16401 14.447 14.447 14.447 90.00 90.00 90.00 Sym.group:    0
1.0
   14.447304     0.000000     0.000000
    0.000000    14.447304     0.000000
    0.000000     0.000000    14.447304
   W   B
   9   3
Direct
    0.590086     0.613046     0.419160 
    0.586284     0.612553     0.582399 
    0.436067     0.367807     0.580861 
    0.430789     0.373389     0.419470 
    0.580900     0.352011     0.498066 
    0.433444     0.547356     0.631994 
    0.434781     0.657470     0.492194 
    0.432504     0.549621     0.366548 
    0.337819     0.503271     0.504279 
    0.557963     0.462896     0.595742 
    0.624101     0.494298     0.502498 
    0.555261     0.466281     0.406788 
EA16878 12.781 13.091 13.016 90.00 90.00 90.00 Sym.group:    0
1.0
   12.781313     0.000000     0.000000
    0.000000    13.091088     0.000000
    0.000000     0.000000    13.015696
   W   B
   9   1
Direct
    0.367417     0.529236     0.602931 
    0.539180     0.604313     0.612951 
    0.659841     0.478727     0.530144 
    0.496034     0.408673     0.640146 
    0.569979     0.334529     0.454896 
    0.624936     0.625485     0.414960 
    0.448453     0.659211     0.460065 
    0.525556     0.482208     0.358589 
    0.389843     0.363993     0.493144 
    0.378760     0.513625     0.432173 
EA17219 13.342 13.000 13.318 90.00 90.00 90.00 Sym.group:    0
1.0
   13.342227     0.000000     0.000000
    0.000000    12.999687     0.000000
    0.000000     0.000000    13.317938
   W   B
   9   1
Direct
    0.324837     0.561491     0.566609 
    0.337433     0.416773     0.454740 
    0.482415     0.454321     0.600674 
    0.665616     0.412441     0.525705 
    0.512855     0.323672     0.471329 
    0.522250     0.490467     0.390891 
    0.675516     0.581206     0.464691 
    0.355308     0.584707     0.389092 
    0.502972     0.629524     0.526100 
    0.620798     0.545397     0.610170 
EA17664 11.868 12.760 12.634 90.00 90.00 90.00 Sym.group:    0
1.0
   11.868307     0.000000     0.000000
    0.000000    12.759873     0.000000
    0.000000     0.000000    12.633806
   W   B
   7   1
Direct
    0.426099     0.412424     0.399033 
    0.412185     0.474347     0.617050 
    0.562021     0.377845     0.535033 
    0.571755     0.580717     0.600080 
    0.722849     0.490689     0.503246 
    0.423529     0.627848     0.478091 
    0.576147     0.540849     0.384744 
    0.305416     0.495280     0.482724 
EA18016 11.470 11.635 11.128 90.00 90.00 90.00 Sym.group:    0
1.0
   11.470076     0.000000     0.000000
    0.000000    11.635182     0.000000
    0.000000     0.000000    11.128319
   W   B
   6   1
Direct
    0.390822     0.426651     0.607019 
    0.617741     0.444882     0.607914 
    0.489265     0.629146     0.607764 
    0.511876     0.359851     0.448757 
    0.617161     0.579260     0.447967 
    0.372989     0.560846     0.447976 
    0.500145     0.499365     0.332603 
EA18130 13.688 13.797 13.168 90.00 90.00 90.00 Sym.group:    0
1.0
   13.687599     0.000000     0.000000
    0.000000    13.796980     0.000000
    0.000000     0.000000    13.168242
   W   B
  10   2
Direct
    0.486352     0.668945     0.487595 
    0.464226     0.407237     0.360208 
    0.640085     0.433411     0.601879 
    0.519181     0.329793     0.519945 
    0.346462     0.586301     0.558314 
    0.667420     0.570430     0.499078 
    0.560359     0.565820     0.351328 
    0.534260     0.583381     0.642509 
    0.330713     0.431829     0.483023 
    0.435949     0.435152     0.641433 
    0.601827     0.440145     0.440394 
    0.413166     0.547556     0.414295 
EA18414 15.294 13.399 12.783 90.00 90.00 90.00 Sym.group:    0
1.0
   15.294184     0.000000     0.000000
    0.000000    13.399130     0.000000
    0.000000     0.000000    12.782900
   W   B
  10   3
Direct
    0.463607     0.491544     0.636041 
    0.690277     0.492498     0.472036 
    0.604193     0.397138     0.609775 
    0.333859     0.399488     0.530210 
    0.308604     0.565949     0.548844 
    0.605781     0.639422     0.432970 
    0.455889     0.509201     0.415194 
    0.474675     0.648441     0.536631 
    0.293818     0.505311     0.378046 
    0.624093     0.571549     0.627330 
    0.483397     0.382052     0.514048 
    0.588208     0.496823     0.358153 
    0.573599     0.400584     0.440722 
EA18720 13.369 13.981 13.334 90.00 90.00 90.00 Sym.group:    0
1.0
   13.369250     0.000000     0.000000
    0.000000    13.980692     0.000000
    0.000000     0.000000    13.333602
   W   B
   9   5
Direct
    0.663373     0.526108     0.589316 
    0.397796     0.655436     0.533551 
    0.298840     0.515684     0.542842 
    0.512554     0.467765     0.341343 
    0.486163     0.543054     0.648107 
    0.649901     0.569422     0.408325 
    0.512354     0.325569     0.455000 
    0.597340     0.366046     0.606698 
    0.408830     0.390959     0.611654 
    0.498741     0.608587     0.414980 
    0.392255     0.544068     0.414799 
    0.392244     0.426719     0.450060 
    0.630466     0.427831     0.459381 
    0.559144     0.632749     0.523946 
EA19125 13.159 13.283 12.748 90.00 90.00 90.00 Sym.group:    0
1.0
   13.158945     0.000000     0.000000
    0.000000    13.283366     0.000000
    0.000000     0.000000    12.747785
   W   B
   9   3
Direct
    0.479376     0.364703     0.371903 
    0.456678     0.659094     0.434764 
    0.366326     0.382718     0.512764 
    0.346972     0.571760     0.555140 
    0.549120     0.536547     0.331580 
    0.508668     0.623871     0.640500 
    0.545372     0.338736     0.563960 
    0.658100     0.436325     0.450230 
    0.634592     0.624004     0.507636 
    0.402344     0.504817     0.408976 
    0.588308     0.490438     0.594814 
    0.464143     0.466989     0.627731 
EA19682 14.373 12.024 13.378 90.00 90.00 90.00 Sym.group:    0
1.0
   14.373053     0.000000     0.000000
    0.000000    12.024370     0.000000
    0.000000     0.000000    13.377622
   W   B
   8   1
Direct
    0.353801     0.611044     0.494638 
    0.360103     0.430781     0.410270 
    0.501554     0.557640     0.400439 
    0.509782     0.375309     0.500679 
    0.349858     0.441259     0.585823 
    0.500154     0.559638     0.596596 
    0.653200     0.450443     0.585270 
    0.642778     0.616833     0.499860 
    0.628769     0.457054     0.426426 
EA19729 14.054 13.613 12.707 90.00 90.00 90.00 Sym.group:    0
1.0
   14.054118     0.000000     0.000000
    0.000000    13.612766     0.000000
    0.000000     0.000000    12.706779
   W   B
   9   5
Direct
    0.697184     0.480156     0.439896 
    0.483399     0.671673     0.427101 
    0.420915     0.498898     0.344817 
    0.431342     0.619108     0.604924 
    0.621991     0.417268     0.596177 
    0.551660     0.380898     0.389880 
    0.620898     0.618705     0.525100 
    0.342951     0.468381     0.546511 
    0.481088     0.324020     0.561797 
    0.353243     0.593072     0.456057 
    0.558446     0.547594     0.659704 
    0.565911     0.543610     0.381268 
    0.472283     0.465217     0.638005 
    0.398689     0.371401     0.428765 
EA20171 13.410 14.021 13.217 90.00 90.00 90.00 Sym.group:    0
1.0
   13.409595     0.000000     0.000000
    0.000000    14.020840     0.000000
    0.000000     0.000000    13.216771
   W   B
   9   3
Direct
    0.458654     0.333498     0.527453 
    0.525877     0.668635     0.463109 
    0.654287     0.546059     0.429939 
    0.337440     0.476217     0.563191 
    0.496493     0.452401     0.663879 
    0.634445     0.402727     0.557329 
    0.370674     0.440961     0.393168 
    0.554682     0.390513     0.386964 
    0.619092     0.584886     0.598669 
    0.399837     0.577496     0.459570 
    0.494985     0.541212     0.378262 
    0.453532     0.585396     0.578467 
EA20403 14.058 13.341 13.908 90.00 90.00 90.00 Sym.group:    0
1.0
   14.058307     0.000000     0.000000
    0.000000    13.340777     0.000000
    0.000000     0.000000    13.907620
   W   B
  10   5
Direct
    0.333871     0.646773     0.466774 
    0.453420     0.629705     0.603583 
    0.492710     0.640442     0.411843 
    0.692944     0.460685     0.546685 
    0.620884     0.645123     0.539176 
    0.624116     0.364760     0.421832 
    0.363062     0.481592     0.395593 
    0.545532     0.350058     0.579785 
    0.360784     0.364368     0.531186 
    0.664711     0.557267     0.398508 
    0.445724     0.468822     0.615357 
    0.559050     0.508939     0.616528 
    0.475516     0.377104     0.436860 
    0.348262     0.518546     0.557424 
    0.519415     0.485814     0.378866 
EA20862 13.641 12.190 12.196 90.00 90.00 90.00 Sym.group:    0
1.0
   13.641235     0.000000     0.000000
    0.000000    12.190124     0.000000
    0.000000     0.000000    12.196313
   W   B
  10   2
Direct
    0.491824     0.633894     0.433819 
    0.491279     0.572867     0.633741 
    0.492934     0.365951     0.566889 
    0.491550     0.427259     0.367163 
    0.650907     0.349971     0.448362 
    0.337349     0.532128     0.390173 
    0.649545     0.649768     0.551297 
    0.336764     0.467761     0.609499 
    0.663652     0.536715     0.391713 
    0.663563     0.463576     0.607513 
    0.365713     0.376001     0.462514 
    0.364919     0.624109     0.537314 
EA21189 13.294 12.935 13.494 90.00 90.00 90.00 Sym.group:    0
1.0
   13.293968     0.000000     0.000000
    0.000000    12.935454     0.000000
    0.000000     0.000000    13.493815
   W   B
   9   3
Direct
    0.345934     0.469310     0.419081 
    0.505730     0.403434     0.348893 
    0.377692     0.630989     0.512000 
    0.568293     0.669278     0.493864 
    0.643500     0.524548     0.392061 
    0.366677     0.480555     0.617567 
    0.656534     0.536122     0.573422 
    0.436053     0.329734     0.499671 
    0.530016     0.413743     0.647908 
    0.481451     0.564728     0.397276 
    0.587797     0.402955     0.490976 
    0.500324     0.574603     0.607282 
EA21706 13.409 12.778 12.921 90.00 90.00 90.00 Sym.group:    0
1.0
   13.409322     0.000000     0.000000
    0.000000    12.777742     0.000000
    0.000000     0.000000    12.920996
   W   B
   8   2
Direct
    0.512147     0.667276     0.486884 
    0.635702     0.556538     0.565193 
    0.414296     0.520875     0.360889 
    0.498575     0.366570     0.399591 
    0.545008     0.384119     0.610201 
    0.377844     0.407463     0.538205 
    0.346402     0.598383     0.511218 
    0.473266     0.548389     0.651539 
    0.627879     0.424024     0.467224 
    0.568881     0.526364     0.409054 
EA21768 14.596 13.244 12.495 90.00 90.00 90.00 Sym.group:    0
1.0
   14.596222     0.000000     0.000000
    0.000000    13.243832     0.000000
    0.000000     0.000000    12.495249
   W   B
   9   5
Direct
    0.574806     0.373117     0.613754 
    0.677215     0.529938     0.569258 
    0.626028     0.597755     0.392032 
    0.318907     0.559753     0.506215 
    0.482099     0.345301     0.449811 
    0.415869     0.441822     0.627736 
    0.461683     0.633361     0.406907 
    0.649946     0.408687     0.437275 
    0.314829     0.384803     0.479905 
    0.541557     0.535777     0.638896 
    0.406337     0.483044     0.390317 
    0.521430     0.484114     0.369759 
    0.558698     0.626766     0.540327 
    0.450595     0.595762     0.577808 
EA22433 12.538 12.079 12.350 90.00 90.00 90.00 Sym.group:    0
1.0
   12.538446     0.000000     0.000000
    0.000000    12.079460     0.000000
    0.000000     0.000000    12.349605
   W   B
   6   1
Direct
    0.604137     0.409581     0.423094 
    0.603518     0.608515     0.453723 
    0.448524     0.517926     0.374282 
    0.468284     0.379289     0.557591 
    0.460899     0.603792     0.581851 
    0.321589     0.491284     0.521221 
    0.593049     0.489614     0.588238 
EA22695 12.364 13.092 12.202 90.00 90.00 90.00 Sym.group:    0
1.0
   12.364118     0.000000     0.000000
    0.000000    13.091780     0.000000
    0.000000     0.000000    12.202330
   W   B
   6   4
Direct
    0.568167     0.357514     0.480204 
    0.425933     0.395776     0.602372 
    0.585196     0.493780     0.653753 
    0.418724     0.421665     0.380111 
    0.424300     0.625524     0.422207 
    0.569262     0.527277     0.347272 
    0.651787     0.501354     0.497970 
    0.447295     0.567097     0.592850 
    0.349920     0.511356     0.509875 
    0.559416     0.598655     0.513383 
EA22793 14.250 13.738 12.531 90.00 90.00 90.00 Sym.group:    0
1.0
   14.250228     0.000000     0.000000
    0.000000    13.737580     0.000000
    0.000000     0.000000    12.530729
   W   B
   9   5
Direct
    0.363019     0.620631     0.602447 
    0.485379     0.475546     0.568489 
    0.657753     0.390619     0.571053 
    0.641873     0.574175     0.571637 
    0.333020     0.556861     0.407789 
    0.472508     0.659423     0.463227 
    0.491156     0.506968     0.351855 
    0.392984     0.374076     0.446804 
    0.522883     0.292595     0.561473 
    0.508709     0.625953     0.634227 
    0.614815     0.596281     0.408826 
    0.629592     0.478057     0.430795 
    0.558602     0.375251     0.426525 
    0.327706     0.473566     0.554852 
EA23119 13.493 13.087 14.906 90.00 90.00 90.00 Sym.group:    0
1.0
   13.492644     0.000000     0.000000
    0.000000    13.087219     0.000000
    0.000000     0.000000    14.905732
   W   B
  10   5
Direct
    0.432847     0.627849     0.435269 
    0.435413     0.581668     0.601552 
    0.269223     0.585575     0.515407 
    0.300785     0.424859     0.566813 
    0.491836     0.464209     0.362465 
    0.483013     0.399048     0.609006 
    0.675393     0.396502     0.566202 
    0.607903     0.615154     0.388226 
    0.562054     0.322014     0.468458 
    0.582891     0.680609     0.541803 
    0.345091     0.480927     0.427716 
    0.413793     0.382563     0.471211 
    0.638931     0.459500     0.432441 
    0.670418     0.549460     0.511976 
    0.590408     0.530063     0.601456 
EA23650 14.723 12.998 12.486 90.00 90.00 90.00 Sym.group:    0
1.0
   14.722701     0.000000     0.000000
    0.000000    12.997805     0.000000
    0.000000     0.000000    12.485897
   W   B
  10   1
Direct
    0.572257     0.458455     0.399429 
    0.415852     0.375585     0.392091 
    0.710170     0.519398     0.490969 
    0.550816     0.642005     0.431493 
    0.492718     0.370447     0.566820 
    0.323660     0.467934     0.518827 
    0.395595     0.645484     0.522851 
    0.575076     0.549709     0.598983 
    0.418859     0.504871     0.669957 
    0.404779     0.569025     0.357298 
    0.640219     0.397088     0.551281 
EA24006 14.723 12.998 12.486 90.00 90.00 90.00 Sym.group:    0
1.0
   14.722701     0.000000     0.000000
    0.000000    12.997805     0.000000
    0.000000     0.000000    12.485897
   W   B
  10   1
Direct
    0.572257     0.458455     0.399429 
    0.415852     0.375585     0.392091 
    0.710170     0.519398     0.490969 
    0.550816     0.642005     0.431493 
    0.492718     0.370447     0.566820 
    0.323660     0.467934     0.518827 
    0.395595     0.645484     0.522851 
    0.575076     0.549709     0.598983 
    0.418859     0.504871     0.669957 
    0.404779     0.569025     0.357298 
    0.640219     0.397088     0.551281 
EA24150 13.715 13.715 12.907 90.00 90.00 90.00 Sym.group:    0
1.0
   13.715010     0.000000     0.000000
    0.000000    13.715010     0.000000
    0.000000     0.000000    12.906822
   W   B
   9   5
Direct
    0.500889     0.499911     0.557813 
    0.500992     0.365607     0.411053 
    0.364884     0.496639     0.410383 
    0.498608     0.634881     0.410257 
    0.634775     0.503511     0.410310 
    0.351129     0.358560     0.540749 
    0.358739     0.647884     0.539204 
    0.648348     0.641424     0.540678 
    0.641487     0.352259     0.539123 
    0.667456     0.495338     0.581127 
    0.495375     0.332627     0.581422 
    0.332779     0.504620     0.581715 
    0.504944     0.667248     0.581275 
    0.499595     0.499490     0.314893 
EA24492 13.830 13.829 12.684 90.00 90.00 90.00 Sym.group:    0
1.0
   13.830097     0.000000     0.000000
    0.000000    13.829338     0.000000
    0.000000     0.000000    12.683815
   W   B
   9   5
Direct
    0.500131     0.499491     0.568618 
    0.420059     0.396479     0.414489 
    0.399223     0.584622     0.409977 
    0.574534     0.611502     0.409696 
    0.605921     0.423800     0.416394 
    0.300207     0.476705     0.540054 
    0.697509     0.535075     0.541943 
    0.528300     0.298641     0.545036 
    0.500619     0.501670     0.269668 
    0.633372     0.402068     0.587304 
    0.399021     0.368635     0.586394 
    0.373327     0.604459     0.579463 
    0.591076     0.636998     0.580638 
    0.476700     0.659856     0.550324 
EA25131 12.832 12.670 12.457 90.00 90.00 90.00 Sym.group:    0
1.0
   12.831838     0.000000     0.000000
    0.000000    12.670378     0.000000
    0.000000     0.000000    12.456566
   W   B
   8   1
Direct
    0.620018     0.514973     0.604235 
    0.341727     0.509317     0.501879 
    0.443623     0.389354     0.399662 
    0.472408     0.387445     0.606671 
    0.614852     0.368047     0.471926 
    0.611425     0.540160     0.394287 
    0.510158     0.659379     0.495088 
    0.438239     0.576967     0.650202 
    0.447550     0.554356     0.376051 
EA25346 14.310 12.948 12.573 90.00 90.00 90.00 Sym.group:    0
1.0
   14.310256     0.000000     0.000000
    0.000000    12.947936     0.000000
    0.000000     0.000000    12.573023
   W   B
  10   1
Direct
    0.638263     0.617778     0.582717 
    0.466798     0.613875     0.529233 
    0.301438     0.558252     0.500194 
    0.615634     0.417192     0.363026 
    0.623276     0.595458     0.395050 
    0.454884     0.515785     0.365499 
    0.665070     0.443855     0.542152 
    0.376335     0.470845     0.637476 
    0.490400     0.382480     0.510226 
    0.331675     0.388776     0.444085 
    0.536228     0.495703     0.630343 
EA25505 15.235 14.512 12.457 90.00 90.00 90.00 Sym.group:    0
1.0
   15.235145     0.000000     0.000000
    0.000000    14.511966     0.000000
    0.000000     0.000000    12.457314
   W   B
  10   5
Direct
    0.492453     0.500047     0.447371 
    0.551108     0.600916     0.621236 
    0.378757     0.578746     0.588072 
    0.473189     0.694691     0.485167 
    0.304334     0.491066     0.451278 
    0.685449     0.529269     0.535036 
    0.640888     0.393448     0.429665 
    0.391918     0.378241     0.569480 
    0.589434     0.407336     0.612545 
    0.408286     0.362286     0.385107 
    0.383670     0.606114     0.412067 
    0.590125     0.619812     0.448268 
    0.470717     0.477059     0.653634 
    0.623053     0.528784     0.374967 
    0.516621     0.332184     0.486104 
EA26047 14.111 12.845 11.975 90.00 90.00 90.00 Sym.group:    0
1.0
   14.111170     0.000000     0.000000
    0.000000    12.844713     0.000000
    0.000000     0.000000    11.975102
   W   B
  10   1
Direct
    0.647462     0.619975     0.439405 
    0.480081     0.566368     0.391284 
    0.309725     0.513401     0.403331 
    0.610434     0.346530     0.555726 
    0.642693     0.435396     0.390301 
    0.465199     0.378698     0.427948 
    0.657428     0.520959     0.601257 
    0.364964     0.615088     0.552578 
    0.473309     0.471124     0.616263 
    0.318325     0.409043     0.562232 
    0.530381     0.623419     0.559675 
EA26186 15.184 14.370 12.679 90.00 90.00 90.00 Sym.group:    0
1.0
   15.183544     0.000000     0.000000
    0.000000    14.369760     0.000000
    0.000000     0.000000    12.679373
   W   B
  10   5
Direct
    0.492180     0.498245     0.447228 
    0.553552     0.606040     0.614462 
    0.385107     0.585604     0.586545 
    0.477925     0.696128     0.475172 
    0.299561     0.495270     0.459958 
    0.685001     0.521925     0.535148 
    0.641124     0.385074     0.430180 
    0.391430     0.385732     0.573246 
    0.586097     0.403751     0.610551 
    0.398403     0.364307     0.391216 
    0.383063     0.606056     0.413131 
    0.593422     0.615292     0.445047 
    0.475122     0.483091     0.657910 
    0.625699     0.520980     0.376302 
    0.512313     0.332508     0.483904 
EA26518 14.917 14.192 12.624 90.00 90.00 90.00 Sym.group:    0
1.0
   14.917381     0.000000     0.000000
    0.000000    14.192005     0.000000
    0.000000     0.000000    12.624442
   W   B
  10   5
Direct
    0.497337     0.504142     0.456592 
    0.368005     0.485495     0.613820 
    0.573848     0.330662     0.490082 
    0.423054     0.650774     0.573011 
    0.548441     0.692079     0.451228 
    0.686166     0.454484     0.558998 
    0.584897     0.599354     0.614514 
    0.651895     0.442507     0.376039 
    0.534151     0.433356     0.652033 
    0.316798     0.561379     0.450191 
    0.450049     0.351146     0.414456 
    0.426338     0.636762     0.396969 
    0.641124     0.575261     0.453649 
    0.364738     0.418555     0.452760 
    0.433158     0.364042     0.545659 
EA27119 14.149 13.414 12.302 90.00 90.00 90.00 Sym.group:    0
1.0
   14.148850     0.000000     0.000000
    0.000000    13.413508     0.000000
    0.000000     0.000000    12.302163
   W   B
   9   1
Direct
    0.455039     0.676986     0.490709 
    0.391433     0.520407     0.620445 
    0.559938     0.572513     0.389935 
    0.360939     0.545685     0.425062 
    0.582088     0.366198     0.439258 
    0.405530     0.374411     0.515209 
    0.675301     0.498279     0.503840 
    0.562329     0.593500     0.617341 
    0.538727     0.404373     0.629625 
    0.468680     0.447649     0.368576 
EA27460 13.509 13.110 12.245 90.00 90.00 90.00 Sym.group:    0
1.0
   13.509093     0.000000     0.000000
    0.000000    13.110161     0.000000
    0.000000     0.000000    12.244813
   W   B
   9   1
Direct
    0.361475     0.619963     0.467652 
    0.409180     0.496471     0.641836 
    0.500873     0.563160     0.363133 
    0.346751     0.443171     0.454809 
    0.637924     0.413988     0.446291 
    0.488541     0.350447     0.565967 
    0.653071     0.591476     0.456286 
    0.514528     0.643516     0.576799 
    0.599289     0.474390     0.634969 
    0.488367     0.403418     0.392257 
EA27700 12.670 12.618 13.284 90.00 90.00 90.00 Sym.group:    0
1.0
   12.670035     0.000000     0.000000
    0.000000    12.617959     0.000000
    0.000000     0.000000    13.283667
   W   B
  10   1
Direct
    0.412709     0.406919     0.393611 
    0.461309     0.621308     0.392057 
    0.624471     0.472126     0.392283 
    0.411344     0.404585     0.608627 
    0.462143     0.623688     0.609393 
    0.627898     0.471930     0.608083 
    0.551917     0.330748     0.507892 
    0.327307     0.538958     0.509431 
    0.619799     0.630355     0.508268 
    0.499683     0.499488     0.261507 
    0.501420     0.499895     0.708847 
EA27956 12.470 12.480 12.256 90.00 90.00 90.00 Sym.group:    0
1.0
   12.470113     0.000000     0.000000
    0.000000    12.479604     0.000000
    0.000000     0.000000    12.255586
   W   B
   8   4
Direct
    0.634811     0.400193     0.586076 
    0.451710     0.334488     0.603354 
    0.325542     0.480599     0.629503 
    0.431045     0.635054     0.557950 
    0.618065     0.603420     0.577646 
    0.356987     0.466074     0.434724 
    0.514955     0.352858     0.407050 
    0.666452     0.481441     0.408521 
    0.560410     0.620710     0.414106 
    0.428044     0.611199     0.388698 
    0.501593     0.498086     0.650505 
    0.510386     0.515877     0.341867 
EA28280 13.454 12.942 14.034 90.00 90.00 90.00 Sym.group:    0
1.0
   13.453789     0.000000     0.000000
    0.000000    12.941567     0.000000
    0.000000     0.000000    14.033799
   W   B
  10   2
Direct
    0.392915     0.616425     0.617929 
    0.487713     0.638970     0.440246 
    0.681144     0.536107     0.464570 
    0.571609     0.512753     0.323878 
    0.572832     0.607526     0.592750 
    0.312836     0.595442     0.468409 
    0.633657     0.414883     0.581486 
    0.606181     0.352045     0.421395 
    0.466491     0.335090     0.524761 
    0.415074     0.449335     0.393168 
    0.377280     0.468201     0.548948 
    0.482268     0.473223     0.622462 
