EA30962 16.527 13.740 13.884 90.00 90.00 90.00 Sym.group:    0
1.0
   16.527162     0.000000     0.000000
    0.000000    13.740309     0.000000
    0.000000     0.000000    13.884260
   W   B
   6  21
Direct
    0.583824     0.490240     0.458438 
    0.510393     0.649510     0.502945 
    0.648860     0.605458     0.589696 
    0.524280     0.496683     0.653822 
    0.407482     0.479286     0.435509 
    0.362061     0.482478     0.606325 
    0.637344     0.642061     0.432024 
    0.708911     0.562300     0.452121 
    0.558335     0.611019     0.358111 
    0.507183     0.506091     0.326141 
    0.379779     0.630659     0.546887 
    0.455534     0.611316     0.354455 
    0.711643     0.460860     0.512521 
    0.541823     0.651635     0.659387 
    0.657864     0.357819     0.508360 
    0.645166     0.442728     0.605302 
    0.564660     0.368128     0.569472 
    0.441948     0.614820     0.643050 
    0.300122     0.375965     0.495621 
    0.380358     0.642352     0.425882 
    0.302800     0.585889     0.484534 
    0.266619     0.480214     0.479663 
    0.460678     0.378309     0.587550 
    0.383699     0.330750     0.526444 
    0.473919     0.327415     0.466347 
    0.575195     0.325400     0.450040 
    0.509519     0.390617     0.369357 
EA30947 15.235 15.183 13.882 90.00 90.00 90.00 Sym.group:    0
1.0
   15.234589     0.000000     0.000000
    0.000000    15.182706     0.000000
    0.000000     0.000000    13.882428
   W   B
   6  22
Direct
    0.507158     0.535680     0.512181 
    0.518796     0.431668     0.356533 
    0.633755     0.477223     0.636768 
    0.526759     0.360204     0.605336 
    0.330956     0.572505     0.464785 
    0.390166     0.578112     0.640686 
    0.706670     0.460969     0.499709 
    0.616664     0.628993     0.444249 
    0.671374     0.562174     0.510950 
    0.541309     0.581918     0.359981 
    0.649844     0.409044     0.411781 
    0.434801     0.558221     0.349541 
    0.627973     0.520961     0.401703 
    0.579029     0.335306     0.459386 
    0.472837     0.324192     0.457665 
    0.659932     0.369511     0.532472 
    0.503120     0.666458     0.604618 
    0.443622     0.652468     0.409067 
    0.540997     0.584897     0.671571 
    0.312183     0.429303     0.459784 
    0.318947     0.468521     0.571608 
    0.371903     0.469724     0.369813 
    0.494566     0.484248     0.686810 
    0.423150     0.672702     0.524457 
    0.388014     0.365402     0.404432 
    0.405559     0.433502     0.639973 
    0.530963     0.685294     0.484477 
    0.398954     0.380797     0.529667 
EA11865 16.333 14.603 13.974 90.00 90.00 90.00 Sym.group:    0
1.0
   16.332507     0.000000     0.000000
    0.000000    14.602758     0.000000
    0.000000     0.000000    13.974094
   W   B
   6  23
Direct
    0.646596     0.472952     0.604508 
    0.574998     0.374452     0.412101 
    0.507889     0.507050     0.503934 
    0.502672     0.682215     0.512566 
    0.413018     0.585739     0.387431 
    0.401480     0.446844     0.610044 
    0.456008     0.436413     0.354059 
    0.675759     0.355678     0.514018 
    0.622708     0.638646     0.438932 
    0.691510     0.450049     0.456962 
    0.541214     0.618628     0.371297 
    0.529537     0.510600     0.331155 
    0.633729     0.623170     0.555863 
    0.562024     0.598347     0.634022 
    0.483954     0.347398     0.536021 
    0.527737     0.392761     0.643713 
    0.519918     0.500681     0.678732 
    0.385468     0.607054     0.562777 
    0.459466     0.587982     0.640994 
    0.299702     0.404014     0.511223 
    0.589453     0.336383     0.567330 
    0.294093     0.510466     0.487886 
    0.371401     0.697974     0.486516 
    0.303651     0.620347     0.485210 
    0.374865     0.437714     0.431989 
    0.376635     0.335844     0.501236 
    0.443862     0.337051     0.413354 
    0.622468     0.524021     0.385908 
    0.688184     0.559526     0.480222 
EA30874 15.570 15.101 14.153 90.00 90.00 90.00 Sym.group:    0
1.0
   15.570086     0.000000     0.000000
    0.000000    15.100642     0.000000
    0.000000     0.000000    14.152897
   W   B
   6  24
Direct
    0.662417     0.473486     0.437421 
    0.337917     0.527985     0.564332 
    0.529575     0.516120     0.588383 
    0.474833     0.486349     0.426751 
    0.514250     0.674481     0.455230 
    0.486480     0.325707     0.545750 
    0.395657     0.354464     0.423343 
    0.417567     0.495612     0.688483 
    0.580618     0.504095     0.309158 
    0.375976     0.639110     0.457279 
    0.626039     0.358070     0.542193 
    0.411917     0.661575     0.564703 
    0.586998     0.342447     0.434650 
    0.484021     0.401996     0.680772 
    0.514574     0.594180     0.317047 
    0.329434     0.446423     0.431349 
    0.671641     0.553635     0.566412 
    0.351462     0.385855     0.525376 
    0.649468     0.615854     0.473385 
    0.580896     0.383748     0.644234 
    0.418864     0.613089     0.353555 
    0.571358     0.401572     0.337577 
    0.426732     0.598810     0.659995 
    0.490416     0.337272     0.386142 
    0.509065     0.664539     0.612661 
    0.661130     0.450846     0.593893 
    0.339027     0.548929     0.403744 
    0.611383     0.593837     0.366727 
    0.385822     0.404205     0.634019 
    0.604463     0.645711     0.575435 
EA30806 14.830 14.798 14.350 90.00 90.00 90.00 Sym.group:    0
1.0
   14.829528     0.000000     0.000000
    0.000000    14.797783     0.000000
    0.000000     0.000000    14.349851
   W   B
   6  25
Direct
    0.514559     0.548046     0.489099 
    0.324036     0.456672     0.504968 
    0.689839     0.528981     0.499505 
    0.509994     0.456639     0.328352 
    0.495144     0.542949     0.672210 
    0.525031     0.384048     0.530660 
    0.402996     0.646187     0.457397 
    0.479578     0.324472     0.396321 
    0.528044     0.674923     0.593798 
    0.630318     0.543309     0.356512 
    0.373677     0.451805     0.650787 
    0.664592     0.405825     0.590427 
    0.323314     0.578950     0.412666 
    0.669710     0.378079     0.480413 
    0.318791     0.606846     0.523284 
    0.539140     0.609641     0.334693 
    0.467888     0.393600     0.674748 
    0.618517     0.608307     0.614900 
    0.385844     0.385439     0.381934 
    0.616545     0.670071     0.518079 
    0.393512     0.326238     0.481929 
    0.430467     0.592693     0.355970 
    0.576044     0.413490     0.675330 
    0.350870     0.555371     0.618907 
    0.651432     0.436567     0.382848 
    0.421033     0.647632     0.574801 
    0.588353     0.343918     0.395311 
    0.362951     0.490640     0.356872 
    0.637742     0.502107     0.644423 
    0.389264     0.353600     0.593006 
    0.620773     0.642952     0.409848 
EA14959 15.596 15.424 14.212 90.00 90.00 90.00 Sym.group:    0
1.0
   15.595652     0.000000     0.000000
    0.000000    15.424043     0.000000
    0.000000     0.000000    14.211991
   W   B
   7  21
Direct
    0.631174     0.396120     0.501668 
    0.362538     0.512156     0.587297 
    0.507746     0.530332     0.498410 
    0.599079     0.609692     0.359407 
    0.443294     0.365274     0.510462 
    0.385854     0.565331     0.379839 
    0.590568     0.624681     0.628082 
    0.490435     0.686529     0.535941 
    0.585508     0.684973     0.486135 
    0.489769     0.533920     0.668754 
    0.557923     0.279898     0.553995 
    0.606648     0.472350     0.372206 
    0.511214     0.513684     0.321142 
    0.679983     0.522722     0.438037 
    0.551263     0.359144     0.626517 
    0.665644     0.617371     0.498246 
    0.665838     0.522393     0.565505 
    0.583704     0.473337     0.629266 
    0.554609     0.286680     0.443433 
    0.473519     0.430689     0.644775 
    0.347761     0.432271     0.403402 
    0.279845     0.499031     0.460249 
    0.308265     0.401930     0.506436 
    0.297598     0.600596     0.490407 
    0.447717     0.435803     0.368435 
    0.391359     0.642641     0.517146 
    0.450103     0.623201     0.619925 
    0.541040     0.377250     0.384882 
EA20035 16.098 15.085 14.148 90.00 90.00 90.00 Sym.group:    0
1.0
   16.098219     0.000000     0.000000
    0.000000    15.085444     0.000000
    0.000000     0.000000    14.148221
   W   B
   7  22
Direct
    0.638503     0.409981     0.536353 
    0.577627     0.565435     0.521804 
    0.561907     0.470011     0.349869 
    0.372762     0.641379     0.429360 
    0.421535     0.493677     0.626324 
    0.422335     0.475508     0.447978 
    0.285017     0.428715     0.565705 
    0.543997     0.554919     0.683039 
    0.637844     0.508653     0.662585 
    0.512306     0.675566     0.426656 
    0.689416     0.450796     0.396009 
    0.634945     0.357287     0.393302 
    0.580692     0.616689     0.366417 
    0.709413     0.534445     0.592321 
    0.664664     0.558891     0.382576 
    0.715832     0.528958     0.481237 
    0.477447     0.590930     0.355158 
    0.472777     0.688244     0.532766 
    0.318873     0.564870     0.543716 
    0.450749     0.309826     0.472391 
    0.287013     0.528320     0.434879 
    0.354274     0.342263     0.452822 
    0.293625     0.421731     0.415840 
    0.551097     0.445529     0.650756 
    0.502563     0.377133     0.563621 
    0.544731     0.335446     0.440549 
    0.398811     0.358337     0.562397 
    0.392135     0.636706     0.579636 
    0.487106     0.629754     0.633933 
EA30875 15.479 14.653 13.770 90.00 90.00 90.00 Sym.group:    0
1.0
   15.479340     0.000000     0.000000
    0.000000    14.653409     0.000000
    0.000000     0.000000    13.769576
   W   B
   7  23
Direct
    0.666488     0.549900     0.446780 
    0.333392     0.461283     0.550465 
    0.528659     0.486447     0.589901 
    0.473672     0.508747     0.417277 
    0.520467     0.305795     0.474292 
    0.462336     0.678256     0.527203 
    0.641451     0.333507     0.579974 
    0.384319     0.636051     0.396302 
    0.405004     0.509963     0.681627 
    0.593396     0.483688     0.326852 
    0.376285     0.343705     0.458595 
    0.607266     0.661138     0.536155 
    0.407563     0.332060     0.573658 
    0.576286     0.669316     0.420765 
    0.463521     0.608418     0.672174 
    0.538273     0.386776     0.340753 
    0.325629     0.537509     0.407370 
    0.682998     0.477434     0.586882 
    0.337170     0.607913     0.501101 
    0.714820     0.418429     0.491019 
    0.558756     0.636472     0.640704 
    0.434785     0.367822     0.360065 
    0.571351     0.592117     0.332645 
    0.419243     0.402921     0.665556 
    0.481566     0.658096     0.365569 
    0.506265     0.337228     0.627941 
    0.649675     0.579325     0.605528 
    0.345247     0.431419     0.389940 
    0.625385     0.400872     0.417923 
    0.368734     0.597390     0.614982 
EA30810 14.827 14.356 14.338 90.00 90.00 90.00 Sym.group:    0
1.0
   14.826816     0.000000     0.000000
    0.000000    14.355561     0.000000
    0.000000     0.000000    14.337895
   W   B
   7  24
Direct
    0.474027     0.507532     0.526718 
    0.339443     0.580466     0.450494 
    0.659966     0.420857     0.544123 
    0.485673     0.382124     0.352273 
    0.519715     0.619304     0.648212 
    0.413391     0.371103     0.611393 
    0.588143     0.624791     0.387840 
    0.379796     0.346462     0.458344 
    0.625361     0.655149     0.540657 
    0.631229     0.392976     0.392197 
    0.367667     0.608195     0.608082 
    0.560551     0.384714     0.656618 
    0.441250     0.615528     0.338032 
    0.550680     0.312002     0.570473 
    0.452903     0.683538     0.427448 
    0.599508     0.481551     0.325160 
    0.399111     0.518826     0.676942 
    0.658424     0.566462     0.608788 
    0.347269     0.434578     0.390170 
    0.683831     0.567612     0.495077 
    0.316089     0.431989     0.502722 
    0.504933     0.528508     0.297754 
    0.497043     0.471280     0.699720 
    0.421208     0.680154     0.539723 
    0.580014     0.319327     0.457897 
    0.529090     0.699303     0.511454 
    0.473475     0.295839     0.486378 
    0.396402     0.509453     0.322430 
    0.605951     0.490160     0.672638 
    0.322210     0.501935     0.592216 
    0.675645     0.498282     0.408026 
EA23634 15.208 15.350 14.834 90.00 90.00 90.00 Sym.group:    0
1.0
   15.208291     0.000000     0.000000
    0.000000    15.349957     0.000000
    0.000000     0.000000    14.833979
   W   B
   7  25
Direct
    0.417874     0.606571     0.483026 
    0.366808     0.438230     0.478540 
    0.520603     0.488282     0.344175 
    0.565176     0.496171     0.509510 
    0.543425     0.344172     0.560395 
    0.430871     0.468226     0.636612 
    0.662568     0.588971     0.614118 
    0.423301     0.372865     0.362091 
    0.280084     0.550553     0.501328 
    0.495988     0.634197     0.356911 
    0.406154     0.575381     0.333698 
    0.283034     0.478238     0.595299 
    0.533232     0.648319     0.567841 
    0.431998     0.616655     0.632003 
    0.596505     0.606068     0.396044 
    0.313820     0.542863     0.392328 
    0.376519     0.468119     0.331452 
    0.534968     0.686418     0.448518 
    0.334025     0.575244     0.600575 
    0.399384     0.327903     0.576845 
    0.435547     0.313077     0.464856 
    0.311951     0.378819     0.610986 
    0.521163     0.349835     0.407731 
    0.622924     0.385064     0.416396 
    0.695891     0.462488     0.427825 
    0.681657     0.390590     0.514913 
    0.665769     0.435785     0.618121 
    0.578425     0.473807     0.672232 
    0.722548     0.490388     0.533481 
    0.689216     0.571233     0.456803 
    0.629139     0.661634     0.494115 
    0.529432     0.573831     0.661232 
EA30924 15.471 14.500 13.877 90.00 90.00 90.00 Sym.group:    0
1.0
   15.471342     0.000000     0.000000
    0.000000    14.500087     0.000000
    0.000000     0.000000    13.876908
   W   B
   8  21
Direct
    0.449472     0.501228     0.484504 
    0.350402     0.365232     0.548318 
    0.413975     0.623321     0.635607 
    0.541142     0.661090     0.514368 
    0.523629     0.333448     0.507563 
    0.555723     0.495453     0.639183 
    0.628296     0.484768     0.453652 
    0.684963     0.375128     0.580462 
    0.399118     0.681692     0.494610 
    0.327494     0.596420     0.501261 
    0.292153     0.491505     0.475513 
    0.416941     0.349436     0.411059 
    0.333741     0.418623     0.398925 
    0.417428     0.443071     0.328245 
    0.546997     0.592392     0.361770 
    0.450640     0.550777     0.316820 
    0.527807     0.470983     0.330976 
    0.433118     0.632470     0.394043 
    0.324467     0.509460     0.589329 
    0.640775     0.629827     0.400589 
    0.585917     0.376228     0.355454 
    0.651942     0.333852     0.434761 
    0.680103     0.619222     0.508579 
    0.570056     0.344452     0.656256 
    0.409583     0.465980     0.648148 
    0.695017     0.523973     0.588466 
    0.465121     0.363648     0.648910 
    0.544158     0.646733     0.671824 
    0.639822     0.619591     0.620803 
EA20666 16.356 14.935 14.076 90.00 90.00 90.00 Sym.group:    0
1.0
   16.355712     0.000000     0.000000
    0.000000    14.935196     0.000000
    0.000000     0.000000    14.075824
   W   B
   8  22
Direct
    0.551419     0.527820     0.523205 
    0.435565     0.648335     0.451425 
    0.617835     0.508699     0.348366 
    0.648330     0.391770     0.477715 
    0.524399     0.342010     0.581289 
    0.404347     0.458521     0.471051 
    0.398276     0.570785     0.612945 
    0.258222     0.527320     0.543942 
    0.694309     0.536251     0.474907 
    0.645871     0.628675     0.444257 
    0.566461     0.685931     0.493133 
    0.504140     0.670652     0.586336 
    0.553623     0.611021     0.662533 
    0.623175     0.426616     0.634019 
    0.619576     0.534642     0.671935 
    0.685372     0.498159     0.583675 
    0.559192     0.638462     0.384976 
    0.492021     0.565910     0.335246 
    0.569220     0.374346     0.346949 
    0.439445     0.311624     0.470624 
    0.529912     0.468718     0.672385 
    0.435080     0.430933     0.645222 
    0.465425     0.355387     0.369462 
    0.315951     0.566952     0.413241 
    0.311710     0.642369     0.507370 
    0.489656     0.453448     0.326087 
    0.390798     0.344386     0.576678 
    0.334585     0.430019     0.611127 
    0.393699     0.546621     0.343972 
    0.542386     0.303622     0.435929 
EA30812 14.335 14.593 14.294 90.00 90.00 90.00 Sym.group:    0
1.0
   14.334844     0.000000     0.000000
    0.000000    14.593172     0.000000
    0.000000     0.000000    14.293964
   W   B
   8  23
Direct
    0.498598     0.458724     0.491502 
    0.312943     0.500025     0.501050 
    0.686473     0.508578     0.503691 
    0.506861     0.512512     0.311929 
    0.496833     0.507601     0.684226 
    0.498202     0.632694     0.488808 
    0.571505     0.666977     0.312402 
    0.500427     0.295810     0.514495 
    0.428547     0.646086     0.348824 
    0.555510     0.366426     0.644907 
    0.625150     0.450339     0.381020 
    0.356815     0.561057     0.637713 
    0.642237     0.644187     0.554565 
    0.361278     0.357083     0.448208 
    0.652838     0.647610     0.440087 
    0.360121     0.360812     0.561531 
    0.559214     0.354999     0.367355 
    0.439187     0.642446     0.637169 
    0.634628     0.452708     0.639709 
    0.362351     0.553718     0.364526 
    0.642508     0.364459     0.564679 
    0.346737     0.639472     0.438792 
    0.446847     0.353353     0.366730 
    0.552624     0.644180     0.638796 
    0.362553     0.449041     0.638081 
    0.657543     0.560205     0.361299 
    0.442291     0.362634     0.645718 
    0.371262     0.440920     0.368378 
    0.636154     0.565557     0.639029 
    0.353589     0.640459     0.552755 
    0.638170     0.359329     0.452031 
EA19218 16.098 14.617 14.953 90.00 90.00 90.00 Sym.group:    0
1.0
   16.097989     0.000000     0.000000
    0.000000    14.616656     0.000000
    0.000000     0.000000    14.952629
   W   B
   8  24
Direct
    0.565607     0.589580     0.390009 
    0.610905     0.505754     0.538200 
    0.573528     0.359916     0.441013 
    0.574863     0.698952     0.537828 
    0.474886     0.500642     0.677147 
    0.492172     0.344756     0.601944 
    0.349499     0.573156     0.592314 
    0.438067     0.482847     0.483749 
    0.426469     0.608632     0.376583 
    0.644453     0.466107     0.358913 
    0.550152     0.448439     0.318450 
    0.700132     0.371254     0.522256 
    0.674198     0.636567     0.470628 
    0.711602     0.435724     0.440920 
    0.461468     0.508126     0.335225 
    0.462907     0.396132     0.362733 
    0.699133     0.546785     0.415044 
    0.476289     0.687659     0.444062 
    0.625341     0.343431     0.584462 
    0.369238     0.420102     0.626561 
    0.567137     0.610700     0.653176 
    0.609933     0.518737     0.688640 
    0.591870     0.411825     0.673897 
    0.290983     0.476829     0.435161 
    0.369754     0.343719     0.538610 
    0.337290     0.378208     0.438213 
    0.305360     0.435570     0.539326 
    0.437669     0.328099     0.453181 
    0.328530     0.574459     0.413810 
    0.432988     0.701906     0.547278 
    0.377327     0.650854     0.469479 
    0.470251     0.644534     0.631190 
EA30684 15.455 15.019 14.640 90.00 90.00 90.00 Sym.group:    0
1.0
   15.454870     0.000000     0.000000
    0.000000    15.018542     0.000000
    0.000000     0.000000    14.639778
   W   B
   8  25
Direct
    0.510932     0.546094     0.336381 
    0.294979     0.450456     0.505000 
    0.449929     0.527373     0.505260 
    0.438078     0.350064     0.562913 
    0.460383     0.391411     0.296318 
    0.601654     0.443245     0.489264 
    0.506807     0.690924     0.455367 
    0.567050     0.537055     0.658938 
    0.315804     0.568871     0.420982 
    0.296077     0.595759     0.529567 
    0.324757     0.541019     0.620928 
    0.345397     0.431083     0.637440 
    0.367957     0.478781     0.366974 
    0.538850     0.391978     0.665813 
    0.569041     0.334818     0.379099 
    0.598946     0.425608     0.327734 
    0.382480     0.375025     0.420003 
    0.580289     0.324207     0.588428 
    0.469047     0.309793     0.415811 
    0.449478     0.455857     0.670005 
    0.555299     0.296374     0.485620 
    0.401503     0.623214     0.376839 
    0.362162     0.662967     0.472295 
    0.616512     0.630526     0.380379 
    0.687773     0.567560     0.449999 
    0.648886     0.519173     0.361144 
    0.697278     0.490126     0.603908 
    0.641460     0.407586     0.636337 
    0.588110     0.663846     0.576147 
    0.486999     0.648170     0.602340 
    0.671167     0.583827     0.561037 
    0.428285     0.570553     0.658424 
    0.646633     0.666651     0.483303 
EA29527 15.792 15.370 14.135 90.00 90.00 90.00 Sym.group:    0
1.0
   15.791886     0.000000     0.000000
    0.000000    15.369774     0.000000
    0.000000     0.000000    14.134782
   W   B
   9  21
Direct
    0.466528     0.379624     0.575172 
    0.593876     0.304465     0.448757 
    0.467593     0.425941     0.391764 
    0.461394     0.559743     0.512230 
    0.280413     0.532655     0.517128 
    0.611444     0.474023     0.521501 
    0.574750     0.563743     0.357629 
    0.693210     0.620970     0.452806 
    0.479166     0.503406     0.691476 
    0.370898     0.334068     0.462010 
    0.461589     0.286322     0.444601 
    0.586907     0.412955     0.667528 
    0.698299     0.386329     0.409082 
    0.603086     0.336301     0.588810 
    0.318531     0.396568     0.542417 
    0.324691     0.424722     0.428549 
    0.606375     0.424092     0.362593 
    0.472923     0.665098     0.389409 
    0.353506     0.467835     0.625027 
    0.353575     0.522837     0.391861 
    0.351021     0.646615     0.542406 
    0.363284     0.576508     0.628839 
    0.434484     0.574232     0.345199 
    0.590816     0.660549     0.546257 
    0.700126     0.490527     0.390833 
    0.664710     0.593808     0.597216 
    0.621867     0.516455     0.674692 
    0.566475     0.688883     0.437263 
    0.368134     0.634497     0.425286 
    0.560327     0.596229     0.631660 
EA30813 15.942 15.821 14.089 90.00 90.00 90.00 Sym.group:    0
1.0
   15.942448     0.000000     0.000000
    0.000000    15.821497     0.000000
    0.000000     0.000000    14.089068
   W   B
   9  22
Direct
    0.538140     0.642384     0.425793 
    0.617337     0.552547     0.585665 
    0.654634     0.423433     0.431744 
    0.614357     0.376171     0.598290 
    0.492757     0.464587     0.504666 
    0.474416     0.292918     0.520521 
    0.396415     0.518077     0.650053 
    0.351351     0.486759     0.388764 
    0.488115     0.665610     0.603467 
    0.405006     0.619160     0.374855 
    0.654542     0.561593     0.401164 
    0.567478     0.513610     0.359579 
    0.718592     0.455900     0.562006 
    0.612067     0.689688     0.546863 
    0.722995     0.536471     0.484361 
    0.470314     0.544636     0.341902 
    0.675882     0.639014     0.477294 
    0.485655     0.439338     0.338831 
    0.533036     0.348696     0.394662 
    0.599541     0.299861     0.470085 
    0.385394     0.378517     0.593089 
    0.326717     0.612736     0.448689 
    0.324439     0.447984     0.538311 
    0.430737     0.361297     0.389842 
    0.303352     0.546815     0.531745 
    0.477427     0.377060     0.646874 
    0.529878     0.465769     0.673283 
    0.357943     0.630618     0.568697 
    0.361290     0.366869     0.476334 
    0.412595     0.674457     0.476274 
    0.517602     0.567428     0.696299 
EA19869 15.795 15.475 14.514 90.00 90.00 90.00 Sym.group:    0
1.0
   15.794574     0.000000     0.000000
    0.000000    15.475339     0.000000
    0.000000     0.000000    14.513934
   W   B
   9  23
Direct
    0.675172     0.516154     0.406181 
    0.554143     0.475517     0.507971 
    0.534802     0.621597     0.600923 
    0.564872     0.317231     0.563430 
    0.421210     0.421599     0.379979 
    0.403136     0.565330     0.506002 
    0.510771     0.561543     0.334987 
    0.411095     0.394962     0.569836 
    0.541311     0.426866     0.689737 
    0.687652     0.392004     0.505385 
    0.632537     0.370378     0.415309 
    0.657475     0.410638     0.615785 
    0.670102     0.584700     0.554468 
    0.639935     0.518926     0.642442 
    0.709227     0.486765     0.553647 
    0.530116     0.669013     0.439003 
    0.631659     0.645441     0.475968 
    0.616337     0.638853     0.366472 
    0.451626     0.287479     0.459785 
    0.532846     0.336853     0.409317 
    0.301969     0.393764     0.462727 
    0.354066     0.306040     0.449008 
    0.292628     0.475987     0.537509 
    0.380806     0.609985     0.657153 
    0.307103     0.495494     0.419642 
    0.371663     0.561738     0.355955 
    0.564628     0.429608     0.347767 
    0.427482     0.656013     0.393454 
    0.402112     0.692660     0.597008 
    0.445715     0.707922     0.499880 
    0.335182     0.512714     0.633296 
    0.440616     0.516228     0.649976 
EA20518 16.930 15.842 14.371 90.00 90.00 90.00 Sym.group:    0
1.0
   16.930138     0.000000     0.000000
    0.000000    15.842011     0.000000
    0.000000     0.000000    14.371292
   W   B
   9  24
Direct
    0.381320     0.363045     0.472570 
    0.358917     0.465199     0.629775 
    0.411527     0.586570     0.386308 
    0.496740     0.482543     0.513731 
    0.378461     0.614802     0.560588 
    0.490813     0.576248     0.671427 
    0.601472     0.338969     0.457843 
    0.633246     0.609704     0.458913 
    0.623283     0.459858     0.352161 
    0.496780     0.384136     0.370596 
    0.488018     0.286811     0.419071 
    0.546506     0.573739     0.357323 
    0.453049     0.694314     0.475226 
    0.522510     0.666662     0.399402 
    0.295838     0.557238     0.454995 
    0.285171     0.452566     0.501353 
    0.269547     0.539540     0.564255 
    0.325894     0.471430     0.395949 
    0.551140     0.709769     0.500015 
    0.483607     0.692455     0.587966 
    0.575333     0.467685     0.656171 
    0.443135     0.365007     0.605741 
    0.482746     0.438346     0.673646 
    0.492482     0.307478     0.531886 
    0.499683     0.486301     0.323385 
    0.696113     0.514196     0.539926 
    0.637170     0.426767     0.573836 
    0.552509     0.371907     0.599882 
    0.615132     0.555133     0.598081 
    0.719776     0.514340     0.428679 
    0.576091     0.655350     0.594176 
    0.700259     0.422415     0.479159 
    0.415727     0.449477     0.365964 
EA30650 16.680 15.136 15.082 90.00 90.00 90.00 Sym.group:    0
1.0
   16.680201     0.000000     0.000000
    0.000000    15.136156     0.000000
    0.000000     0.000000    15.081708
   W   B
   9  25
Direct
    0.683079     0.490910     0.607834 
    0.488456     0.630830     0.422282 
    0.593467     0.481778     0.470969 
    0.491760     0.346121     0.435682 
    0.364734     0.540740     0.350813 
    0.544485     0.380360     0.607016 
    0.432007     0.491582     0.506152 
    0.528510     0.588508     0.605530 
    0.309234     0.440627     0.588936 
    0.571345     0.705788     0.525768 
    0.667868     0.354943     0.577151 
    0.578335     0.551894     0.337777 
    0.650090     0.595199     0.396568 
    0.715563     0.579858     0.476588 
    0.636550     0.629566     0.514342 
    0.707210     0.387131     0.483414 
    0.615328     0.328384     0.486156 
    0.738168     0.481521     0.459556 
    0.447791     0.430470     0.311938 
    0.484341     0.536371     0.299896 
    0.541881     0.445238     0.337690 
    0.373428     0.396428     0.373902 
    0.358273     0.625244     0.465664 
    0.405116     0.662437     0.557746 
    0.483992     0.720124     0.554173 
    0.416796     0.407339     0.658983 
    0.292572     0.542924     0.482415 
    0.302492     0.442252     0.439920 
    0.357809     0.355257     0.479304 
    0.416884     0.341831     0.568304 
    0.332714     0.585949     0.578157 
    0.485306     0.482151     0.694890 
    0.399858     0.527903     0.650345 
    0.584560     0.492340     0.694139 
EA30814 16.270 15.173 14.850 90.00 90.00 90.00 Sym.group:    0
1.0
   16.270138     0.000000     0.000000
    0.000000    15.173120     0.000000
    0.000000     0.000000    14.849845
   W   B
  10  21
Direct
    0.491680     0.546509     0.493196 
    0.463313     0.377777     0.505572 
    0.523188     0.708036     0.490098 
    0.375946     0.518544     0.376413 
    0.607293     0.473274     0.595416 
    0.381031     0.529977     0.627213 
    0.599757     0.447070     0.392144 
    0.680948     0.639392     0.526879 
    0.616067     0.621502     0.380000 
    0.702882     0.388112     0.494612 
    0.306726     0.486278     0.505537 
    0.732459     0.514174     0.547605 
    0.473147     0.639850     0.361749 
    0.521321     0.361325     0.639877 
    0.470746     0.647805     0.620394 
    0.507469     0.339411     0.369888 
    0.396341     0.663790     0.548684 
    0.576426     0.313400     0.449917 
    0.506676     0.541356     0.324877 
    0.488170     0.455502     0.683072 
    0.709336     0.525806     0.437160 
    0.339677     0.401917     0.569236 
    0.475942     0.434120     0.323834 
    0.510115     0.560323     0.669381 
    0.585588     0.327531     0.560910 
    0.398258     0.659790     0.435237 
    0.335933     0.590172     0.497855 
    0.401894     0.372314     0.370091 
    0.572792     0.630515     0.608520 
    0.414266     0.388627     0.644943 
    0.334614     0.395801     0.449692 
EA13745 14.847 15.601 14.810 90.00 90.00 90.00 Sym.group:    0
1.0
   14.846943     0.000000     0.000000
    0.000000    15.601292     0.000000
    0.000000     0.000000    14.809789
   W   B
  10  22
Direct
    0.456813     0.508361     0.480426 
    0.457890     0.658457     0.430110 
    0.506163     0.580596     0.667203 
    0.285424     0.490313     0.545915 
    0.385457     0.449537     0.678596 
    0.577923     0.361845     0.415688 
    0.614423     0.496958     0.563307 
    0.619060     0.597515     0.381400 
    0.427858     0.407407     0.335963 
    0.429992     0.291583     0.449911 
    0.317387     0.586355     0.426707 
    0.337776     0.623865     0.525413 
    0.332813     0.391362     0.452098 
    0.533535     0.443753     0.684343 
    0.476052     0.353891     0.628436 
    0.316851     0.482297     0.394556 
    0.422487     0.664692     0.583750 
    0.363740     0.579494     0.628561 
    0.382919     0.554998     0.342063 
    0.375740     0.377375     0.559328 
    0.491150     0.554471     0.323119 
    0.707550     0.415555     0.466962 
    0.548731     0.309760     0.549001 
    0.720164     0.524123     0.455787 
    0.567014     0.472652     0.323734 
    0.684824     0.613531     0.508082 
    0.654384     0.353817     0.541299 
    0.592151     0.368425     0.633387 
    0.669737     0.465482     0.373185 
    0.524974     0.694565     0.569515 
    0.600772     0.687999     0.487151 
    0.618250     0.638962     0.595002 
EA30686 16.735 14.419 14.088 90.00 90.00 90.00 Sym.group:    0
1.0
   16.735403     0.000000     0.000000
    0.000000    14.418961     0.000000
    0.000000     0.000000    14.087642
   W   B
  10  23
Direct
    0.580631     0.497907     0.507562 
    0.488898     0.486306     0.330369 
    0.606348     0.606038     0.358813 
    0.413559     0.495723     0.508485 
    0.501346     0.641602     0.596463 
    0.333019     0.436457     0.372713 
    0.503773     0.330337     0.539315 
    0.665480     0.336721     0.451085 
    0.391682     0.681875     0.479921 
    0.636707     0.680702     0.518058 
    0.633700     0.366523     0.587227 
    0.698030     0.556074     0.583798 
    0.449664     0.351652     0.388593 
    0.549927     0.359554     0.385743 
    0.613605     0.441260     0.346116 
    0.709836     0.569930     0.466842 
    0.711126     0.453929     0.528040 
    0.693946     0.476619     0.402842 
    0.303726     0.575141     0.429303 
    0.388223     0.578281     0.361274 
    0.305029     0.388358     0.525332 
    0.267488     0.490323     0.499427 
    0.455470     0.416048     0.653826 
    0.372879     0.611260     0.620860 
    0.437487     0.533433     0.671079 
    0.544106     0.522800     0.677966 
    0.381813     0.356734     0.592252 
    0.560723     0.409285     0.651458 
    0.621334     0.594050     0.646579 
    0.298457     0.590154     0.548664 
    0.382689     0.332134     0.472991 
    0.477016     0.636493     0.354424 
    0.522287     0.696297     0.442582 
EA19113 16.134 15.373 15.092 90.00 90.00 90.00 Sym.group:    0
1.0
   16.133804     0.000000     0.000000
    0.000000    15.372939     0.000000
    0.000000     0.000000    15.092317
   W   B
  10  24
Direct
    0.524267     0.527172     0.508395 
    0.566530     0.403724     0.629449 
    0.425954     0.333150     0.382659 
    0.658934     0.635457     0.572028 
    0.647785     0.443131     0.395992 
    0.386053     0.511780     0.381226 
    0.403458     0.421120     0.536205 
    0.399078     0.607629     0.575394 
    0.477966     0.648952     0.381679 
    0.473779     0.520306     0.702397 
    0.561244     0.328402     0.410701 
    0.680136     0.501109     0.614234 
    0.599994     0.578116     0.363772 
    0.529759     0.505682     0.332377 
    0.717062     0.519386     0.512522 
    0.614887     0.352886     0.499093 
    0.676029     0.582442     0.438680 
    0.598984     0.546209     0.662961 
    0.456557     0.434217     0.294308 
    0.544434     0.390995     0.323156 
    0.599149     0.655976     0.444616 
    0.681111     0.419692     0.539246 
    0.510678     0.318355     0.515238 
    0.424037     0.719565     0.485840 
    0.279627     0.467890     0.471785 
    0.534340     0.630105     0.627434 
    0.297748     0.510259     0.573430 
    0.351926     0.655488     0.442352 
    0.355317     0.485424     0.662754 
    0.314282     0.383262     0.422832 
    0.520524     0.684469     0.521990 
    0.429470     0.390058     0.681652 
    0.295892     0.573362     0.481687 
    0.463008     0.314232     0.611914 
EA30632 16.982 15.013 14.303 90.00 90.00 90.00 Sym.group:    0
1.0
   16.982278     0.000000     0.000000
    0.000000    15.012675     0.000000
    0.000000     0.000000    14.302557
   W   B
  10  25
Direct
    0.278909     0.514046     0.519081 
    0.413500     0.546565     0.503871 
    0.470993     0.404980     0.631089 
    0.469718     0.380913     0.424813 
    0.679515     0.378229     0.518086 
    0.690721     0.472521     0.365851 
    0.566857     0.511542     0.478431 
    0.667303     0.629065     0.419703 
    0.455004     0.531015     0.326016 
    0.552021     0.562991     0.651663 
    0.353973     0.443636     0.378695 
    0.340390     0.390912     0.591038 
    0.577871     0.293179     0.480587 
    0.603856     0.364466     0.395940 
    0.400392     0.316479     0.541358 
    0.493716     0.285897     0.542481 
    0.347177     0.481836     0.652864 
    0.576691     0.322820     0.594283 
    0.340718     0.381102     0.473610 
    0.671534     0.494069     0.607905 
    0.426800     0.540824     0.676909 
    0.601032     0.423018     0.637337 
    0.675676     0.599809     0.573726 
    0.722042     0.520332     0.506494 
    0.376651     0.640970     0.369017 
    0.588340     0.550270     0.315473 
    0.604532     0.669454     0.554238 
    0.551258     0.689111     0.461322 
    0.565593     0.440451     0.321899 
    0.540145     0.633388     0.366032 
    0.502267     0.669181     0.558981 
    0.300300     0.633626     0.434625 
    0.324558     0.546768     0.366619 
    0.340280     0.593666     0.630573 
    0.429671     0.642866     0.629385 
