EA5    16.436 16.400 13.154 90.00 90.00 90.00 Sym.group:    0
1.0
   16.436298     0.000000     0.000000
    0.000000    16.399602     0.000000
    0.000000     0.000000    13.154020
   W   B
  10  25
Direct
    0.480413     0.604648     0.407602 
    0.416884     0.431374     0.420618 
    0.607710     0.458975     0.429440 
    0.589937     0.558102     0.596549 
    0.498246     0.411994     0.598688 
    0.400830     0.553855     0.575037 
    0.663988     0.693565     0.526220 
    0.257286     0.551846     0.542892 
    0.563529     0.274200     0.542642 
    0.544899     0.750890     0.473803 
    0.660263     0.344217     0.477068 
    0.285304     0.433225     0.475947 
    0.511403     0.490005     0.314203 
    0.383312     0.541928     0.337086 
    0.521401     0.387837     0.338645 
    0.588968     0.566017     0.333413 
    0.643005     0.450708     0.655336 
    0.381635     0.402046     0.661335 
    0.492230     0.616236     0.674328 
    0.488371     0.522286     0.696614 
    0.338382     0.350783     0.531799 
    0.710967     0.430808     0.533005 
    0.453226     0.685381     0.577900 
    0.489494     0.312921     0.415673 
    0.337369     0.611219     0.411690 
    0.666323     0.585081     0.424132 
    0.295805     0.427720     0.606249 
    0.657138     0.361972     0.607182 
    0.557000     0.690681     0.620416 
    0.592140     0.324337     0.391715 
    0.300860     0.506603     0.394691 
    0.606260     0.663177     0.380305 
    0.375394     0.677222     0.496150 
    0.425654     0.299225     0.518233 
    0.714373     0.528914     0.513396 
EA468  15.397 15.562 15.218 90.00 90.00 90.00 Sym.group:    0
1.0
   15.396507     0.000000     0.000000
    0.000000    15.561936     0.000000
    0.000000     0.000000    15.218370
   W   B
   9  24
Direct
    0.564330     0.447336     0.360857 
    0.581665     0.640821     0.517463 
    0.581095     0.409737     0.608638 
    0.398292     0.409089     0.395646 
    0.410298     0.640011     0.478317 
    0.416466     0.455002     0.640825 
    0.669970     0.542758     0.640400 
    0.652479     0.345327     0.457242 
    0.652828     0.601529     0.372778 
    0.376459     0.606170     0.622780 
    0.365444     0.352863     0.543196 
    0.357648     0.547770     0.359183 
    0.403031     0.501611     0.505086 
    0.608140     0.498371     0.493677 
    0.538289     0.514959     0.692430 
    0.515674     0.326390     0.415495 
    0.521756     0.657108     0.387087 
    0.456630     0.583609     0.688104 
    0.437220     0.302144     0.484901 
    0.434763     0.616240     0.338300 
    0.306545     0.520894     0.450193 
    0.314566     0.547568     0.557805 
    0.310584     0.442573     0.527497 
    0.699125     0.477323     0.421613 
    0.707622     0.560485     0.502607 
    0.707737     0.449749     0.535258 
    0.459458     0.329363     0.593158 
    0.444700     0.509572     0.306215 
    0.468152     0.662807     0.608486 
    0.541418     0.294783     0.523413 
    0.533736     0.578774     0.304914 
    0.558294     0.622156     0.663575 
    0.505588     0.505111     0.502863 
EA910  14.268 14.268 14.268 90.00 90.00 90.00 Sym.group:    0
1.0
   14.267608     0.000000     0.000000
    0.000000    14.267608     0.000000
    0.000000     0.000000    14.267608
   W   B
  10  21
Direct
    0.480896     0.530096     0.480855 
    0.504122     0.493963     0.302374 
    0.484945     0.489314     0.694859 
    0.348675     0.374033     0.494391 
    0.636671     0.629564     0.506359 
    0.345649     0.643669     0.511520 
    0.670561     0.350451     0.470650 
    0.267979     0.524367     0.421956 
    0.718115     0.477337     0.572053 
    0.445781     0.326315     0.627436 
    0.544261     0.635073     0.361055 
    0.439143     0.630041     0.643180 
    0.562092     0.371276     0.371286 
    0.354238     0.556870     0.642177 
    0.647008     0.443635     0.345619 
    0.572528     0.292490     0.565868 
    0.479982     0.693866     0.441192 
    0.649558     0.580505     0.657477 
    0.366830     0.426586     0.346528 
    0.636178     0.473772     0.691256 
    0.356938     0.535022     0.308150 
    0.502391     0.320360     0.473303 
    0.498161     0.693441     0.558990 
    0.630846     0.563624     0.358744 
    0.350103     0.440517     0.643683 
    0.713349     0.509654     0.426191 
    0.277441     0.499089     0.566837 
    0.444698     0.346902     0.370167 
    0.554625     0.644534     0.642000 
    0.417109     0.624497     0.360745 
    0.599127     0.379138     0.643098 
EA1246 15.142 14.905 14.574 90.00 90.00 90.00 Sym.group:    0
1.0
   15.142132     0.000000     0.000000
    0.000000    14.904885     0.000000
    0.000000     0.000000    14.574143
   W   B
  10  21
Direct
    0.495606     0.514030     0.463533 
    0.613517     0.383726     0.539117 
    0.375077     0.628540     0.467039 
    0.610926     0.544771     0.334601 
    0.408868     0.473536     0.650267 
    0.593561     0.633400     0.599185 
    0.407128     0.369451     0.412892 
    0.486937     0.451112     0.272776 
    0.645974     0.387047     0.350240 
    0.327791     0.625569     0.650217 
    0.331306     0.417212     0.535446 
    0.454477     0.587074     0.322035 
    0.552462     0.421001     0.674960 
    0.444089     0.685349     0.591704 
    0.553601     0.302032     0.425484 
    0.501915     0.692099     0.498678 
    0.493256     0.301573     0.518546 
    0.536558     0.531710     0.687828 
    0.302573     0.525520     0.555412 
    0.696112     0.482129     0.447775 
    0.326548     0.488828     0.447190 
    0.686422     0.517107     0.557153 
    0.520309     0.323870     0.317826 
    0.462749     0.610349     0.678079 
    0.494950     0.344273     0.625243 
    0.500751     0.661581     0.387100 
    0.400648     0.339397     0.565370 
    0.595147     0.662163     0.447757 
    0.631513     0.494207     0.649849 
    0.375680     0.508722     0.350651 
    0.673548     0.592624     0.476046 
EA1755 16.791 15.010 13.926 90.00 90.00 90.00 Sym.group:    0
1.0
   16.790982     0.000000     0.000000
    0.000000    15.010236     0.000000
    0.000000     0.000000    13.926242
   W   B
   6  21
Direct
    0.509557     0.480515     0.504933 
    0.617569     0.576503     0.605104 
    0.505310     0.612104     0.368688 
    0.582072     0.385100     0.632459 
    0.408430     0.624781     0.509034 
    0.384892     0.485087     0.389287 
    0.483036     0.328036     0.542313 
    0.417487     0.520769     0.634047 
    0.525165     0.687638     0.576623 
    0.644090     0.392652     0.495790 
    0.625879     0.594843     0.437053 
    0.506472     0.467671     0.335191 
    0.268629     0.471839     0.475327 
    0.308878     0.384441     0.499535 
    0.661769     0.503158     0.479702 
    0.484855     0.368746     0.402229 
    0.497609     0.725447     0.468879 
    0.599264     0.508669     0.366375 
    0.295991     0.570472     0.477691 
    0.488373     0.600854     0.637420 
    0.564902     0.331910     0.475955 
    0.587524     0.683648     0.482779 
    0.514880     0.499475     0.675825 
    0.582895     0.400688     0.383422 
    0.402772     0.364418     0.494518 
    0.686251     0.454363     0.584480 
    0.345450     0.476170     0.565342 
EA1855 16.281 14.727 14.382 90.00 90.00 90.00 Sym.group:    0
1.0
   16.281257     0.000000     0.000000
    0.000000    14.727279     0.000000
    0.000000     0.000000    14.382394
   W   B
   9  24
Direct
    0.436373     0.560528     0.488963 
    0.337231     0.426551     0.392176 
    0.559738     0.551943     0.305546 
    0.492301     0.396697     0.366507 
    0.520745     0.617398     0.661407 
    0.577830     0.486239     0.491811 
    0.659262     0.435434     0.338649 
    0.509989     0.431314     0.640577 
    0.659719     0.616000     0.421095 
    0.299385     0.553198     0.463914 
    0.521775     0.662827     0.404985 
    0.439495     0.628716     0.343296 
    0.297010     0.462356     0.528888 
    0.454691     0.700750     0.567460 
    0.385787     0.641406     0.621446 
    0.347557     0.580757     0.368324 
    0.422008     0.519215     0.315103 
    0.546188     0.675791     0.519937 
    0.323042     0.562032     0.582418 
    0.338151     0.361211     0.527185 
    0.510257     0.333782     0.506258 
    0.631360     0.621797     0.577142 
    0.682616     0.383376     0.488088 
    0.726697     0.488678     0.457573 
    0.699666     0.536572     0.558215 
    0.626010     0.526641     0.645796 
    0.599056     0.335081     0.439590 
    0.411767     0.317072     0.463561 
    0.411267     0.536614     0.662554 
    0.426814     0.338301     0.581503 
    0.608133     0.341736     0.558475 
    0.659878     0.427147     0.606032 
    0.378199     0.442843     0.605524 
EA2196 16.342 15.024 14.254 90.00 90.00 90.00 Sym.group:    0
1.0
   16.342246     0.000000     0.000000
    0.000000    15.023930     0.000000
    0.000000     0.000000    14.254387
   W   B
   9  24
Direct
    0.429709     0.541577     0.516064 
    0.338787     0.411809     0.604991 
    0.546884     0.562006     0.684261 
    0.494617     0.401978     0.632204 
    0.517419     0.615589     0.348637 
    0.580875     0.497042     0.503415 
    0.655505     0.455734     0.663785 
    0.512664     0.436422     0.355263 
    0.660570     0.624873     0.580622 
    0.290016     0.532702     0.530977 
    0.491708     0.665032     0.580667 
    0.420105     0.621882     0.653438 
    0.297025     0.443984     0.465374 
    0.455097     0.679883     0.463565 
    0.386922     0.629264     0.393326 
    0.333111     0.564044     0.629964 
    0.412601     0.513306     0.684969 
    0.556270     0.673167     0.483712 
    0.322186     0.544180     0.414351 
    0.343357     0.347678     0.466704 
    0.519837     0.341128     0.488936 
    0.635679     0.633686     0.422504 
    0.690255     0.396538     0.518068 
    0.726926     0.501404     0.541386 
    0.705105     0.554914     0.442298 
    0.632100     0.537237     0.353987 
    0.606558     0.348850     0.561076 
    0.421652     0.317198     0.532647 
    0.408716     0.532102     0.338892 
    0.434315     0.334719     0.412534 
    0.617337     0.360564     0.440613 
    0.675393     0.445773     0.402079 
    0.380698     0.433733     0.388692 
EA2459 15.958 15.755 15.071 90.00 90.00 90.00 Sym.group:    0
1.0
   15.958185     0.000000     0.000000
    0.000000    15.754627     0.000000
    0.000000     0.000000    15.071055
   W   B
   9  25
Direct
    0.443384     0.491992     0.513950 
    0.334781     0.622060     0.456740 
    0.581206     0.481082     0.420530 
    0.576734     0.604617     0.610223 
    0.508063     0.333790     0.505550 
    0.293197     0.464023     0.455075 
    0.407143     0.641088     0.601247 
    0.443934     0.396645     0.659292 
    0.687886     0.464116     0.623875 
    0.638353     0.341692     0.442535 
    0.702904     0.414932     0.489039 
    0.567582     0.340704     0.370683 
    0.465529     0.492749     0.326971 
    0.476435     0.384397     0.367898 
    0.530417     0.570534     0.315278 
    0.571762     0.687296     0.483655 
    0.637040     0.599359     0.478963 
    0.358860     0.533920     0.349963 
    0.388713     0.364058     0.434150 
    0.379378     0.431973     0.346295 
    0.463118     0.678386     0.463949 
    0.565541     0.627873     0.392822 
    0.709122     0.517287     0.490817 
    0.442729     0.609531     0.367802 
    0.642203     0.353101     0.553137 
    0.577196     0.374310     0.635093 
    0.702237     0.588103     0.570704 
    0.562778     0.476240     0.671468 
    0.507764     0.719430     0.558496 
    0.320378     0.439766     0.600046 
    0.370398     0.515523     0.657976 
    0.368724     0.361890     0.542186 
    0.301378     0.545915     0.575628 
    0.473133     0.531620     0.667959 
EA3020 15.320 14.864 13.846 90.00 90.00 90.00 Sym.group:    0
1.0
   15.319890     0.000000     0.000000
    0.000000    14.863894     0.000000
    0.000000     0.000000    13.845636
   W   B
   7  23
Direct
    0.665889     0.546967     0.439166 
    0.333613     0.465971     0.560153 
    0.537219     0.475769     0.591145 
    0.470265     0.515016     0.424637 
    0.509785     0.309320     0.455193 
    0.471875     0.675163     0.546253 
    0.639954     0.323799     0.550462 
    0.384410     0.647260     0.418049 
    0.414745     0.499405     0.687666 
    0.581913     0.494267     0.319347 
    0.367485     0.357293     0.454264 
    0.617668     0.652720     0.543561 
    0.403068     0.332708     0.565287 
    0.578459     0.668535     0.433122 
    0.477186     0.595359     0.682032 
    0.523952     0.399846     0.328794 
    0.321772     0.552076     0.424304 
    0.687886     0.462894     0.568550 
    0.342945     0.612062     0.523346 
    0.712211     0.412170     0.466223 
    0.572684     0.620493     0.646780 
    0.420315     0.383730     0.353325 
    0.564260     0.600937     0.337681 
    0.422619     0.394658     0.660588 
    0.479952     0.666353     0.382733 
    0.506037     0.328366     0.611363 
    0.660069     0.563141     0.599043 
    0.336392     0.449244     0.395238 
    0.617255     0.402107     0.398876 
    0.378117     0.592367     0.632821 
EA3166 14.574 14.571 14.373 90.00 90.00 90.00 Sym.group:    0
1.0
   14.573780     0.000000     0.000000
    0.000000    14.571132     0.000000
    0.000000     0.000000    14.373014
   W   B
  10  23
Direct
    0.491256     0.505509     0.508683 
    0.382733     0.684328     0.474546 
    0.650469     0.509125     0.405335 
    0.497189     0.413388     0.655931 
    0.603367     0.353170     0.507844 
    0.345412     0.499375     0.414701 
    0.518832     0.609535     0.691700 
    0.578649     0.654098     0.505586 
    0.312124     0.463337     0.606422 
    0.504110     0.411818     0.340757 
    0.379827     0.271299     0.495116 
    0.722054     0.508384     0.634934 
    0.497179     0.633478     0.275592 
    0.376835     0.613564     0.618109 
    0.654562     0.414570     0.633984 
    0.380389     0.345994     0.404728 
    0.586790     0.633366     0.349095 
    0.459531     0.697285     0.595298 
    0.716765     0.451341     0.537514 
    0.371339     0.330739     0.596692 
    0.439041     0.534471     0.289985 
    0.491823     0.694962     0.372768 
    0.634099     0.360550     0.365503 
    0.624537     0.505722     0.699058 
    0.310875     0.364782     0.498501 
    0.398163     0.631103     0.336128 
    0.476126     0.289753     0.440416 
    0.704684     0.568075     0.536353 
    0.403709     0.526509     0.698677 
    0.296783     0.586536     0.531062 
    0.475187     0.291237     0.558789 
    0.558266     0.539797     0.282071 
    0.657291     0.602801     0.638125 
EA3771 15.409 14.125 14.128 90.00 90.00 90.00 Sym.group:    0
1.0
   15.408888     0.000000     0.000000
    0.000000    14.124556     0.000000
    0.000000     0.000000    14.128325
   W   B
   6  21
Direct
    0.375526     0.522137     0.554974 
    0.439825     0.561359     0.362592 
    0.556090     0.605530     0.497999 
    0.646744     0.429469     0.464465 
    0.526011     0.455075     0.632686 
    0.395927     0.393036     0.400762 
    0.332949     0.629852     0.443844 
    0.306206     0.517959     0.412561 
    0.277715     0.430052     0.478028 
    0.499443     0.462960     0.477215 
    0.394451     0.403752     0.649790 
    0.443657     0.344763     0.561095 
    0.585581     0.431823     0.319148 
    0.552669     0.330326     0.539215 
    0.334298     0.369524     0.550962 
    0.583837     0.558876     0.347449 
    0.429183     0.673425     0.473477 
    0.445197     0.672351     0.595225 
    0.345589     0.672891     0.552460 
    0.524978     0.622094     0.652760 
    0.673958     0.472654     0.616114 
    0.637883     0.363362     0.606001 
    0.677192     0.573899     0.411516 
    0.673678     0.493479     0.326407 
    0.622353     0.579105     0.636201 
    0.686722     0.561785     0.536025 
    0.532336     0.368465     0.401031 
EA3990 15.430 15.378 14.286 90.00 90.00 90.00 Sym.group:    0
1.0
   15.429656     0.000000     0.000000
    0.000000    15.378423     0.000000
    0.000000     0.000000    14.286135
   W   B
  10  21
Direct
    0.460849     0.495758     0.526238 
    0.491340     0.692134     0.499462 
    0.448557     0.321843     0.484111 
    0.491465     0.494915     0.694936 
    0.298978     0.530864     0.495413 
    0.688228     0.504473     0.511220 
    0.663132     0.404621     0.366306 
    0.563560     0.358443     0.605465 
    0.466386     0.581862     0.367517 
    0.595889     0.603643     0.607176 
    0.345394     0.408051     0.429388 
    0.626416     0.714717     0.502538 
    0.340069     0.392789     0.546170 
    0.700874     0.641801     0.501878 
    0.699881     0.401188     0.611527 
    0.323746     0.593331     0.359742 
    0.535510     0.353380     0.362482 
    0.454557     0.629059     0.634014 
    0.589811     0.316615     0.457452 
    0.368176     0.641010     0.558651 
    0.634230     0.471468     0.663897 
    0.344601     0.490622     0.356335 
    0.603375     0.631074     0.427304 
    0.419750     0.373626     0.629513 
    0.612568     0.535487     0.368296 
    0.348559     0.459603     0.636648 
    0.441213     0.420522     0.368063 
    0.355123     0.658611     0.442034 
    0.680389     0.354393     0.509042 
    0.366224     0.563975     0.640978 
    0.541151     0.460121     0.336205 
EA4170 16.014 15.473 15.411 90.00 90.00 90.00 Sym.group:    0
1.0
   16.013989     0.000000     0.000000
    0.000000    15.472722     0.000000
    0.000000     0.000000    15.411355
   W   B
  10  23
Direct
    0.522692     0.360537     0.423415 
    0.420125     0.468971     0.335844 
    0.598293     0.522905     0.485546 
    0.640247     0.355050     0.532341 
    0.437881     0.476493     0.514870 
    0.473224     0.656642     0.531587 
    0.281732     0.500186     0.536877 
    0.398649     0.620631     0.393142 
    0.599673     0.622580     0.625540 
    0.409728     0.462924     0.686006 
    0.517798     0.309585     0.558083 
    0.420947     0.320879     0.519065 
    0.387423     0.351619     0.415429 
    0.710833     0.559818     0.582826 
    0.695310     0.636993     0.503735 
    0.744859     0.545122     0.478484 
    0.643436     0.476512     0.621503 
    0.726358     0.462071     0.553422 
    0.524110     0.564410     0.348070 
    0.564103     0.464302     0.343628 
    0.727827     0.445402     0.445244 
    0.646676     0.409225     0.392514 
    0.311048     0.424971     0.416201 
    0.322219     0.361558     0.502916 
    0.271919     0.608562     0.444913 
    0.472682     0.573462     0.644237 
    0.371313     0.580226     0.611382 
    0.289325     0.523561     0.386252 
    0.358164     0.377709     0.598160 
    0.329686     0.636567     0.526946 
    0.536222     0.653688     0.409298 
    0.604392     0.681345     0.492890 
    0.541100     0.485491     0.639635 
EA4484 15.137 16.114 15.377 90.00 90.00 90.00 Sym.group:    0
1.0
   15.137466     0.000000     0.000000
    0.000000    16.114152     0.000000
    0.000000     0.000000    15.376695
   W   B
  10  24
Direct
    0.509376     0.325632     0.549544 
    0.424997     0.351423     0.392315 
    0.400348     0.469997     0.510571 
    0.438516     0.511211     0.353966 
    0.591712     0.462325     0.477407 
    0.670207     0.364366     0.613434 
    0.657133     0.601663     0.441673 
    0.511974     0.471264     0.641286 
    0.407041     0.606278     0.611763 
    0.667596     0.527870     0.609937 
    0.293064     0.371705     0.458802 
    0.396034     0.378584     0.622175 
    0.365244     0.329918     0.526620 
    0.304700     0.543718     0.419378 
    0.257181     0.470485     0.494035 
    0.311923     0.445475     0.385254 
    0.745827     0.492874     0.453068 
    0.641088     0.326300     0.485509 
    0.727856     0.400390     0.497832 
    0.566326     0.335048     0.410350 
    0.584065     0.515641     0.339442 
    0.547071     0.419534     0.343586 
    0.285329     0.572555     0.519507 
    0.377698     0.611005     0.467530 
    0.462602     0.648770     0.400286 
    0.539102     0.605573     0.343787 
    0.364162     0.475649     0.660148 
    0.281900     0.513087     0.603300 
    0.550281     0.606456     0.641251 
    0.444112     0.687986     0.499867 
    0.632776     0.661092     0.582369 
    0.522822     0.683710     0.570194 
    0.784308     0.570771     0.511928 
    0.735628     0.641645     0.561886 
EA4867 16.658 14.362 14.655 90.00 90.00 90.00 Sym.group:    0
1.0
   16.657885     0.000000     0.000000
    0.000000    14.361990     0.000000
    0.000000     0.000000    14.655154
   W   B
  10  23
Direct
    0.518497     0.296396     0.456044 
    0.589118     0.363873     0.595161 
    0.394250     0.476176     0.543024 
    0.432482     0.424965     0.375846 
    0.548207     0.503085     0.461793 
    0.490124     0.639563     0.563852 
    0.701654     0.546452     0.489035 
    0.575811     0.525013     0.655834 
    0.356611     0.670358     0.490492 
    0.587671     0.365595     0.328293 
    0.536987     0.647055     0.372321 
    0.646191     0.324571     0.460330 
    0.271751     0.557888     0.470063 
    0.283519     0.561461     0.582849 
    0.257991     0.457414     0.529279 
    0.350469     0.552746     0.396861 
    0.297951     0.457225     0.418999 
    0.474928     0.423707     0.661401 
    0.455305     0.334820     0.590093 
    0.303310     0.364353     0.488227 
    0.391620     0.318657     0.497303 
    0.707039     0.395879     0.524870 
    0.699545     0.409597     0.409945 
    0.694158     0.579224     0.631288 
    0.465579     0.708315     0.420277 
    0.600778     0.650164     0.469612 
    0.699409     0.464071     0.616616 
    0.656578     0.493402     0.353751 
    0.631116     0.647872     0.577531 
    0.446260     0.542950     0.673901 
    0.365602     0.605575     0.631990 
    0.443661     0.590293     0.396332 
    0.625830     0.601286     0.366784 
EA5236 17.022 15.103 14.200 90.00 90.00 90.00 Sym.group:    0
1.0
   17.022173     0.000000     0.000000
    0.000000    15.102589     0.000000
    0.000000     0.000000    14.200235
   W   B
  10  23
Direct
    0.469683     0.300530     0.448632 
    0.405787     0.376169     0.601160 
    0.602016     0.471214     0.532455 
    0.561135     0.422135     0.368780 
    0.442712     0.503003     0.461483 
    0.515597     0.627877     0.564852 
    0.299290     0.566887     0.492537 
    0.425524     0.527944     0.678303 
    0.654953     0.646201     0.488082 
    0.411150     0.385049     0.324421 
    0.472957     0.648638     0.397636 
    0.351110     0.348819     0.458242 
    0.726710     0.533092     0.457480 
    0.715271     0.537179     0.576296 
    0.734261     0.436830     0.522193 
    0.647700     0.536830     0.384197 
    0.693001     0.440119     0.407581 
    0.518499     0.427811     0.656360 
    0.531415     0.344967     0.580891 
    0.683861     0.352437     0.482125 
    0.593867     0.319683     0.491071 
    0.299544     0.421044     0.525785 
    0.311506     0.441419     0.409011 
    0.312771     0.582312     0.645413 
    0.555848     0.696447     0.421966 
    0.399829     0.655584     0.481043 
    0.307101     0.475176     0.625798 
    0.345285     0.520637     0.344627 
    0.382122     0.639425     0.593634 
    0.555955     0.534312     0.672213 
    0.636613     0.587929     0.626911 
    0.556947     0.575690     0.404433 
    0.379985     0.616614     0.374388 
EA5506 15.470 15.672 16.101 90.00 90.00 90.00 Sym.group:    0
1.0
   15.469951     0.000000     0.000000
    0.000000    15.671829     0.000000
    0.000000     0.000000    16.100950
   W   B
  10  25
Direct
    0.578558     0.448410     0.626811 
    0.542263     0.339851     0.508177 
    0.482698     0.427586     0.372553 
    0.399474     0.464925     0.523686 
    0.434618     0.588123     0.372332 
    0.686773     0.462135     0.381684 
    0.554724     0.525555     0.478119 
    0.714860     0.557959     0.522293 
    0.492208     0.600980     0.615926 
    0.311254     0.629749     0.578260 
    0.458202     0.372607     0.620185 
    0.401323     0.314782     0.550885 
    0.411404     0.329427     0.447960 
    0.742460     0.423053     0.500892 
    0.678449     0.344372     0.461086 
    0.720794     0.450623     0.600893 
    0.670407     0.363405     0.565108 
    0.605349     0.353387     0.389402 
    0.256528     0.517870     0.532386 
    0.441615     0.471166     0.661653 
    0.335400     0.490103     0.387272 
    0.314685     0.341350     0.498197 
    0.359821     0.534412     0.649527 
    0.263657     0.433191     0.476807 
    0.335020     0.388056     0.406361 
    0.318620     0.579857     0.451840 
    0.579650     0.555057     0.337168 
    0.382500     0.666858     0.471005 
    0.630600     0.581057     0.638356 
    0.562820     0.649983     0.390526 
    0.623198     0.667217     0.474682 
    0.426969     0.704445     0.556212 
    0.625312     0.657878     0.575505 
    0.660659     0.601043     0.398268 
    0.497133     0.663526     0.477985 
EA6011 16.630 15.025 13.513 90.00 90.00 90.00 Sym.group:    0
1.0
   16.630440     0.000000     0.000000
    0.000000    15.024535     0.000000
    0.000000     0.000000    13.513334
   W   B
   9  22
Direct
    0.414954     0.487441     0.536223 
    0.342658     0.418746     0.376308 
    0.376586     0.671360     0.466404 
    0.499099     0.355894     0.394014 
    0.569099     0.493159     0.473524 
    0.718846     0.522830     0.539604 
    0.534270     0.688574     0.499205 
    0.505262     0.590082     0.657053 
    0.517868     0.419575     0.661198 
    0.434276     0.705167     0.600696 
    0.276039     0.471695     0.509055 
    0.393530     0.322051     0.482982 
    0.299263     0.575018     0.548910 
    0.388277     0.559115     0.364114 
    0.373100     0.618578     0.616525 
    0.318609     0.376542     0.538145 
    0.301829     0.550042     0.427086 
    0.485207     0.603229     0.383691 
    0.463335     0.486883     0.360952 
    0.641729     0.419220     0.607223 
    0.622804     0.521147     0.652259 
    0.692465     0.447221     0.398284 
    0.686636     0.387860     0.502427 
    0.590909     0.619429     0.374355 
    0.658354     0.634076     0.470096 
    0.674944     0.554304     0.383833 
    0.624123     0.619029     0.589065 
    0.482008     0.322942     0.544091 
    0.585432     0.347153     0.526318 
    0.628517     0.358684     0.404807 
    0.399973     0.352956     0.611554 
EA6316 13.901 13.901 13.901 90.00 90.00 90.00 Sym.group:    0
1.0
   13.900572     0.000000     0.000000
    0.000000    13.900572     0.000000
    0.000000     0.000000    13.900572
   W   B
   7  24
Direct
    0.492622     0.476678     0.529669 
    0.695312     0.501220     0.498991 
    0.304459     0.501153     0.499148 
    0.501228     0.302307     0.502472 
    0.500286     0.696013     0.493128 
    0.499887     0.493925     0.302253 
    0.500854     0.509391     0.699674 
    0.558749     0.352829     0.358940 
    0.441996     0.649978     0.637511 
    0.356648     0.359651     0.561292 
    0.643301     0.641930     0.436063 
    0.357641     0.554743     0.354348 
    0.643817     0.447469     0.644183 
    0.358044     0.438856     0.357170 
    0.644178     0.564350     0.640642 
    0.441174     0.359762     0.648199 
    0.557671     0.638060     0.353118 
    0.357917     0.645689     0.551764 
    0.644266     0.355850     0.443930 
    0.356869     0.564177     0.640233 
    0.642167     0.438874     0.357660 
    0.559060     0.360455     0.647597 
    0.442618     0.638081     0.353077 
    0.642577     0.645295     0.551890 
    0.356778     0.356371     0.444108 
    0.558754     0.649916     0.637764 
    0.441982     0.353081     0.358907 
    0.643941     0.360014     0.561005 
    0.356514     0.642426     0.435752 
    0.642154     0.554413     0.354876 
    0.356537     0.447045     0.644636 
EA6785 15.488 15.000 15.124 90.00 90.00 90.00 Sym.group:    0
1.0
   15.488008     0.000000     0.000000
    0.000000    14.999705     0.000000
    0.000000     0.000000    15.123967
   W   B
   8  21
Direct
    0.401179     0.518339     0.311049 
    0.580858     0.481963     0.352007 
    0.630061     0.483012     0.544308 
    0.517019     0.687274     0.487904 
    0.374815     0.631781     0.554951 
    0.463261     0.496450     0.467818 
    0.324178     0.417585     0.411222 
    0.451728     0.482847     0.638548 
    0.435173     0.335339     0.445284 
    0.503378     0.610666     0.360133 
    0.606682     0.624294     0.386252 
    0.602008     0.334397     0.532289 
    0.687675     0.557810     0.417872 
    0.539176     0.352482     0.437739 
    0.705926     0.453486     0.418020 
    0.646596     0.370435     0.439300 
    0.649445     0.631861     0.489935 
    0.602292     0.630247     0.584759 
    0.576158     0.560137     0.664558 
    0.499029     0.628978     0.620153 
    0.578648     0.371961     0.629734 
    0.316532     0.524299     0.619940 
    0.388328     0.357572     0.541170 
    0.318381     0.428656     0.570537 
    0.323018     0.566159     0.423073 
    0.406560     0.632805     0.405103 
    0.286194     0.516872     0.511603 
    0.590919     0.457689     0.687776 
    0.494785     0.354605     0.546965 
EA7016 16.664 14.531 14.388 90.00 90.00 90.00 Sym.group:    0
1.0
   16.664127     0.000000     0.000000
    0.000000    14.531117     0.000000
    0.000000     0.000000    14.388426
   W   B
  10  21
Direct
    0.565059     0.482990     0.488893 
    0.517427     0.316333     0.418360 
    0.637766     0.541828     0.660523 
    0.414909     0.501820     0.558468 
    0.480650     0.337068     0.590172 
    0.299783     0.603002     0.583718 
    0.460825     0.573673     0.370362 
    0.612747     0.643802     0.434435 
    0.359512     0.345460     0.465596 
    0.423233     0.681313     0.624987 
    0.616508     0.413810     0.350399 
    0.590299     0.526920     0.332935 
    0.679269     0.430848     0.551926 
    0.611254     0.331592     0.536849 
    0.522384     0.439246     0.334406 
    0.688476     0.542737     0.522989 
    0.670103     0.648471     0.568500 
    0.352417     0.477577     0.388343 
    0.568190     0.648044     0.583945 
    0.391110     0.655916     0.484336 
    0.328692     0.580082     0.435515 
    0.357304     0.359572     0.618695 
    0.523181     0.466580     0.649558 
    0.602958     0.397382     0.630061 
    0.292815     0.434800     0.580760 
    0.286306     0.479733     0.476213 
    0.560911     0.633505     0.301035 
    0.493311     0.647254     0.497854 
    0.509451     0.578789     0.660782 
    0.653601     0.366501     0.441497 
    0.429549     0.413351     0.357891 
EA7505 15.233 14.455 14.214 90.00 90.00 90.00 Sym.group:    0
1.0
   15.233044     0.000000     0.000000
    0.000000    14.455414     0.000000
    0.000000     0.000000    14.214053
   W   B
   6  22
Direct
    0.466396     0.508556     0.463803 
    0.318316     0.526562     0.577538 
    0.522039     0.669400     0.499588 
    0.610301     0.375672     0.394822 
    0.661305     0.501884     0.636729 
    0.427152     0.386479     0.595636 
    0.364488     0.346923     0.452239 
    0.553410     0.511863     0.328360 
    0.374338     0.645344     0.503931 
    0.424627     0.627021     0.609343 
    0.499491     0.620819     0.341745 
    0.308877     0.457845     0.438784 
    0.297395     0.386684     0.529890 
    0.405393     0.642418     0.388826 
    0.430197     0.525082     0.667056 
    0.530916     0.591681     0.637915 
    0.326748     0.569106     0.425908 
    0.598657     0.607498     0.384131 
    0.469979     0.338691     0.437348 
    0.651937     0.370616     0.546309 
    0.550882     0.327600     0.521247 
    0.572252     0.382762     0.624019 
    0.642553     0.575735     0.497374 
    0.528277     0.473477     0.672832 
    0.687088     0.464378     0.491803 
    0.658766     0.513248     0.389834 
    0.628100     0.635890     0.598953 
    0.490123     0.416766     0.344037 
EA7806 16.518 14.349 14.238 90.00 90.00 90.00 Sym.group:    0
1.0
   16.518432     0.000000     0.000000
    0.000000    14.348666     0.000000
    0.000000     0.000000    14.238008
   W   B
   8  21
Direct
    0.548292     0.679323     0.619513 
    0.659223     0.631286     0.507800 
    0.614217     0.396764     0.374121 
    0.590023     0.404462     0.637310 
    0.430227     0.424497     0.650045 
    0.516182     0.533803     0.493802 
    0.356582     0.591230     0.471132 
    0.387235     0.404340     0.475730 
    0.337845     0.499323     0.347476 
    0.619038     0.551833     0.630274 
    0.685583     0.490477     0.571424 
    0.575220     0.631397     0.380299 
    0.696109     0.483540     0.453134 
    0.450553     0.677747     0.526973 
    0.640507     0.543765     0.377608 
    0.538537     0.690611     0.466393 
    0.672736     0.386911     0.513841 
    0.588775     0.324660     0.506207 
    0.504792     0.334747     0.436135 
    0.494336     0.337638     0.555947 
    0.542503     0.524177     0.334440 
    0.305655     0.411910     0.615472 
    0.268126     0.479296     0.417828 
    0.264969     0.477860     0.529875 
    0.431414     0.582379     0.612406 
    0.521886     0.539322     0.669318 
    0.338537     0.521965     0.599319 
    0.488466     0.423383     0.362725 
    0.432435     0.521354     0.363451 
EA8023 15.449 15.451 14.955 90.00 90.00 90.00 Sym.group:    0
1.0
   15.449022     0.000000     0.000000
    0.000000    15.450631     0.000000
    0.000000     0.000000    14.955277
   W   B
   9  22
Direct
    0.499923     0.508993     0.463354 
    0.515513     0.342430     0.565657 
    0.486838     0.667833     0.430935 
    0.614072     0.452094     0.362104 
    0.388475     0.542415     0.629035 
    0.356750     0.448674     0.397180 
    0.633675     0.555130     0.601800 
    0.672210     0.673474     0.501150 
    0.654907     0.307032     0.497884 
    0.484292     0.386329     0.347846 
    0.509124     0.615048     0.648693 
    0.615253     0.603146     0.387682 
    0.380854     0.397918     0.616214 
    0.360845     0.597426     0.412859 
    0.645726     0.397220     0.604132 
    0.427396     0.571962     0.332333 
    0.570447     0.432168     0.671273 
    0.675197     0.544026     0.460690 
    0.315273     0.446750     0.540458 
    0.555928     0.678713     0.568634 
    0.439501     0.340430     0.435996 
    0.660753     0.445943     0.502289 
    0.315140     0.544591     0.498548 
    0.460286     0.428885     0.680847 
    0.535618     0.573387     0.321649 
    0.514376     0.520517     0.695376 
    0.479386     0.482137     0.303504 
    0.368820     0.637307     0.514383 
    0.367292     0.357831     0.512527 
    0.448370     0.667925     0.576548 
    0.547759     0.332266     0.418423 
EA8352 15.263 15.182 14.901 90.00 90.00 90.00 Sym.group:    0
1.0
   15.262666     0.000000     0.000000
    0.000000    15.181599     0.000000
    0.000000     0.000000    14.901414
   W   B
   9  22
Direct
    0.509518     0.490799     0.462989 
    0.336937     0.506473     0.555494 
    0.673560     0.497987     0.442254 
    0.441275     0.552511     0.325476 
    0.552890     0.446526     0.662455 
    0.483115     0.322132     0.453945 
    0.521869     0.667320     0.547396 
    0.640503     0.693929     0.440664 
    0.277833     0.607386     0.443209 
    0.401269     0.413109     0.360037 
    0.602068     0.580123     0.639105 
    0.589621     0.591212     0.351926 
    0.411305     0.406740     0.651210 
    0.628894     0.360038     0.469371 
    0.363289     0.652433     0.545350 
    0.596900     0.391403     0.369651 
    0.407055     0.610124     0.636117 
    0.513846     0.658445     0.400064 
    0.477676     0.329911     0.603164 
    0.661903     0.609639     0.547118 
    0.358442     0.392454     0.459455 
    0.416959     0.633951     0.445743 
    0.578224     0.334636     0.565615 
    0.423232     0.508697     0.684071 
    0.580878     0.488411     0.318841 
    0.503336     0.582076     0.679161 
    0.500923     0.412757     0.321309 
    0.659413     0.409090     0.563142 
    0.382218     0.352361     0.557047 
    0.672098     0.509768     0.594549 
    0.332951     0.487558     0.404075 
EA8803 16.133 14.946 14.109 90.00 90.00 90.00 Sym.group:    0
1.0
   16.132900     0.000000     0.000000
    0.000000    14.946104     0.000000
    0.000000     0.000000    14.109362
   W   B
   8  21
Direct
    0.387042     0.359050     0.567093 
    0.415346     0.609576     0.633474 
    0.586022     0.626542     0.599315 
    0.498232     0.495221     0.501410 
    0.621376     0.481349     0.382500 
    0.633592     0.440139     0.586054 
    0.480765     0.727723     0.536977 
    0.373464     0.410892     0.392592 
    0.619266     0.350872     0.457547 
    0.392624     0.617028     0.485806 
    0.309279     0.571987     0.544629 
    0.298914     0.457479     0.512017 
    0.518197     0.573965     0.347253 
    0.413883     0.553571     0.375452 
    0.332169     0.485959     0.620621 
    0.426025     0.465416     0.662696 
    0.506121     0.397878     0.636537 
    0.523273     0.510579     0.663977 
    0.456040     0.310270     0.451202 
    0.705101     0.565081     0.581791 
    0.710761     0.395507     0.461785 
    0.727453     0.500200     0.487494 
    0.571302     0.623629     0.441865 
    0.669060     0.594153     0.476104 
    0.530099     0.340721     0.533016 
    0.521071     0.375806     0.389280 
    0.467944     0.651425     0.407915 
    0.318784     0.538128     0.431928 
    0.486795     0.469855     0.331673 
EA9038 16.721 15.050 14.678 90.00 90.00 90.00 Sym.group:    0
1.0
   16.721171     0.000000     0.000000
    0.000000    15.049916     0.000000
    0.000000     0.000000    14.678472
   W   B
  10  21
Direct
    0.501141     0.463949     0.532137 
    0.600280     0.529450     0.376414 
    0.371611     0.483371     0.637167 
    0.635952     0.383909     0.574502 
    0.425686     0.583546     0.449562 
    0.569889     0.629768     0.592707 
    0.428383     0.381588     0.399977 
    0.730171     0.464332     0.485031 
    0.278702     0.535318     0.525032 
    0.363783     0.336876     0.563601 
    0.676214     0.530273     0.596669 
    0.334028     0.490870     0.393256 
    0.467989     0.349023     0.641219 
    0.527750     0.653466     0.372012 
    0.446538     0.600916     0.627244 
    0.556760     0.391881     0.357007 
    0.503264     0.528083     0.682260 
    0.498676     0.464233     0.302816 
    0.482768     0.300164     0.526273 
    0.510673     0.700551     0.477757 
    0.310050     0.406804     0.458212 
    0.663278     0.586690     0.495232 
    0.553117     0.332943     0.456562 
    0.445277     0.689448     0.560764 
    0.486921     0.575279     0.309892 
    0.530436     0.419587     0.685284 
    0.406685     0.505332     0.319479 
    0.596565     0.496675     0.656566 
    0.638613     0.392821     0.419620 
    0.358145     0.632986     0.574636 
    0.600653     0.659870     0.451110 
EA9534 15.888 15.029 13.643 90.00 90.00 90.00 Sym.group:    0
1.0
   15.887535     0.000000     0.000000
    0.000000    15.029475     0.000000
    0.000000     0.000000    13.642940
   W   B
   6  22
Direct
    0.546501     0.452890     0.601151 
    0.390847     0.368206     0.583256 
    0.419000     0.535973     0.498707 
    0.509291     0.647521     0.387573 
    0.706737     0.494861     0.446502 
    0.496184     0.371775     0.436962 
    0.355982     0.587268     0.644454 
    0.470522     0.581831     0.643504 
    0.414607     0.487630     0.663595 
    0.314319     0.494356     0.612116 
    0.292123     0.463559     0.496775 
    0.507038     0.304465     0.592051 
    0.496883     0.673636     0.563153 
    0.319447     0.498147     0.386147 
    0.357996     0.397668     0.431227 
    0.408273     0.451203     0.342276 
    0.400060     0.565568     0.340486 
    0.407142     0.669651     0.605394 
    0.590225     0.670194     0.519629 
    0.503580     0.504196     0.349423 
    0.678474     0.393481     0.559263 
    0.687567     0.492142     0.604299 
    0.601569     0.445475     0.363568 
    0.602546     0.554736     0.343976 
    0.598765     0.318840     0.543759 
    0.651095     0.582540     0.557523 
    0.635881     0.374537     0.446769 
    0.637345     0.617653     0.436464 
EA9824 16.332 14.791 14.065 90.00 90.00 90.00 Sym.group:    0
1.0
   16.332358     0.000000     0.000000
    0.000000    14.790815     0.000000
    0.000000     0.000000    14.065290
   W   B
   8  21
Direct
    0.553535     0.705147     0.471880 
    0.664071     0.609840     0.547090 
    0.613397     0.352360     0.563196 
    0.585953     0.474715     0.326994 
    0.426615     0.503784     0.332717 
    0.516692     0.525455     0.518813 
    0.355603     0.571251     0.574126 
    0.383304     0.410129     0.481181 
    0.338512     0.437515     0.643192 
    0.621567     0.597353     0.400584 
    0.686788     0.515892     0.423997 
    0.581491     0.559314     0.665660 
    0.698576     0.458481     0.528081 
    0.455539     0.665597     0.558750 
    0.644630     0.480030     0.625842 
    0.545471     0.648921     0.616043 
    0.670478     0.402452     0.429698 
    0.583609     0.348811     0.411579 
    0.499817     0.329345     0.482250 
    0.488665     0.385164     0.375813 
    0.545055     0.448378     0.659309 
    0.300709     0.479647     0.362823 
    0.266269     0.452819     0.573143 
    0.261972     0.500426     0.471357 
    0.431845     0.623261     0.439434 
    0.522459     0.607838     0.363492 
    0.336449     0.567626     0.426877 
    0.486974     0.375317     0.590115 
    0.433955     0.463134     0.635966 
EA10062 15.322 14.575 14.802 90.00 90.00 90.00 Sym.group:    0
1.0
   15.321505     0.000000     0.000000
    0.000000    14.575045     0.000000
    0.000000     0.000000    14.801857
   W   B
   6  25
Direct
    0.496310     0.539925     0.478984 
    0.388623     0.597484     0.607378 
    0.599583     0.401273     0.400518 
    0.624481     0.514331     0.609962 
    0.360467     0.481264     0.387396 
    0.455355     0.378319     0.569194 
    0.528461     0.432448     0.689053 
    0.466259     0.579206     0.320788 
    0.707097     0.470191     0.484702 
    0.292913     0.513008     0.522991 
    0.496551     0.303823     0.447543 
    0.492914     0.696702     0.541242 
    0.577210     0.312136     0.520054 
    0.409846     0.686307     0.479435 
    0.691070     0.585262     0.496614 
    0.322727     0.401939     0.508117 
    0.492557     0.471961     0.324894 
    0.503988     0.543610     0.686188 
    0.578482     0.543563     0.343847 
    0.417841     0.470021     0.684596 
    0.603097     0.647560     0.530351 
    0.387848     0.341650     0.442364 
    0.333448     0.603818     0.470232 
    0.663262     0.381824     0.536887 
    0.396256     0.632686     0.380646 
    0.590612     0.366934     0.623061 
    0.531867     0.629898     0.620086 
    0.462581     0.371149     0.364255 
    0.335517     0.457910     0.613858 
    0.678112     0.527580     0.391923 
    0.614665     0.616220     0.422842 
EA10279 16.559 14.758 13.970 90.00 90.00 90.00 Sym.group:    0
1.0
   16.559060     0.000000     0.000000
    0.000000    14.758150     0.000000
    0.000000     0.000000    13.970279
   W   B
   8  25
Direct
    0.418216     0.509351     0.491826 
    0.317795     0.472624     0.364270 
    0.633194     0.386592     0.380052 
    0.484541     0.451958     0.656196 
    0.445452     0.305958     0.536806 
    0.490751     0.475214     0.326126 
    0.579631     0.510878     0.504312 
    0.524445     0.637452     0.400800 
    0.336862     0.368311     0.479767 
    0.285617     0.451703     0.533053 
    0.411491     0.368819     0.396897 
    0.279019     0.554594     0.503073 
    0.319040     0.614966     0.422335 
    0.396762     0.590842     0.345591 
    0.507335     0.338990     0.399528 
    0.559740     0.342170     0.603064 
    0.570257     0.309406     0.488494 
    0.359289     0.401601     0.598536 
    0.337623     0.514834     0.620098 
    0.701798     0.502767     0.407807 
    0.684758     0.511452     0.608748 
    0.708693     0.569466     0.509865 
    0.616575     0.529080     0.336125 
    0.517411     0.599825     0.647714 
    0.643540     0.660382     0.502269 
    0.560419     0.667113     0.559759 
    0.460005     0.656270     0.548074 
    0.598806     0.533779     0.671491 
    0.403294     0.669110     0.440886 
    0.663865     0.608144     0.405582 
    0.620801     0.425574     0.641157 
    0.648380     0.373108     0.536123 
    0.414591     0.587667     0.633578 
EA10841 16.477 15.312 14.005 90.00 90.00 90.00 Sym.group:    0
1.0
   16.477477     0.000000     0.000000
    0.000000    15.312223     0.000000
    0.000000     0.000000    14.004976
   W   B
   8  21
Direct
    0.409005     0.471067     0.447786 
    0.453244     0.537136     0.624422 
    0.485066     0.365805     0.582585 
    0.524407     0.345501     0.382410 
    0.689102     0.393671     0.417728 
    0.538219     0.611589     0.382335 
    0.566419     0.482397     0.490812 
    0.652236     0.631806     0.518592 
    0.351038     0.347750     0.527830 
    0.366488     0.604160     0.520009 
    0.284152     0.428927     0.527750 
    0.315687     0.587986     0.407792 
    0.323889     0.521878     0.578778 
    0.402528     0.631669     0.405808 
    0.364164     0.427006     0.608253 
    0.270023     0.513897     0.463841 
    0.459838     0.652514     0.509966 
    0.416727     0.316625     0.449015 
    0.605135     0.476164     0.330709 
    0.504022     0.474412     0.335477 
    0.666768     0.545541     0.394159 
    0.664010     0.502175     0.608190 
    0.587486     0.571948     0.640060 
    0.711026     0.505917     0.496573 
    0.534902     0.655388     0.596225 
    0.547335     0.708748     0.495657 
    0.570197     0.463513     0.656109 
    0.633427     0.394359     0.595220 
    0.603458     0.330453     0.505907 
EA11226 15.218 15.594 14.072 90.00 90.00 90.00 Sym.group:    0
1.0
   15.218483     0.000000     0.000000
    0.000000    15.594096     0.000000
    0.000000     0.000000    14.072488
   W   B
   6  21
Direct
    0.410579     0.506755     0.451798 
    0.513445     0.367269     0.473728 
    0.354304     0.364575     0.546898 
    0.473155     0.470095     0.628973 
    0.597451     0.541266     0.455935 
    0.631999     0.528667     0.622892 
    0.378704     0.373570     0.391902 
    0.290947     0.425840     0.427414 
    0.463253     0.422661     0.335554 
    0.509793     0.520782     0.325639 
    0.650255     0.400490     0.542135 
    0.577125     0.432478     0.343038 
    0.266265     0.493310     0.508416 
    0.475683     0.332887     0.623669 
    0.308832     0.590951     0.529836 
    0.334194     0.497438     0.602517 
    0.396155     0.588888     0.602717 
    0.578140     0.374664     0.621735 
    0.692383     0.642754     0.537840 
    0.654814     0.410955     0.422989 
    0.722603     0.463904     0.496704 
    0.746278     0.560912     0.519131 
    0.505363     0.611359     0.607230 
    0.591620     0.661015     0.558639 
    0.501482     0.658025     0.483018 
    0.391925     0.645007     0.460481 
    0.483249     0.613486     0.379173 
EA11602 15.871 14.611 14.224 90.00 90.00 90.00 Sym.group:    0
1.0
   15.870958     0.000000     0.000000
    0.000000    14.611180     0.000000
    0.000000     0.000000    14.224030
   W   B
   6  21
Direct
    0.416799     0.380744     0.566362 
    0.383354     0.526922     0.439380 
    0.410146     0.567127     0.607233 
    0.502355     0.643021     0.370510 
    0.582086     0.591421     0.624780 
    0.551591     0.475214     0.466513 
    0.535483     0.298426     0.503698 
    0.554485     0.363273     0.595475 
    0.469280     0.335156     0.425966 
    0.365780     0.378073     0.426509 
    0.398576     0.677549     0.488864 
    0.308178     0.640387     0.517007 
    0.292967     0.423534     0.500227 
    0.275121     0.540547     0.544919 
    0.445373     0.415333     0.350474 
    0.307251     0.455982     0.611099 
    0.513737     0.466694     0.631646 
    0.675160     0.613028     0.512213 
    0.589995     0.670255     0.493932 
    0.630108     0.607685     0.398643 
    0.620425     0.446954     0.618279 
    0.686102     0.509243     0.553925 
    0.494231     0.676209     0.534551 
    0.630249     0.339354     0.501540 
    0.477722     0.514388     0.317553 
    0.690765     0.419982     0.466796 
    0.692680     0.523499     0.431903 
EA11647 16.431 14.702 14.257 90.00 90.00 90.00 Sym.group:    0
1.0
   16.431171     0.000000     0.000000
    0.000000    14.701530     0.000000
    0.000000     0.000000    14.256894
   W   B
   8  25
Direct
    0.584012     0.484269     0.501258 
    0.686087     0.566139     0.602699 
    0.522121     0.501573     0.332509 
    0.524661     0.661412     0.414814 
    0.527097     0.562924     0.666477 
    0.426746     0.507614     0.500300 
    0.490462     0.393808     0.637226 
    0.676907     0.451272     0.341661 
    0.648563     0.644655     0.474909 
    0.708339     0.558828     0.444717 
    0.575880     0.652317     0.556921 
    0.724676     0.454293     0.483748 
    0.692205     0.416171     0.586613 
    0.616458     0.448263     0.663282 
    0.415812     0.621728     0.352959 
    0.394496     0.657426     0.467081 
    0.631982     0.589544     0.367337 
    0.319057     0.540273     0.611415 
    0.310253     0.474972     0.417474 
    0.296624     0.453786     0.532579 
    0.405500     0.513598     0.680603 
    0.478290     0.364285     0.397998 
    0.360316     0.358041     0.559689 
    0.439791     0.333750     0.503729 
    0.542458     0.332109     0.498494 
    0.396632     0.417085     0.360210 
    0.610169     0.351623     0.591856 
    0.347070     0.433897     0.636640 
    0.373247     0.520236     0.335646 
    0.393794     0.614563     0.620141 
    0.328760     0.589790     0.412705 
    0.582964     0.369552     0.391089 
    0.468571     0.660205     0.555224 
EA12111 15.379 15.491 15.427 90.00 90.00 90.00 Sym.group:    0
1.0
   15.378927     0.000000     0.000000
    0.000000    15.490535     0.000000
    0.000000     0.000000    15.426508
   W   B
   9  22
Direct
    0.335642     0.562190     0.492808 
    0.420884     0.402118     0.608033 
    0.445528     0.383268     0.418064 
    0.559945     0.318647     0.537898 
    0.547176     0.486732     0.499323 
    0.705729     0.388028     0.473858 
    0.596157     0.565600     0.633229 
    0.553460     0.607820     0.390355 
    0.420439     0.580117     0.648961 
    0.419159     0.669496     0.431136 
    0.308296     0.426872     0.438944 
    0.357130     0.492398     0.370728 
    0.426771     0.283959     0.524282 
    0.315858     0.501193     0.618220 
    0.337602     0.340399     0.504972 
    0.400503     0.591694     0.365077 
    0.290294     0.432027     0.544102 
    0.459584     0.507464     0.335445 
    0.550273     0.456628     0.335947 
    0.590018     0.370504     0.397599 
    0.704831     0.507370     0.546073 
    0.504364     0.705613     0.481364 
    0.660315     0.596891     0.500490 
    0.651537     0.460649     0.367537 
    0.594874     0.673895     0.522705 
    0.654468     0.424525     0.595679 
    0.560146     0.412200     0.648040 
    0.510887     0.673964     0.591062 
    0.704455     0.522262     0.437669 
    0.413072     0.671513     0.540121 
    0.500599     0.483963     0.700279 
EA12405 16.551 15.098 14.936 90.00 90.00 90.00 Sym.group:    0
1.0
   16.550891     0.000000     0.000000
    0.000000    15.098014     0.000000
    0.000000     0.000000    14.936219
   W   B
  10  21
Direct
    0.495233     0.545424     0.529730 
    0.576400     0.425041     0.429844 
    0.383013     0.616829     0.624617 
    0.601354     0.647925     0.458141 
    0.421664     0.376599     0.523070 
    0.602411     0.479598     0.647116 
    0.431402     0.509322     0.364968 
    0.284585     0.500749     0.568161 
    0.353208     0.619576     0.461811 
    0.359136     0.363445     0.359004 
    0.674645     0.557640     0.551511 
    0.296166     0.393782     0.471885 
    0.469833     0.701119     0.499605 
    0.539860     0.305869     0.501387 
    0.476950     0.522391     0.684522 
    0.547863     0.479577     0.297072 
    0.529053     0.610162     0.673871 
    0.491263     0.387905     0.314334 
    0.474775     0.648844     0.400557 
    0.539166     0.344353     0.609604 
    0.303656     0.492969     0.418785 
    0.680449     0.448606     0.528937 
    0.538785     0.587456     0.335927 
    0.478419     0.416856     0.658532 
    0.483428     0.314166     0.403036 
    0.527616     0.687998     0.588305 
    0.613090     0.621025     0.608436 
    0.626856     0.539190     0.352978 
    0.396265     0.471306     0.637094 
    0.625272     0.358528     0.554643 
    0.678183     0.525748     0.442517 
EA12640 16.134 15.373 15.092 90.00 90.00 90.00 Sym.group:    0
1.0
   16.133804     0.000000     0.000000
    0.000000    15.372939     0.000000
    0.000000     0.000000    15.092317
   W   B
  10  24
Direct
    0.524267     0.527172     0.508395 
    0.566530     0.403724     0.629449 
    0.425954     0.333150     0.382659 
    0.658934     0.635457     0.572028 
    0.647785     0.443131     0.395992 
    0.386053     0.511780     0.381226 
    0.403458     0.421120     0.536205 
    0.399078     0.607629     0.575394 
    0.477966     0.648952     0.381679 
    0.473779     0.520306     0.702397 
    0.561244     0.328402     0.410701 
    0.680136     0.501109     0.614234 
    0.599994     0.578116     0.363772 
    0.529759     0.505682     0.332377 
    0.717062     0.519386     0.512522 
    0.614887     0.352886     0.499093 
    0.676029     0.582442     0.438680 
    0.598984     0.546209     0.662961 
    0.456557     0.434217     0.294308 
    0.544434     0.390995     0.323156 
    0.599149     0.655976     0.444616 
    0.681111     0.419692     0.539246 
    0.510678     0.318355     0.515238 
    0.424037     0.719565     0.485840 
    0.279627     0.467890     0.471785 
    0.534340     0.630105     0.627434 
    0.297748     0.510259     0.573430 
    0.351926     0.655488     0.442352 
    0.355317     0.485424     0.662754 
    0.314282     0.383262     0.422832 
    0.520524     0.684469     0.521990 
    0.429470     0.390058     0.681652 
    0.295892     0.573362     0.481687 
    0.463008     0.314232     0.611914 
EA13156 16.059 15.089 14.789 90.00 90.00 90.00 Sym.group:    0
1.0
   16.059058     0.000000     0.000000
    0.000000    15.089160     0.000000
    0.000000     0.000000    14.789364
   W   B
  10  21
Direct
    0.511090     0.546024     0.487736 
    0.532715     0.378634     0.521246 
    0.483651     0.706453     0.462461 
    0.629454     0.497547     0.378615 
    0.388766     0.488995     0.595839 
    0.618552     0.542130     0.626360 
    0.400897     0.438895     0.396712 
    0.319034     0.646367     0.506160 
    0.387623     0.610011     0.363247 
    0.292167     0.392250     0.503335 
    0.694606     0.480666     0.512670 
    0.263329     0.525591     0.539983 
    0.533743     0.622526     0.344938 
    0.471960     0.380339     0.655436 
    0.531872     0.661889     0.602167 
    0.489950     0.324166     0.389454 
    0.608943     0.666842     0.530317 
    0.417826     0.310555     0.470826 
    0.498982     0.520477     0.320190 
    0.507007     0.478193     0.688370 
    0.289946     0.523985     0.429439 
    0.657828     0.405470     0.586026 
    0.526092     0.411740     0.332231 
    0.488273     0.582001     0.661038 
    0.407214     0.338763     0.579517 
    0.608907     0.648447     0.418090 
    0.668086     0.584332     0.491048 
    0.598004     0.352816     0.389049 
    0.427964     0.645483     0.589039 
    0.580351     0.404332     0.660429 
    0.665172     0.384082     0.468034 
EA13465 16.270 15.173 14.850 90.00 90.00 90.00 Sym.group:    0
1.0
   16.270138     0.000000     0.000000
    0.000000    15.173120     0.000000
    0.000000     0.000000    14.849845
   W   B
  10  21
Direct
    0.491680     0.546509     0.493196 
    0.463313     0.377777     0.505572 
    0.523188     0.708036     0.490098 
    0.375946     0.518544     0.376413 
    0.607293     0.473274     0.595416 
    0.381031     0.529977     0.627213 
    0.599757     0.447070     0.392144 
    0.680948     0.639392     0.526879 
    0.616067     0.621502     0.380000 
    0.702882     0.388112     0.494612 
    0.306726     0.486278     0.505537 
    0.732459     0.514174     0.547605 
    0.473147     0.639850     0.361749 
    0.521321     0.361325     0.639877 
    0.470746     0.647805     0.620394 
    0.507469     0.339411     0.369888 
    0.396341     0.663790     0.548684 
    0.576426     0.313400     0.449917 
    0.506676     0.541356     0.324877 
    0.488170     0.455502     0.683072 
    0.709336     0.525806     0.437160 
    0.339677     0.401917     0.569236 
    0.475942     0.434120     0.323834 
    0.510115     0.560323     0.669381 
    0.585588     0.327531     0.560910 
    0.398258     0.659790     0.435237 
    0.335933     0.590172     0.497855 
    0.401894     0.372314     0.370091 
    0.572792     0.630515     0.608520 
    0.414266     0.388627     0.644943 
    0.334614     0.395801     0.449692 
EA13692 16.568 15.004 14.149 90.00 90.00 90.00 Sym.group:    0
1.0
   16.568040     0.000000     0.000000
    0.000000    15.003854     0.000000
    0.000000     0.000000    14.148626
   W   B
  10  23
Direct
    0.581083     0.494941     0.493194 
    0.492539     0.645995     0.563001 
    0.602830     0.659879     0.431769 
    0.412892     0.489497     0.508662 
    0.491905     0.451121     0.333645 
    0.336897     0.594977     0.609661 
    0.512541     0.418076     0.651909 
    0.678015     0.500351     0.656675 
    0.380760     0.567489     0.337426 
    0.628140     0.533561     0.307748 
    0.642009     0.385015     0.592060 
    0.694952     0.443294     0.406171 
    0.459782     0.559040     0.685601 
    0.560417     0.563811     0.668548 
    0.620258     0.622104     0.593055 
    0.707779     0.553150     0.422674 
    0.717291     0.466121     0.517912 
    0.698011     0.584328     0.533226 
    0.297147     0.584229     0.461690 
    0.386558     0.641817     0.471429 
    0.309496     0.446448     0.617578 
    0.265031     0.496776     0.527648 
    0.458431     0.337241     0.539453 
    0.363456     0.422586     0.365595 
    0.430648     0.354784     0.422853 
    0.537115     0.345363     0.424973 
    0.388113     0.377250     0.621210 
    0.565107     0.336125     0.540143 
    0.613703     0.395855     0.360539 
    0.289642     0.480762     0.413341 
    0.392000     0.477649     0.680393 
    0.471028     0.669584     0.409901 
    0.514426     0.600781     0.330315 
EA14260 15.235 15.183 13.882 90.00 90.00 90.00 Sym.group:    0
1.0
   15.234589     0.000000     0.000000
    0.000000    15.182706     0.000000
    0.000000     0.000000    13.882428
   W   B
   6  22
Direct
    0.507158     0.535680     0.512181 
    0.518796     0.431668     0.356533 
    0.633755     0.477223     0.636768 
    0.526759     0.360204     0.605336 
    0.330956     0.572505     0.464785 
    0.390166     0.578112     0.640686 
    0.706670     0.460969     0.499709 
    0.616664     0.628993     0.444249 
    0.671374     0.562174     0.510950 
    0.541309     0.581918     0.359981 
    0.649844     0.409044     0.411781 
    0.434801     0.558221     0.349541 
    0.627973     0.520961     0.401703 
    0.579029     0.335306     0.459386 
    0.472837     0.324192     0.457665 
    0.659932     0.369511     0.532472 
    0.503120     0.666458     0.604618 
    0.443622     0.652468     0.409067 
    0.540997     0.584897     0.671571 
    0.312183     0.429303     0.459784 
    0.318947     0.468521     0.571608 
    0.371903     0.469724     0.369813 
    0.494566     0.484248     0.686810 
    0.423150     0.672702     0.524457 
    0.388014     0.365402     0.404432 
    0.405559     0.433502     0.639973 
    0.530963     0.685294     0.484477 
    0.398954     0.380797     0.529667 
EA14466 15.942 15.821 14.089 90.00 90.00 90.00 Sym.group:    0
1.0
   15.942448     0.000000     0.000000
    0.000000    15.821497     0.000000
    0.000000     0.000000    14.089068
   W   B
   9  22
Direct
    0.538140     0.642384     0.425793 
    0.617337     0.552547     0.585665 
    0.654634     0.423433     0.431744 
    0.614357     0.376171     0.598290 
    0.492757     0.464587     0.504666 
    0.474416     0.292918     0.520521 
    0.396415     0.518077     0.650053 
    0.351351     0.486759     0.388764 
    0.488115     0.665610     0.603467 
    0.405006     0.619160     0.374855 
    0.654542     0.561593     0.401164 
    0.567478     0.513610     0.359579 
    0.718592     0.455900     0.562006 
    0.612067     0.689688     0.546863 
    0.722995     0.536471     0.484361 
    0.470314     0.544636     0.341902 
    0.675882     0.639014     0.477294 
    0.485655     0.439338     0.338831 
    0.533036     0.348696     0.394662 
    0.599541     0.299861     0.470085 
    0.385394     0.378517     0.593089 
    0.326717     0.612736     0.448689 
    0.324439     0.447984     0.538311 
    0.430737     0.361297     0.389842 
    0.303352     0.546815     0.531745 
    0.477427     0.377060     0.646874 
    0.529878     0.465769     0.673283 
    0.357943     0.630618     0.568697 
    0.361290     0.366869     0.476334 
    0.412595     0.674457     0.476274 
    0.517602     0.567428     0.696299 
EA14684 16.005 15.445 14.395 90.00 90.00 90.00 Sym.group:    0
1.0
   16.005084     0.000000     0.000000
    0.000000    15.444906     0.000000
    0.000000     0.000000    14.395190
   W   B
   9  25
Direct
    0.595412     0.530802     0.478553 
    0.505397     0.460256     0.316247 
    0.506971     0.659610     0.562398 
    0.584859     0.685467     0.408932 
    0.430750     0.509727     0.507475 
    0.321071     0.490176     0.633594 
    0.359238     0.553809     0.366338 
    0.556970     0.400122     0.611743 
    0.457971     0.353732     0.440411 
    0.645078     0.355922     0.494919 
    0.702784     0.567151     0.574443 
    0.693691     0.454879     0.548009 
    0.600071     0.385648     0.387961 
    0.643847     0.478907     0.341052 
    0.592684     0.573438     0.323689 
    0.489720     0.600357     0.332600 
    0.654924     0.658816     0.534856 
    0.451109     0.672438     0.411753 
    0.691377     0.430250     0.430440 
    0.619033     0.608226     0.629779 
    0.643866     0.503024     0.642304 
    0.363740     0.623626     0.597456 
    0.326876     0.411729     0.410783 
    0.384036     0.409906     0.318132 
    0.298673     0.581416     0.514186 
    0.280521     0.478608     0.484974 
    0.431928     0.572035     0.663684 
    0.336390     0.392566     0.526545 
    0.373171     0.652912     0.483512 
    0.485823     0.285307     0.577335 
    0.533935     0.539295     0.649128 
    0.449202     0.463616     0.675210 
    0.569969     0.286932     0.519932 
    0.418912     0.369296     0.601630 
EA15058 17.083 15.736 14.187 90.00 90.00 90.00 Sym.group:    0
1.0
   17.082779     0.000000     0.000000
    0.000000    15.736395     0.000000
    0.000000     0.000000    14.186801
   W   B
   8  25
Direct
    0.620915     0.534095     0.564336 
    0.557811     0.624051     0.413493 
    0.529409     0.688775     0.589311 
    0.357890     0.669768     0.532355 
    0.457020     0.542249     0.512842 
    0.362251     0.442393     0.412522 
    0.552714     0.433486     0.422685 
    0.459846     0.371706     0.579260 
    0.689971     0.617877     0.456356 
    0.736575     0.527876     0.473449 
    0.681523     0.443500     0.437703 
    0.650925     0.533725     0.397284 
    0.735706     0.442584     0.537601 
    0.637614     0.677195     0.526978 
    0.416717     0.607190     0.647465 
    0.510335     0.572165     0.663747 
    0.438621     0.548804     0.344758 
    0.425492     0.647159     0.393639 
    0.462517     0.714859     0.469831 
    0.303028     0.541300     0.507322 
    0.276712     0.443567     0.527724 
    0.351680     0.446398     0.602602 
    0.428973     0.495616     0.662198 
    0.526234     0.469247     0.652984 
    0.334161     0.358309     0.530786 
    0.662662     0.376803     0.528458 
    0.582519     0.401635     0.598240 
    0.575562     0.319872     0.526451 
    0.501794     0.303911     0.450916 
    0.456511     0.355364     0.359702 
    0.403144     0.314865     0.454823 
    0.461420     0.451187     0.309597 
    0.351750     0.582472     0.412584 
EA15366 16.440 15.657 14.998 90.00 90.00 90.00 Sym.group:    0
1.0
   16.440210     0.000000     0.000000
    0.000000    15.656888     0.000000
    0.000000     0.000000    14.997673
   W   B
  10  24
Direct
    0.536601     0.474854     0.489613 
    0.573428     0.588430     0.631202 
    0.413616     0.675503     0.403927 
    0.661271     0.369147     0.548365 
    0.631759     0.570338     0.392745 
    0.382950     0.504824     0.395284 
    0.407669     0.579123     0.549370 
    0.407045     0.390441     0.565081 
    0.466351     0.366059     0.381022 
    0.279595     0.408922     0.470729 
    0.547029     0.681861     0.426049 
    0.684753     0.493353     0.603086 
    0.583919     0.434577     0.345625 
    0.512615     0.510020     0.328468 
    0.706798     0.488590     0.492459 
    0.610740     0.654046     0.506631 
    0.665085     0.428934     0.414464 
    0.602192     0.448591     0.648412 
    0.438469     0.586370     0.301273 
    0.524437     0.626016     0.335193 
    0.595664     0.350539     0.418483 
    0.679771     0.583937     0.531910 
    0.508878     0.680015     0.537158 
    0.445126     0.270466     0.488748 
    0.275697     0.544748     0.519703 
    0.542457     0.372763     0.608032 
    0.310855     0.479722     0.596589 
    0.358956     0.302749     0.455668 
    0.390905     0.489069     0.667894 
    0.305455     0.621916     0.457050 
    0.534442     0.312320     0.509143 
    0.451443     0.572717     0.690873 
    0.467780     0.666479     0.639936 
    0.496251     0.472559     0.649815 
EA16012 14.821 14.774 14.347 90.00 90.00 90.00 Sym.group:    0
1.0
   14.820721     0.000000     0.000000
    0.000000    14.774024     0.000000
    0.000000     0.000000    14.347150
   W   B
   6  21
Direct
    0.461772     0.559297     0.614440 
    0.312725     0.609692     0.535057 
    0.482106     0.582371     0.427316 
    0.329918     0.441577     0.571718 
    0.537803     0.428871     0.508939 
    0.576603     0.696974     0.548806 
    0.653357     0.571105     0.509863 
    0.615722     0.586322     0.626481 
    0.323841     0.507621     0.425465 
    0.338800     0.608398     0.384164 
    0.436316     0.694545     0.535586 
    0.379325     0.694369     0.436954 
    0.405008     0.437714     0.692832 
    0.514745     0.418311     0.682369 
    0.440958     0.353040     0.624732 
    0.601318     0.479556     0.667206 
    0.619641     0.643880     0.425298 
    0.627983     0.532253     0.399540 
    0.414417     0.325167     0.517232 
    0.376417     0.402460     0.434273 
    0.554945     0.356792     0.361647 
    0.647454     0.412213     0.386491 
    0.465621     0.322082     0.416296 
    0.691440     0.455191     0.478849 
    0.676445     0.482354     0.585047 
    0.555519     0.471093     0.341487 
    0.459798     0.426753     0.361914 
EA16036 15.202 15.554 15.718 90.00 90.00 90.00 Sym.group:    0
1.0
   15.201612     0.000000     0.000000
    0.000000    15.554252     0.000000
    0.000000     0.000000    15.718197
   W   B
   9  25
Direct
    0.394354     0.606223     0.400609 
    0.417247     0.466744     0.506693 
    0.494234     0.472371     0.351334 
    0.521508     0.497335     0.657293 
    0.449473     0.624528     0.566345 
    0.591256     0.506503     0.495655 
    0.663644     0.553400     0.333504 
    0.518173     0.352513     0.577541 
    0.642939     0.383163     0.385662 
    0.419859     0.732781     0.466442 
    0.513694     0.689232     0.443202 
    0.292850     0.604973     0.510550 
    0.333218     0.699177     0.505983 
    0.278091     0.509159     0.557729 
    0.303278     0.421962     0.604106 
    0.289410     0.517474     0.446738 
    0.346397     0.468241     0.371586 
    0.539823     0.604571     0.372387 
    0.395074     0.373492     0.389887 
    0.366615     0.338626     0.577259 
    0.397655     0.320491     0.480847 
    0.498109     0.342708     0.418901 
    0.682285     0.613589     0.553366 
    0.585050     0.663479     0.519673 
    0.404950     0.408466     0.649964 
    0.370269     0.511400     0.636733 
    0.588374     0.618388     0.614989 
    0.658971     0.534276     0.625456 
    0.708424     0.592810     0.452950 
    0.732900     0.487688     0.428810 
    0.648121     0.426146     0.602609 
    0.652482     0.344345     0.526151 
    0.583497     0.290958     0.464417 
    0.717778     0.422786     0.504628 
EA16588 14.879 15.348 15.334 90.00 90.00 90.00 Sym.group:    0
1.0
   14.879218     0.000000     0.000000
    0.000000    15.348133     0.000000
    0.000000     0.000000    15.333701
   W   B
   8  21
Direct
    0.543291     0.677477     0.471909 
    0.372797     0.492866     0.369610 
    0.347439     0.537742     0.599750 
    0.488464     0.526580     0.494598 
    0.616087     0.607189     0.613767 
    0.436332     0.362568     0.463904 
    0.528848     0.444035     0.325989 
    0.643233     0.549797     0.391293 
    0.255495     0.512163     0.473486 
    0.502318     0.591001     0.354434 
    0.414619     0.632688     0.409126 
    0.293729     0.406522     0.460601 
    0.400999     0.655092     0.518486 
    0.328653     0.591433     0.465292 
    0.472933     0.640897     0.600444 
    0.240061     0.448448     0.553149 
    0.323998     0.384296     0.569235 
    0.680504     0.653502     0.490316 
    0.654202     0.391305     0.545526 
    0.725935     0.562538     0.518403 
    0.580786     0.474065     0.616789 
    0.488549     0.544593     0.650400 
    0.428793     0.414774     0.597527 
    0.536050     0.390350     0.565276 
    0.713988     0.463346     0.479892 
    0.636944     0.406607     0.425731 
    0.562121     0.327420     0.391211 
    0.589209     0.322867     0.494468 
    0.693621     0.487839     0.589389 
EA16965 16.524 14.646 14.099 90.00 90.00 90.00 Sym.group:    0
1.0
   16.524165     0.000000     0.000000
    0.000000    14.645888     0.000000
    0.000000     0.000000    14.098592
   W   B
   8  21
Direct
    0.350999     0.374427     0.570792 
    0.431608     0.510442     0.370784 
    0.554382     0.412322     0.490459 
    0.668790     0.420047     0.606203 
    0.422120     0.517762     0.560716 
    0.661552     0.586298     0.411122 
    0.321598     0.612886     0.435427 
    0.551720     0.515468     0.662809 
    0.562089     0.528565     0.327063 
    0.441833     0.308987     0.475839 
    0.479722     0.313452     0.583795 
    0.537673     0.418267     0.325056 
    0.314900     0.466191     0.449177 
    0.688036     0.444459     0.451085 
    0.465200     0.357851     0.368686 
    0.458368     0.401697     0.658791 
    0.555158     0.360427     0.649902 
    0.376030     0.378264     0.420115 
    0.632626     0.451875     0.354553 
    0.493616     0.654256     0.583687 
    0.284638     0.510239     0.554069 
    0.396874     0.674801     0.553908 
    0.317957     0.613475     0.583954 
    0.534405     0.621202     0.387509 
    0.568711     0.652701     0.493206 
    0.658276     0.577655     0.580295 
    0.588009     0.651035     0.611832 
    0.727973     0.522486     0.520884 
    0.455136     0.642462     0.458284 
EA17303 16.514 14.571 14.062 90.00 90.00 90.00 Sym.group:    0
1.0
   16.513930     0.000000     0.000000
    0.000000    14.571449     0.000000
    0.000000     0.000000    14.062428
   W   B
   8  21
Direct
    0.656595     0.390816     0.585807 
    0.562856     0.491721     0.369704 
    0.444244     0.414139     0.509321 
    0.335016     0.424714     0.628322 
    0.583415     0.535095     0.555435 
    0.341411     0.569016     0.427526 
    0.673387     0.607213     0.403259 
    0.453335     0.542830     0.658156 
    0.429636     0.497967     0.330195 
    0.562084     0.310631     0.510121 
    0.530768     0.333680     0.618519 
    0.457363     0.388941     0.346429 
    0.683869     0.464548     0.446021 
    0.307575     0.426834     0.473647 
    0.531539     0.339947     0.399019 
    0.550727     0.434337     0.673795 
    0.455958     0.391829     0.676463 
    0.623797     0.370716     0.438756 
    0.362399     0.425473     0.376691 
    0.502778     0.664338     0.549486 
    0.719386     0.527858     0.536407 
    0.602247     0.686181     0.516698 
    0.685331     0.634557     0.548431 
    0.462781     0.601826     0.356798 
    0.440877     0.662635     0.449384 
    0.331280     0.573190     0.594833 
    0.401881     0.644255     0.554520 
    0.265779     0.509219     0.537107 
    0.541690     0.635495     0.429150 
EA17393 16.570 16.045 14.326 90.00 90.00 90.00 Sym.group:    0
1.0
   16.570106     0.000000     0.000000
    0.000000    16.045234     0.000000
    0.000000     0.000000    14.326360
   W   B
  10  25
Direct
    0.646857     0.649278     0.543611 
    0.574821     0.520369     0.521512 
    0.677887     0.399612     0.580506 
    0.577439     0.472855     0.348696 
    0.459586     0.303983     0.489874 
    0.347653     0.367396     0.385531 
    0.423788     0.472093     0.496801 
    0.278425     0.471390     0.497492 
    0.467631     0.594009     0.384030 
    0.468270     0.476412     0.679922 
    0.601713     0.609044     0.387131 
    0.717510     0.524152     0.528658 
    0.561096     0.333549     0.396252 
    0.477641     0.367465     0.351395 
    0.693653     0.458640     0.441103 
    0.645205     0.372284     0.432496 
    0.671093     0.532830     0.634168 
    0.589495     0.319352     0.510917 
    0.682609     0.559239     0.421578 
    0.425881     0.362049     0.617613 
    0.595475     0.458937     0.670247 
    0.536489     0.380515     0.598528 
    0.344148     0.426602     0.628390 
    0.340082     0.351448     0.543142 
    0.465654     0.715205     0.479500 
    0.349936     0.502056     0.357469 
    0.345851     0.530162     0.630676 
    0.328514     0.598524     0.548928 
    0.438395     0.460182     0.321320 
    0.336057     0.581278     0.429907 
    0.382777     0.662456     0.482616 
    0.550940     0.738856     0.539136 
    0.554247     0.689153     0.435338 
    0.510871     0.649338     0.577252 
    0.432311     0.589288     0.608266 
EA17741 16.523 15.967 14.361 90.00 90.00 90.00 Sym.group:    0
1.0
   16.523107     0.000000     0.000000
    0.000000    15.966581     0.000000
    0.000000     0.000000    14.360955
   W   B
  10  25
Direct
    0.322158     0.386563     0.535971 
    0.423151     0.495234     0.523148 
    0.354075     0.641093     0.580152 
    0.436808     0.543636     0.352079 
    0.584948     0.690924     0.489434 
    0.683271     0.593409     0.388357 
    0.574283     0.524554     0.489383 
    0.719560     0.473096     0.503996 
    0.511560     0.398972     0.383776 
    0.535159     0.514573     0.674979 
    0.376017     0.417375     0.387448 
    0.284688     0.528210     0.528440 
    0.479698     0.679342     0.395346 
    0.554656     0.620105     0.357890 
    0.324497     0.586457     0.442387 
    0.388857     0.661248     0.429857 
    0.324852     0.506209     0.634069 
    0.452829     0.702516     0.509487 
    0.308740     0.486671     0.421422 
    0.600849     0.622145     0.617641 
    0.413108     0.558796     0.670993 
    0.491486     0.625658     0.594075 
    0.663286     0.536897     0.624986 
    0.687024     0.610403     0.542804 
    0.481888     0.276470     0.472335 
    0.647231     0.457616     0.365074 
    0.642849     0.435177     0.630537 
    0.649524     0.357703     0.555352 
    0.574162     0.521718     0.322654 
    0.638626     0.381591     0.441567 
    0.566583     0.320819     0.503411 
    0.393614     0.275829     0.531236 
    0.402448     0.324387     0.427478 
    0.459876     0.351107     0.568173 
    0.547641     0.393499     0.604061 
EA18076 15.343 14.598 15.548 90.00 90.00 90.00 Sym.group:    0
1.0
   15.343013     0.000000     0.000000
    0.000000    14.598052     0.000000
    0.000000     0.000000    15.548424
   W   B
  10  24
Direct
    0.471227     0.634521     0.597505 
    0.315553     0.387973     0.583147 
    0.421815     0.510082     0.473839 
    0.520327     0.658663     0.424803 
    0.320349     0.498271     0.334947 
    0.595504     0.529657     0.520030 
    0.710686     0.393373     0.506696 
    0.675428     0.490880     0.653642 
    0.481651     0.433859     0.628100 
    0.532644     0.371071     0.456917 
    0.294381     0.588197     0.447505 
    0.282821     0.434946     0.455950 
    0.277021     0.520356     0.542165 
    0.359551     0.528066     0.616706 
    0.329134     0.617575     0.551807 
    0.457852     0.452737     0.330141 
    0.394696     0.377635     0.375785 
    0.373661     0.630940     0.377146 
    0.449984     0.565983     0.325885 
    0.374271     0.334138     0.468492 
    0.547937     0.515045     0.367839 
    0.385624     0.671871     0.476842 
    0.639258     0.581318     0.384623 
    0.723296     0.526871     0.433564 
    0.749976     0.543715     0.534307 
    0.620777     0.357930     0.616918 
    0.602843     0.685256     0.542407 
    0.609380     0.632701     0.640825 
    0.550111     0.550343     0.681816 
    0.700326     0.629362     0.582358 
    0.429632     0.307947     0.559608 
    0.625922     0.283472     0.532191 
    0.531810     0.294096     0.582085 
    0.644551     0.461149     0.393411 
EA18520 16.098 14.617 14.953 90.00 90.00 90.00 Sym.group:    0
1.0
   16.097989     0.000000     0.000000
    0.000000    14.616656     0.000000
    0.000000     0.000000    14.952629
   W   B
   8  24
Direct
    0.565607     0.589580     0.390009 
    0.610905     0.505754     0.538200 
    0.573528     0.359916     0.441013 
    0.574863     0.698952     0.537828 
    0.474886     0.500642     0.677147 
    0.492172     0.344756     0.601944 
    0.349499     0.573156     0.592314 
    0.438067     0.482847     0.483749 
    0.426469     0.608632     0.376583 
    0.644453     0.466107     0.358913 
    0.550152     0.448439     0.318450 
    0.700132     0.371254     0.522256 
    0.674198     0.636567     0.470628 
    0.711602     0.435724     0.440920 
    0.461468     0.508126     0.335225 
    0.462907     0.396132     0.362733 
    0.699133     0.546785     0.415044 
    0.476289     0.687659     0.444062 
    0.625341     0.343431     0.584462 
    0.369238     0.420102     0.626561 
    0.567137     0.610700     0.653176 
    0.609933     0.518737     0.688640 
    0.591870     0.411825     0.673897 
    0.290983     0.476829     0.435161 
    0.369754     0.343719     0.538610 
    0.337290     0.378208     0.438213 
    0.305360     0.435570     0.539326 
    0.437669     0.328099     0.453181 
    0.328530     0.574459     0.413810 
    0.432988     0.701906     0.547278 
    0.377327     0.650854     0.469479 
    0.470251     0.644534     0.631190 
EA19001 15.471 14.500 13.877 90.00 90.00 90.00 Sym.group:    0
1.0
   15.471342     0.000000     0.000000
    0.000000    14.500087     0.000000
    0.000000     0.000000    13.876908
   W   B
   8  21
Direct
    0.449472     0.501228     0.484504 
    0.350402     0.365232     0.548318 
    0.413975     0.623321     0.635607 
    0.541142     0.661090     0.514368 
    0.523629     0.333448     0.507563 
    0.555723     0.495453     0.639183 
    0.628296     0.484768     0.453652 
    0.684963     0.375128     0.580462 
    0.399118     0.681692     0.494610 
    0.327494     0.596420     0.501261 
    0.292153     0.491505     0.475513 
    0.416941     0.349436     0.411059 
    0.333741     0.418623     0.398925 
    0.417428     0.443071     0.328245 
    0.546997     0.592392     0.361770 
    0.450640     0.550777     0.316820 
    0.527807     0.470983     0.330976 
    0.433118     0.632470     0.394043 
    0.324467     0.509460     0.589329 
    0.640775     0.629827     0.400589 
    0.585917     0.376228     0.355454 
    0.651942     0.333852     0.434761 
    0.680103     0.619222     0.508579 
    0.570056     0.344452     0.656256 
    0.409583     0.465980     0.648148 
    0.695017     0.523973     0.588466 
    0.465121     0.363648     0.648910 
    0.544158     0.646733     0.671824 
    0.639822     0.619591     0.620803 
EA19092 16.982 15.013 14.303 90.00 90.00 90.00 Sym.group:    0
1.0
   16.982278     0.000000     0.000000
    0.000000    15.012675     0.000000
    0.000000     0.000000    14.302557
   W   B
  10  25
Direct
    0.278909     0.514046     0.519081 
    0.413500     0.546565     0.503871 
    0.470993     0.404980     0.631089 
    0.469718     0.380913     0.424813 
    0.679515     0.378229     0.518086 
    0.690721     0.472521     0.365851 
    0.566857     0.511542     0.478431 
    0.667303     0.629065     0.419703 
    0.455004     0.531015     0.326016 
    0.552021     0.562991     0.651663 
    0.353973     0.443636     0.378695 
    0.340390     0.390912     0.591038 
    0.577871     0.293179     0.480587 
    0.603856     0.364466     0.395940 
    0.400392     0.316479     0.541358 
    0.493716     0.285897     0.542481 
    0.347177     0.481836     0.652864 
    0.576691     0.322820     0.594283 
    0.340718     0.381102     0.473610 
    0.671534     0.494069     0.607905 
    0.426800     0.540824     0.676909 
    0.601032     0.423018     0.637337 
    0.675676     0.599809     0.573726 
    0.722042     0.520332     0.506494 
    0.376651     0.640970     0.369017 
    0.588340     0.550270     0.315473 
    0.604532     0.669454     0.554238 
    0.551258     0.689111     0.461322 
    0.565593     0.440451     0.321899 
    0.540145     0.633388     0.366032 
    0.502267     0.669181     0.558981 
    0.300300     0.633626     0.434625 
    0.324558     0.546768     0.366619 
    0.340280     0.593666     0.630573 
    0.429671     0.642866     0.629385 
EA19595 15.796 15.107 14.935 90.00 90.00 90.00 Sym.group:    0
1.0
   15.796275     0.000000     0.000000
    0.000000    15.106925     0.000000
    0.000000     0.000000    14.935408
   W   B
   8  23
Direct
    0.467635     0.506312     0.494226 
    0.554682     0.356788     0.600886 
    0.445281     0.643584     0.403250 
    0.577414     0.434323     0.354269 
    0.422308     0.566884     0.649851 
    0.648991     0.585778     0.538173 
    0.352316     0.406724     0.457275 
    0.733432     0.477009     0.449568 
    0.316789     0.524883     0.547125 
    0.474748     0.524991     0.308319 
    0.523210     0.474498     0.695281 
    0.541218     0.692208     0.503823 
    0.455929     0.312497     0.496703 
    0.585701     0.648629     0.416773 
    0.409754     0.348078     0.586624 
    0.437322     0.424695     0.330598 
    0.561340     0.574197     0.672825 
    0.359765     0.623470     0.523686 
    0.642617     0.375419     0.479787 
    0.328860     0.556438     0.439846 
    0.677389     0.434400     0.568610 
    0.467627     0.339878     0.388735 
    0.530728     0.654580     0.609733 
    0.439814     0.418265     0.667688 
    0.558527     0.581272     0.333551 
    0.355048     0.441085     0.604148 
    0.647946     0.561614     0.388567 
    0.552134     0.332348     0.457019 
    0.445464     0.679704     0.548804 
    0.608300     0.483679     0.631462 
    0.377710     0.515768     0.352796 
EA19838 16.930 15.842 14.371 90.00 90.00 90.00 Sym.group:    0
1.0
   16.930138     0.000000     0.000000
    0.000000    15.842011     0.000000
    0.000000     0.000000    14.371292
   W   B
   9  24
Direct
    0.381320     0.363045     0.472570 
    0.358917     0.465199     0.629775 
    0.411527     0.586570     0.386308 
    0.496740     0.482543     0.513731 
    0.378461     0.614802     0.560588 
    0.490813     0.576248     0.671427 
    0.601472     0.338969     0.457843 
    0.633246     0.609704     0.458913 
    0.623283     0.459858     0.352161 
    0.496780     0.384136     0.370596 
    0.488018     0.286811     0.419071 
    0.546506     0.573739     0.357323 
    0.453049     0.694314     0.475226 
    0.522510     0.666662     0.399402 
    0.295838     0.557238     0.454995 
    0.285171     0.452566     0.501353 
    0.269547     0.539540     0.564255 
    0.325894     0.471430     0.395949 
    0.551140     0.709769     0.500015 
    0.483607     0.692455     0.587966 
    0.575333     0.467685     0.656171 
    0.443135     0.365007     0.605741 
    0.482746     0.438346     0.673646 
    0.492482     0.307478     0.531886 
    0.499683     0.486301     0.323385 
    0.696113     0.514196     0.539926 
    0.637170     0.426767     0.573836 
    0.552509     0.371907     0.599882 
    0.615132     0.555133     0.598081 
    0.719776     0.514340     0.428679 
    0.576091     0.655350     0.594176 
    0.700259     0.422415     0.479159 
    0.415727     0.449477     0.365964 
EA20336 16.356 14.935 14.076 90.00 90.00 90.00 Sym.group:    0
1.0
   16.355712     0.000000     0.000000
    0.000000    14.935196     0.000000
    0.000000     0.000000    14.075824
   W   B
   8  22
Direct
    0.551419     0.527820     0.523205 
    0.435565     0.648335     0.451425 
    0.617835     0.508699     0.348366 
    0.648330     0.391770     0.477715 
    0.524399     0.342010     0.581289 
    0.404347     0.458521     0.471051 
    0.398276     0.570785     0.612945 
    0.258222     0.527320     0.543942 
    0.694309     0.536251     0.474907 
    0.645871     0.628675     0.444257 
    0.566461     0.685931     0.493133 
    0.504140     0.670652     0.586336 
    0.553623     0.611021     0.662533 
    0.623175     0.426616     0.634019 
    0.619576     0.534642     0.671935 
    0.685372     0.498159     0.583675 
    0.559192     0.638462     0.384976 
    0.492021     0.565910     0.335246 
    0.569220     0.374346     0.346949 
    0.439445     0.311624     0.470624 
    0.529912     0.468718     0.672385 
    0.435080     0.430933     0.645222 
    0.465425     0.355387     0.369462 
    0.315951     0.566952     0.413241 
    0.311710     0.642369     0.507370 
    0.489656     0.453448     0.326087 
    0.390798     0.344386     0.576678 
    0.334585     0.430019     0.611127 
    0.393699     0.546621     0.343972 
    0.542386     0.303622     0.435929 
EA20595 14.971 14.971 14.971 90.00 90.00 90.00 Sym.group:    0
1.0
   14.971204     0.000000     0.000000
    0.000000    14.971204     0.000000
    0.000000     0.000000    14.971204
   W   B
   8  23
Direct
    0.494441     0.465437     0.492547 
    0.505570     0.497903     0.684514 
    0.499325     0.497205     0.315531 
    0.590597     0.650616     0.501695 
    0.394618     0.347751     0.503293 
    0.348140     0.610920     0.485141 
    0.650385     0.394892     0.498637 
    0.433426     0.715097     0.571476 
    0.531951     0.311871     0.445238 
    0.618409     0.576439     0.369190 
    0.384921     0.428022     0.630370 
    0.360746     0.528264     0.359720 
    0.645229     0.465651     0.630793 
    0.420536     0.620971     0.356053 
    0.580841     0.376012     0.632864 
    0.685218     0.532972     0.445689 
    0.323270     0.475638     0.550709 
    0.469101     0.357415     0.365006 
    0.535030     0.638038     0.642232 
    0.577219     0.379159     0.367547 
    0.434712     0.627554     0.683357 
    0.687818     0.532360     0.553977 
    0.314937     0.461925     0.443651 
    0.468359     0.357871     0.635968 
    0.528644     0.635335     0.366653 
    0.530389     0.311979     0.553863 
    0.464428     0.694647     0.434590 
    0.621472     0.575216     0.629667 
    0.377998     0.417525     0.362724 
    0.379988     0.547475     0.621062 
    0.642281     0.467839     0.366243 
EA20798 16.277 15.153 14.430 90.00 90.00 90.00 Sym.group:    0
1.0
   16.277169     0.000000     0.000000
    0.000000    15.152939     0.000000
    0.000000     0.000000    14.430115
   W   B
  10  25
Direct
    0.337651     0.565016     0.580038 
    0.485622     0.473860     0.653989 
    0.417147     0.447362     0.482395 
    0.281690     0.484435     0.411398 
    0.651356     0.644602     0.541284 
    0.428118     0.616601     0.421562 
    0.533156     0.489524     0.332126 
    0.582625     0.486433     0.510091 
    0.715017     0.397839     0.496323 
    0.491144     0.338705     0.387106 
    0.414951     0.696049     0.564602 
    0.286885     0.621111     0.444583 
    0.332998     0.693097     0.503676 
    0.453345     0.612693     0.630217 
    0.359379     0.423173     0.630205 
    0.429300     0.341855     0.615601 
    0.357512     0.371944     0.361123 
    0.308354     0.344611     0.461775 
    0.284435     0.427038     0.547374 
    0.337813     0.330067     0.566877 
    0.541597     0.640021     0.336302 
    0.517219     0.684462     0.554726 
    0.667566     0.479199     0.377166 
    0.628702     0.589923     0.397412 
    0.712235     0.543152     0.458947 
    0.623490     0.378124     0.382772 
    0.600991     0.319687     0.482190 
    0.666668     0.436188     0.636441 
    0.714760     0.519787     0.578071 
    0.553685     0.601667     0.631674 
    0.633489     0.540634     0.651232 
    0.555899     0.671709     0.443567 
    0.462203     0.596731     0.282791 
    0.617366     0.352832     0.591568 
    0.515631     0.339872     0.552801 
EA21434 16.199 15.304 13.624 90.00 90.00 90.00 Sym.group:    0
1.0
   16.198776     0.000000     0.000000
    0.000000    15.303773     0.000000
    0.000000     0.000000    13.624217
   W   B
   7  21
Direct
    0.442347     0.535203     0.369799 
    0.562173     0.523077     0.526591 
    0.405423     0.475677     0.550237 
    0.531245     0.384001     0.425591 
    0.669154     0.587574     0.406841 
    0.698141     0.422043     0.512747 
    0.538456     0.675861     0.453164 
    0.647453     0.445789     0.377175 
    0.714301     0.560738     0.555548 
    0.571938     0.506324     0.331073 
    0.559003     0.613792     0.316908 
    0.462811     0.642987     0.595862 
    0.559744     0.668506     0.608810 
    0.649423     0.646693     0.557655 
    0.411790     0.619888     0.484301 
    0.608698     0.418241     0.635354 
    0.321846     0.461652     0.405711 
    0.397975     0.391571     0.403746 
    0.270225     0.474625     0.512615 
    0.287554     0.561347     0.574947 
    0.320433     0.376334     0.488806 
    0.503506     0.283993     0.538465 
    0.322254     0.563819     0.451244 
    0.507804     0.388934     0.595029 
    0.664573     0.503730     0.638778 
    0.366119     0.616476     0.607919 
    0.592322     0.325646     0.567526 
    0.413290     0.325480     0.507558 
EA21793 15.073 14.082 15.859 90.00 90.00 90.00 Sym.group:    0
1.0
   15.073133     0.000000     0.000000
    0.000000    14.082319     0.000000
    0.000000     0.000000    15.859311
   W   B
   6  21
Direct
    0.410660     0.519782     0.466416 
    0.498258     0.613815     0.595528 
    0.516831     0.354530     0.404002 
    0.576338     0.499671     0.485892 
    0.734553     0.476186     0.506671 
    0.501056     0.446197     0.633626 
    0.496004     0.673714     0.467753 
    0.297706     0.634282     0.466561 
    0.375702     0.363510     0.444562 
    0.346333     0.613242     0.571298 
    0.285324     0.511669     0.543088 
    0.392004     0.682365     0.497439 
    0.256956     0.534913     0.435540 
    0.285713     0.428134     0.451613 
    0.445093     0.351599     0.528700 
    0.350515     0.407454     0.553694 
    0.370983     0.508676     0.613197 
    0.666933     0.407432     0.393897 
    0.583617     0.465658     0.340034 
    0.644095     0.348046     0.482740 
    0.553831     0.337504     0.542870 
    0.640979     0.396408     0.586868 
    0.641895     0.511819     0.617425 
    0.688316     0.609098     0.450530 
    0.673344     0.527538     0.376228 
    0.666431     0.607559     0.556845 
    0.600527     0.669200     0.486981 
EA21814 17.120 16.507 14.253 90.00 90.00 90.00 Sym.group:    0
1.0
   17.119605     0.000000     0.000000
    0.000000    16.507121     0.000000
    0.000000     0.000000    14.253042
   W   B
  10  25
Direct
    0.414806     0.488261     0.510520 
    0.337563     0.322417     0.524162 
    0.500799     0.369309     0.428899 
    0.350480     0.371384     0.364209 
    0.312116     0.450304     0.625501 
    0.440262     0.496491     0.325672 
    0.474978     0.629091     0.421721 
    0.681701     0.516861     0.385889 
    0.574537     0.533266     0.504038 
    0.537898     0.398609     0.600033 
    0.313936     0.494637     0.378385 
    0.355931     0.583583     0.390305 
    0.331547     0.582991     0.596009 
    0.292348     0.541081     0.496355 
    0.432286     0.620564     0.578696 
    0.403559     0.548886     0.662729 
    0.282846     0.437379     0.471270 
    0.414004     0.366176     0.641840 
    0.437179     0.458487     0.678835 
    0.453556     0.304308     0.561882 
    0.358385     0.624551     0.495383 
    0.627181     0.393215     0.389128 
    0.569410     0.457660     0.335911 
    0.611981     0.630912     0.382920 
    0.586225     0.680625     0.480106 
    0.672862     0.625444     0.481672 
    0.683403     0.573520     0.600276 
    0.620567     0.647930     0.583921 
    0.560735     0.560113     0.326817 
    0.524790     0.656830     0.567683 
    0.648943     0.484152     0.636441 
    0.619781     0.351153     0.494332 
    0.700865     0.407132     0.465154 
    0.665041     0.401881     0.577077 
    0.707500     0.490795     0.536229 
EA22401 16.170 14.428 13.942 90.00 90.00 90.00 Sym.group:    0
1.0
   16.169834     0.000000     0.000000
    0.000000    14.427952     0.000000
    0.000000     0.000000    13.941967
   W   B
   9  21
Direct
    0.499114     0.571733     0.341089 
    0.553945     0.494089     0.503742 
    0.473785     0.324024     0.468321 
    0.705422     0.554075     0.510728 
    0.371089     0.448019     0.367653 
    0.474933     0.676354     0.497364 
    0.362631     0.643083     0.358689 
    0.539301     0.382593     0.637475 
    0.425163     0.539199     0.625911 
    0.610225     0.666666     0.547592 
    0.604674     0.641227     0.431378 
    0.673265     0.407988     0.557639 
    0.637137     0.594002     0.635289 
    0.588212     0.359221     0.390979 
    0.650611     0.481396     0.645529 
    0.503358     0.410688     0.342487 
    0.668574     0.428479     0.432149 
    0.600135     0.458736     0.332911 
    0.645067     0.553154     0.370823 
    0.557067     0.526520     0.682231 
    0.607701     0.334589     0.505898 
    0.323164     0.431992     0.596811 
    0.290239     0.552989     0.443085 
    0.347653     0.359657     0.498860 
    0.297771     0.536670     0.567601 
    0.344869     0.629608     0.521268 
    0.417035     0.543338     0.468740 
    0.281611     0.445667     0.486524 
    0.410369     0.373086     0.601781 
    0.535881     0.631158     0.629448 
EA22738 15.980 15.059 14.736 90.00 90.00 90.00 Sym.group:    0
1.0
   15.979644     0.000000     0.000000
    0.000000    15.059192     0.000000
    0.000000     0.000000    14.735851
   W   B
   9  21
Direct
    0.435562     0.417559     0.552000 
    0.607289     0.608642     0.423933 
    0.617981     0.433525     0.596225 
    0.409482     0.555311     0.428724 
    0.488167     0.584955     0.590156 
    0.511583     0.395362     0.397902 
    0.279710     0.485245     0.519699 
    0.314934     0.633389     0.561712 
    0.360978     0.328690     0.432824 
    0.543808     0.503060     0.702685 
    0.465715     0.498796     0.303193 
    0.677075     0.492269     0.476571 
    0.532692     0.705956     0.509670 
    0.480534     0.286650     0.495603 
    0.607235     0.659327     0.570968 
    0.646878     0.387979     0.455366 
    0.503017     0.602792     0.326178 
    0.508630     0.397106     0.683085 
    0.568758     0.515847     0.314643 
    0.438839     0.483442     0.692439 
    0.583634     0.319180     0.509024 
    0.424885     0.687480     0.500973 
    0.306594     0.451079     0.385581 
    0.665666     0.567902     0.556430 
    0.391678     0.427269     0.328457 
    0.611877     0.573181     0.654100 
    0.528379     0.319090     0.604920 
    0.488798     0.677795     0.408975 
    0.359415     0.531542     0.643728 
    0.640202     0.469579     0.374236 
EA22889 16.124 14.226 13.977 90.00 90.00 90.00 Sym.group:    0
1.0
   16.123713     0.000000     0.000000
    0.000000    14.225740     0.000000
    0.000000     0.000000    13.976951
   W   B
   8  25
Direct
    0.493146     0.438867     0.653342 
    0.584723     0.493057     0.501132 
    0.404176     0.331106     0.554476 
    0.422394     0.515037     0.495248 
    0.292307     0.558773     0.405005 
    0.510985     0.439837     0.324132 
    0.553013     0.606800     0.365382 
    0.494311     0.642129     0.639805 
    0.599228     0.657662     0.550421 
    0.600453     0.566725     0.662998 
    0.681395     0.622125     0.491121 
    0.652280     0.470935     0.649834 
    0.619486     0.365696     0.612170 
    0.702480     0.414007     0.559077 
    0.690620     0.553379     0.399211 
    0.696882     0.419132     0.440187 
    0.351140     0.445740     0.630436 
    0.389040     0.549922     0.663785 
    0.354412     0.647954     0.614429 
    0.301254     0.557803     0.570892 
    0.489941     0.658481     0.486720 
    0.413385     0.649985     0.398605 
    0.352273     0.660794     0.496866 
    0.644452     0.469274     0.342740 
    0.538126     0.314927     0.565556 
    0.519100     0.331386     0.444931 
    0.612102     0.367158     0.393645 
    0.290593     0.446831     0.531329 
    0.322678     0.400116     0.430906 
    0.419104     0.362297     0.403681 
    0.372626     0.451699     0.338517 
    0.420645     0.558826     0.323377 
    0.711251     0.531540     0.560042 
EA23199 17.219 14.920 14.432 90.00 90.00 90.00 Sym.group:    0
1.0
   17.219363     0.000000     0.000000
    0.000000    14.919575     0.000000
    0.000000     0.000000    14.431990
   W   B
   9  25
Direct
    0.617799     0.341091     0.472929 
    0.346751     0.411807     0.572763 
    0.400848     0.535677     0.462322 
    0.506950     0.665111     0.413008 
    0.497730     0.638232     0.585251 
    0.590151     0.422900     0.332365 
    0.580503     0.513961     0.492102 
    0.718610     0.580347     0.497498 
    0.551147     0.505378     0.677946 
    0.265278     0.529692     0.503207 
    0.288478     0.451742     0.430200 
    0.365108     0.377278     0.428630 
    0.506974     0.292022     0.511235 
    0.434132     0.445599     0.332726 
    0.410564     0.305924     0.493923 
    0.415914     0.527321     0.630134 
    0.315291     0.551562     0.600838 
    0.628495     0.413365     0.612488 
    0.536861     0.371803     0.596681 
    0.344213     0.450600     0.339823 
    0.444463     0.324459     0.596051 
    0.373760     0.638374     0.599420 
    0.306433     0.632808     0.512223 
    0.391518     0.685831     0.492322 
    0.500508     0.522841     0.360513 
    0.700533     0.440585     0.538919 
    0.701298     0.451011     0.422905 
    0.675071     0.515231     0.626556 
    0.628420     0.614525     0.610158 
    0.636162     0.638286     0.400610 
    0.671397     0.538113     0.358154 
    0.582274     0.576033     0.328762 
    0.611914     0.670652     0.509222 
    0.454453     0.419837     0.658113 
EA23506 16.351 16.842 13.958 90.00 90.00 90.00 Sym.group:    0
1.0
   16.350675     0.000000     0.000000
    0.000000    16.842319     0.000000
    0.000000     0.000000    13.957852
   W   B
  10  25
Direct
    0.612130     0.405079     0.336156 
    0.422314     0.548568     0.518351 
    0.371715     0.413827     0.442715 
    0.480513     0.519766     0.343543 
    0.487579     0.682239     0.441287 
    0.328505     0.490655     0.641399 
    0.546786     0.633889     0.601833 
    0.590611     0.506692     0.488428 
    0.449385     0.402270     0.625789 
    0.691674     0.430351     0.606795 
    0.701727     0.503817     0.376553 
    0.580666     0.611937     0.368432 
    0.617413     0.532011     0.319761 
    0.552532     0.317617     0.415438 
    0.395142     0.308287     0.539882 
    0.485759     0.387799     0.364009 
    0.356893     0.675964     0.485024 
    0.321309     0.363829     0.579998 
    0.255487     0.428086     0.538291 
    0.340128     0.531975     0.380525 
    0.295826     0.602722     0.454650 
    0.276553     0.509812     0.480407 
    0.379850     0.622355     0.381703 
    0.420579     0.680731     0.578753 
    0.615852     0.645684     0.473941 
    0.640887     0.538584     0.645034 
    0.632261     0.365170     0.483782 
    0.710190     0.428153     0.451981 
    0.729356     0.522733     0.491089 
    0.677271     0.594032     0.552575 
    0.492853     0.319428     0.510532 
    0.566284     0.467774     0.651087 
    0.576023     0.373584     0.592211 
    0.476193     0.525488     0.673713 
    0.421757     0.609095     0.664331 
EA23863 17.116 15.586 14.821 90.00 90.00 90.00 Sym.group:    0
1.0
   17.115766     0.000000     0.000000
    0.000000    15.585688     0.000000
    0.000000     0.000000    14.821454
   W   B
   9  25
Direct
    0.654057     0.518238     0.354726 
    0.520013     0.386616     0.590653 
    0.588717     0.521501     0.497533 
    0.491252     0.662506     0.543584 
    0.405094     0.473779     0.677874 
    0.504235     0.615257     0.358834 
    0.433339     0.508151     0.497504 
    0.500824     0.391904     0.396468 
    0.292028     0.531754     0.452153 
    0.578604     0.293783     0.478070 
    0.620814     0.649510     0.394246 
    0.613349     0.484005     0.644826 
    0.667125     0.431906     0.574907 
    0.711101     0.435114     0.472842 
    0.639744     0.368795     0.480419 
    0.690587     0.621815     0.462993 
    0.611966     0.664654     0.516081 
    0.730163     0.532131     0.483183 
    0.481706     0.588806     0.677271 
    0.528572     0.494252     0.697319 
    0.571436     0.584956     0.634392 
    0.396319     0.608979     0.634549 
    0.388845     0.376979     0.578531 
    0.413990     0.314963     0.492328 
    0.493212     0.266907     0.484637 
    0.380113     0.565471     0.352872 
    0.315051     0.446925     0.565514 
    0.319826     0.550094     0.595978 
    0.354173     0.632270     0.532864 
    0.393173     0.643953     0.431927 
    0.349157     0.393462     0.463098 
    0.448218     0.496550     0.314021 
    0.370201     0.453901     0.367298 
    0.542997     0.490116     0.300506 
EA24221 16.641 15.447 15.095 90.00 90.00 90.00 Sym.group:    0
1.0
   16.641324     0.000000     0.000000
    0.000000    15.447276     0.000000
    0.000000     0.000000    15.095361
   W   B
   9  25
Direct
    0.325564     0.501621     0.628118 
    0.498933     0.385961     0.404084 
    0.405453     0.522938     0.487879 
    0.508800     0.658956     0.461634 
    0.618165     0.482181     0.331858 
    0.472282     0.605062     0.629577 
    0.567118     0.505983     0.503957 
    0.478890     0.394398     0.593758 
    0.702447     0.537683     0.571578 
    0.424754     0.293613     0.500543 
    0.344184     0.636398     0.617553 
    0.402882     0.479633     0.344573 
    0.333203     0.432605     0.403655 
    0.280865     0.427217     0.496218 
    0.361592     0.370371     0.504051 
    0.296688     0.614771     0.526007 
    0.390926     0.672194     0.526780 
    0.263701     0.525990     0.487160 
    0.536030     0.596971     0.322955 
    0.493642     0.498073     0.299211 
    0.443826     0.580959     0.357623 
    0.618741     0.617449     0.377458 
    0.632809     0.380207     0.428403 
    0.591837     0.331096     0.516076 
    0.513769     0.274204     0.515840 
    0.602736     0.561193     0.659018 
    0.702583     0.455868     0.450553 
    0.692684     0.559920     0.425729 
    0.646644     0.640369     0.485124 
    0.598315     0.640579     0.582029 
    0.668932     0.401497     0.544147 
    0.532908     0.487300     0.688501 
    0.614185     0.445891     0.632179 
    0.433913     0.480850     0.696172 
EA24570 16.680 15.136 15.082 90.00 90.00 90.00 Sym.group:    0
1.0
   16.680201     0.000000     0.000000
    0.000000    15.136156     0.000000
    0.000000     0.000000    15.081708
   W   B
   9  25
Direct
    0.683079     0.490910     0.607834 
    0.488456     0.630830     0.422282 
    0.593467     0.481778     0.470969 
    0.491760     0.346121     0.435682 
    0.364734     0.540740     0.350813 
    0.544485     0.380360     0.607016 
    0.432007     0.491582     0.506152 
    0.528510     0.588508     0.605530 
    0.309234     0.440627     0.588936 
    0.571345     0.705788     0.525768 
    0.667868     0.354943     0.577151 
    0.578335     0.551894     0.337777 
    0.650090     0.595199     0.396568 
    0.715563     0.579858     0.476588 
    0.636550     0.629566     0.514342 
    0.707210     0.387131     0.483414 
    0.615328     0.328384     0.486156 
    0.738168     0.481521     0.459556 
    0.447791     0.430470     0.311938 
    0.484341     0.536371     0.299896 
    0.541881     0.445238     0.337690 
    0.373428     0.396428     0.373902 
    0.358273     0.625244     0.465664 
    0.405116     0.662437     0.557746 
    0.483992     0.720124     0.554173 
    0.416796     0.407339     0.658983 
    0.292572     0.542924     0.482415 
    0.302492     0.442252     0.439920 
    0.357809     0.355257     0.479304 
    0.416884     0.341831     0.568304 
    0.332714     0.585949     0.578157 
    0.485306     0.482151     0.694890 
    0.399858     0.527903     0.650345 
    0.584560     0.492340     0.694139 
EA24867 16.382 15.365 14.568 90.00 90.00 90.00 Sym.group:    0
1.0
   16.382455     0.000000     0.000000
    0.000000    15.364838     0.000000
    0.000000     0.000000    14.567738
   W   B
  10  25
Direct
    0.417528     0.634274     0.634601 
    0.547818     0.550149     0.689989 
    0.409553     0.512577     0.494801 
    0.466658     0.659718     0.450677 
    0.532618     0.525667     0.326921 
    0.574559     0.524841     0.494696 
    0.585396     0.359947     0.406009 
    0.417066     0.336036     0.438426 
    0.373353     0.488567     0.678523 
    0.585779     0.379952     0.617443 
    0.299254     0.577016     0.586287 
    0.339785     0.649860     0.512285 
    0.321091     0.506864     0.377845 
    0.406333     0.567839     0.339277 
    0.337888     0.614579     0.406336 
    0.671124     0.565130     0.384292 
    0.602471     0.679732     0.506431 
    0.685215     0.623974     0.481300 
    0.542287     0.660321     0.593115 
    0.601983     0.643851     0.397040 
    0.716525     0.520854     0.484305 
    0.673710     0.460431     0.395244 
    0.639867     0.612207     0.595695 
    0.662519     0.495876     0.608034 
    0.680897     0.418737     0.512851 
    0.487165     0.424766     0.699038 
    0.638607     0.294587     0.518183 
    0.527848     0.287665     0.515612 
    0.502658     0.409098     0.511764 
    0.440528     0.376558     0.604075 
    0.408821     0.457840     0.335073 
    0.300385     0.428415     0.458252 
    0.340596     0.389415     0.560074 
    0.280188     0.474711     0.564504 
    0.481924     0.387945     0.321000 
EA25448 15.533 15.192 15.450 90.00 90.00 90.00 Sym.group:    0
1.0
   15.532946     0.000000     0.000000
    0.000000    15.191544     0.000000
    0.000000     0.000000    15.449511
   W   B
   8  22
Direct
    0.509156     0.412224     0.553701 
    0.494011     0.394405     0.376648 
    0.499171     0.577451     0.607945 
    0.677270     0.501579     0.486141 
    0.337876     0.500243     0.534306 
    0.343159     0.619024     0.398631 
    0.437389     0.268239     0.454597 
    0.502640     0.655450     0.372678 
    0.362817     0.616887     0.616490 
    0.440045     0.534671     0.333428 
    0.574633     0.469973     0.678784 
    0.624400     0.638727     0.448196 
    0.374377     0.353227     0.548148 
    0.628159     0.574401     0.364842 
    0.390790     0.412637     0.636279 
    0.363525     0.479791     0.387852 
    0.638597     0.537549     0.620147 
    0.431394     0.661368     0.499570 
    0.568505     0.307469     0.469479 
    0.319783     0.648887     0.524779 
    0.647581     0.363513     0.523899 
    0.366597     0.389804     0.446368 
    0.472127     0.461046     0.693475 
    0.382968     0.521485     0.666300 
    0.625366     0.465579     0.354840 
    0.538824     0.673380     0.505314 
    0.649481     0.427996     0.607984 
    0.631790     0.381607     0.418845 
    0.624963     0.621761     0.554096 
    0.542607     0.529624     0.316238 
EA25568 16.282 15.602 14.551 90.00 90.00 90.00 Sym.group:    0
1.0
   16.282228     0.000000     0.000000
    0.000000    15.602289     0.000000
    0.000000     0.000000    14.551151
   W   B
   9  25
Direct
    0.409479     0.400546     0.397461 
    0.531103     0.526319     0.332469 
    0.632809     0.330052     0.474266 
    0.594283     0.513165     0.494633 
    0.521345     0.667624     0.439099 
    0.454232     0.593461     0.589827 
    0.397211     0.450712     0.658938 
    0.573730     0.409015     0.626290 
    0.372494     0.635896     0.393558 
    0.299621     0.550444     0.484389 
    0.286001     0.464807     0.570455 
    0.317009     0.504297     0.377777 
    0.290450     0.438248     0.458572 
    0.400538     0.517115     0.317735 
    0.344080     0.383640     0.535784 
    0.630888     0.422737     0.360059 
    0.531073     0.296037     0.560881 
    0.540427     0.378038     0.377086 
    0.500158     0.310573     0.454181 
    0.673773     0.519217     0.362996 
    0.636456     0.615588     0.382972 
    0.674256     0.605798     0.590475 
    0.579911     0.648443     0.577212 
    0.649989     0.653813     0.492114 
    0.330100     0.642215     0.537521 
    0.407142     0.706835     0.510481 
    0.321101     0.556600     0.610428 
    0.587690     0.560291     0.648682 
    0.688701     0.506559     0.614638 
    0.700953     0.422539     0.551178 
    0.708886     0.440790     0.435065 
    0.506144     0.510696     0.705816 
    0.442194     0.353313     0.550696 
    0.465775     0.464580     0.526266 
EA26212 15.206 15.289 14.093 90.00 90.00 90.00 Sym.group:    0
1.0
   15.205929     0.000000     0.000000
    0.000000    15.288611     0.000000
    0.000000     0.000000    14.093154
   W   B
   6  22
Direct
    0.457875     0.558992     0.582180 
    0.409355     0.377879     0.551223 
    0.281781     0.582451     0.458675 
    0.451063     0.582238     0.387849 
    0.640331     0.475105     0.561456 
    0.446391     0.402290     0.370451 
    0.478859     0.694795     0.501282 
    0.376926     0.671118     0.487582 
    0.363077     0.467169     0.660669 
    0.325412     0.442767     0.452112 
    0.543961     0.323851     0.559785 
    0.310897     0.489307     0.563760 
    0.460987     0.442123     0.686355 
    0.592243     0.586536     0.643424 
    0.649207     0.617061     0.549850 
    0.557108     0.492758     0.689099 
    0.554530     0.391837     0.648099 
    0.558271     0.672250     0.574880 
    0.571104     0.648106     0.456472 
    0.597562     0.584362     0.364148 
    0.675146     0.574893     0.448312 
    0.335749     0.503960     0.354975 
    0.516065     0.466888     0.482309 
    0.598241     0.394411     0.356248 
    0.648607     0.481688     0.402717 
    0.551352     0.491475     0.327941 
    0.561681     0.306586     0.404512 
    0.486219     0.277103     0.473636 
EA26252 16.405 15.209 15.218 90.00 90.00 90.00 Sym.group:    0
1.0
   16.404939     0.000000     0.000000
    0.000000    15.208647     0.000000
    0.000000     0.000000    15.218082
   W   B
  10  24
Direct
    0.526258     0.338867     0.473533 
    0.453085     0.331500     0.624528 
    0.601860     0.382194     0.624944 
    0.478978     0.611039     0.410214 
    0.406176     0.459486     0.472952 
    0.264077     0.573024     0.480512 
    0.446373     0.508322     0.292388 
    0.604210     0.537699     0.327115 
    0.576905     0.508296     0.500214 
    0.462434     0.585784     0.606894 
    0.493105     0.454639     0.672756 
    0.571285     0.520959     0.664470 
    0.625675     0.406976     0.386444 
    0.694803     0.584102     0.439000 
    0.704162     0.464390     0.541923 
    0.601998     0.613969     0.605907 
    0.664799     0.520710     0.624829 
    0.546150     0.673290     0.523844 
    0.608407     0.644346     0.430207 
    0.348113     0.651638     0.560243 
    0.361298     0.662355     0.451009 
    0.348374     0.577283     0.376236 
    0.544203     0.412941     0.323427 
    0.451675     0.376505     0.342848 
    0.436827     0.699315     0.518523 
    0.333921     0.369336     0.580181 
    0.282394     0.456728     0.550627 
    0.400609     0.316089     0.405279 
    0.387499     0.302992     0.504650 
    0.333307     0.547612     0.595205 
    0.698497     0.473973     0.424774 
    0.660685     0.381459     0.487185 
    0.689342     0.592998     0.546753 
    0.392515     0.459184     0.630389 
EA26580 16.405 15.209 15.218 90.00 90.00 90.00 Sym.group:    0
1.0
   16.404939     0.000000     0.000000
    0.000000    15.208647     0.000000
    0.000000     0.000000    15.218082
   W   B
  10  24
Direct
    0.526258     0.338867     0.473533 
    0.453085     0.331500     0.624528 
    0.601860     0.382194     0.624944 
    0.478978     0.611039     0.410214 
    0.406176     0.459486     0.472952 
    0.264077     0.573024     0.480512 
    0.446373     0.508322     0.292388 
    0.604210     0.537699     0.327115 
    0.576905     0.508296     0.500214 
    0.462434     0.585784     0.606894 
    0.493105     0.454639     0.672756 
    0.571285     0.520959     0.664470 
    0.625675     0.406976     0.386444 
    0.694803     0.584102     0.439000 
    0.704162     0.464390     0.541923 
    0.601998     0.613969     0.605907 
    0.664799     0.520710     0.624829 
    0.546150     0.673290     0.523844 
    0.608407     0.644346     0.430207 
    0.348113     0.651638     0.560243 
    0.361298     0.662355     0.451009 
    0.348374     0.577283     0.376236 
    0.544203     0.412941     0.323427 
    0.451675     0.376505     0.342848 
    0.436827     0.699315     0.518523 
    0.333921     0.369336     0.580181 
    0.282394     0.456728     0.550627 
    0.400609     0.316089     0.405279 
    0.387499     0.302992     0.504650 
    0.333307     0.547612     0.595205 
    0.698497     0.473973     0.424774 
    0.660685     0.381459     0.487185 
    0.689342     0.592998     0.546753 
    0.392515     0.459184     0.630389 
EA27208 14.955 15.028 14.346 90.00 90.00 90.00 Sym.group:    0
1.0
   14.955355     0.000000     0.000000
    0.000000    15.028439     0.000000
    0.000000     0.000000    14.345853
   W   B
   6  22
Direct
    0.519590     0.583657     0.569107 
    0.342881     0.503886     0.553369 
    0.439823     0.721272     0.435221 
    0.541547     0.574071     0.380130 
    0.553086     0.376523     0.568984 
    0.387627     0.470612     0.371747 
    0.649631     0.631591     0.488747 
    0.569878     0.699006     0.466734 
    0.391998     0.616103     0.647696 
    0.357251     0.599754     0.442293 
    0.391110     0.362275     0.553456 
    0.377594     0.654970     0.544907 
    0.426616     0.524733     0.686258 
    0.621035     0.487167     0.645291 
    0.681645     0.450793     0.557532 
    0.522761     0.467661     0.686686 
    0.431013     0.417013     0.644439 
    0.673427     0.559780     0.570216 
    0.664234     0.519712     0.458414 
    0.627834     0.454946     0.371813 
    0.668064     0.394189     0.463824 
    0.408071     0.618578     0.342256 
    0.478501     0.475059     0.485432 
    0.478343     0.339710     0.399406 
    0.586825     0.352162     0.407624 
    0.524708     0.431198     0.343066 
    0.379644     0.325522     0.436854 
    0.305259     0.388059     0.478495 
EA27555 14.955 15.028 14.346 90.00 90.00 90.00 Sym.group:    0
1.0
   14.955355     0.000000     0.000000
    0.000000    15.028439     0.000000
    0.000000     0.000000    14.345853
   W   B
   6  22
Direct
    0.519590     0.583657     0.569107 
    0.342881     0.503886     0.553369 
    0.439823     0.721272     0.435221 
    0.541547     0.574071     0.380130 
    0.553086     0.376523     0.568984 
    0.387627     0.470612     0.371747 
    0.649631     0.631591     0.488747 
    0.569878     0.699006     0.466734 
    0.391998     0.616103     0.647696 
    0.357251     0.599754     0.442293 
    0.391110     0.362275     0.553456 
    0.377594     0.654970     0.544907 
    0.426616     0.524733     0.686258 
    0.621035     0.487167     0.645291 
    0.681645     0.450793     0.557532 
    0.522761     0.467661     0.686686 
    0.431013     0.417013     0.644439 
    0.673427     0.559780     0.570216 
    0.664234     0.519712     0.458414 
    0.627834     0.454946     0.371813 
    0.668064     0.394189     0.463824 
    0.408071     0.618578     0.342256 
    0.478501     0.475059     0.485432 
    0.478343     0.339710     0.399406 
    0.586825     0.352162     0.407624 
    0.524708     0.431198     0.343066 
    0.379644     0.325522     0.436854 
    0.305259     0.388059     0.478495 
EA27639 15.849 14.940 14.465 90.00 90.00 90.00 Sym.group:    0
1.0
   15.848564     0.000000     0.000000
    0.000000    14.940184     0.000000
    0.000000     0.000000    14.464781
   W   B
   8  25
Direct
    0.499842     0.502718     0.325989 
    0.298634     0.534410     0.536580 
    0.451931     0.469744     0.497152 
    0.440081     0.621848     0.612322 
    0.443659     0.659776     0.341912 
    0.597525     0.561334     0.500385 
    0.508128     0.331046     0.394829 
    0.577685     0.421715     0.636259 
    0.316177     0.447383     0.417229 
    0.308318     0.389206     0.516026 
    0.341827     0.418753     0.618911 
    0.356334     0.521547     0.667781 
    0.359473     0.551570     0.387014 
    0.546363     0.556378     0.690282 
    0.553446     0.696419     0.430335 
    0.580962     0.625953     0.350292 
    0.376504     0.634793     0.470795 
    0.579716     0.646459     0.634274 
    0.458275     0.704228     0.480884 
    0.460845     0.489516     0.678761 
    0.547057     0.701083     0.545622 
    0.397230     0.413818     0.350704 
    0.368669     0.345028     0.433274 
    0.608826     0.415959     0.334523 
    0.681343     0.459792     0.415553 
    0.635230     0.530398     0.348874 
    0.700025     0.489763     0.592336 
    0.645180     0.556568     0.651999 
    0.596060     0.326413     0.514366 
    0.499575     0.327321     0.551350 
    0.672997     0.413895     0.519703 
    0.445027     0.381880     0.633336 
    0.647057     0.353286     0.420348 
EA27979 15.455 15.019 14.640 90.00 90.00 90.00 Sym.group:    0
1.0
   15.454870     0.000000     0.000000
    0.000000    15.018542     0.000000
    0.000000     0.000000    14.639778
   W   B
   8  25
Direct
    0.510932     0.546094     0.336381 
    0.294979     0.450456     0.505000 
    0.449929     0.527373     0.505260 
    0.438078     0.350064     0.562913 
    0.460383     0.391411     0.296318 
    0.601654     0.443245     0.489264 
    0.506807     0.690924     0.455367 
    0.567050     0.537055     0.658938 
    0.315804     0.568871     0.420982 
    0.296077     0.595759     0.529567 
    0.324757     0.541019     0.620928 
    0.345397     0.431083     0.637440 
    0.367957     0.478781     0.366974 
    0.538850     0.391978     0.665813 
    0.569041     0.334818     0.379099 
    0.598946     0.425608     0.327734 
    0.382480     0.375025     0.420003 
    0.580289     0.324207     0.588428 
    0.469047     0.309793     0.415811 
    0.449478     0.455857     0.670005 
    0.555299     0.296374     0.485620 
    0.401503     0.623214     0.376839 
    0.362162     0.662967     0.472295 
    0.616512     0.630526     0.380379 
    0.687773     0.567560     0.449999 
    0.648886     0.519173     0.361144 
    0.697278     0.490126     0.603908 
    0.641460     0.407586     0.636337 
    0.588110     0.663846     0.576147 
    0.486999     0.648170     0.602340 
    0.671167     0.583827     0.561037 
    0.428285     0.570553     0.658424 
    0.646633     0.666651     0.483303 
EA28311 15.455 15.019 14.640 90.00 90.00 90.00 Sym.group:    0
1.0
   15.454870     0.000000     0.000000
    0.000000    15.018542     0.000000
    0.000000     0.000000    14.639778
   W   B
   8  25
Direct
    0.510932     0.546094     0.336381 
    0.294979     0.450456     0.505000 
    0.449929     0.527373     0.505260 
    0.438078     0.350064     0.562913 
    0.460383     0.391411     0.296318 
    0.601654     0.443245     0.489264 
    0.506807     0.690924     0.455367 
    0.567050     0.537055     0.658938 
    0.315804     0.568871     0.420982 
    0.296077     0.595759     0.529567 
    0.324757     0.541019     0.620928 
    0.345397     0.431083     0.637440 
    0.367957     0.478781     0.366974 
    0.538850     0.391978     0.665813 
    0.569041     0.334818     0.379099 
    0.598946     0.425608     0.327734 
    0.382480     0.375025     0.420003 
    0.580289     0.324207     0.588428 
    0.469047     0.309793     0.415811 
    0.449478     0.455857     0.670005 
    0.555299     0.296374     0.485620 
    0.401503     0.623214     0.376839 
    0.362162     0.662967     0.472295 
    0.616512     0.630526     0.380379 
    0.687773     0.567560     0.449999 
    0.648886     0.519173     0.361144 
    0.697278     0.490126     0.603908 
    0.641460     0.407586     0.636337 
    0.588110     0.663846     0.576147 
    0.486999     0.648170     0.602340 
    0.671167     0.583827     0.561037 
    0.428285     0.570553     0.658424 
    0.646633     0.666651     0.483303 
EA28653 15.455 15.019 14.640 90.00 90.00 90.00 Sym.group:    0
1.0
   15.454870     0.000000     0.000000
    0.000000    15.018542     0.000000
    0.000000     0.000000    14.639778
   W   B
   8  25
Direct
    0.510932     0.546094     0.336381 
    0.294979     0.450456     0.505000 
    0.449929     0.527373     0.505260 
    0.438078     0.350064     0.562913 
    0.460383     0.391411     0.296318 
    0.601654     0.443245     0.489264 
    0.506807     0.690924     0.455367 
    0.567050     0.537055     0.658938 
    0.315804     0.568871     0.420982 
    0.296077     0.595759     0.529567 
    0.324757     0.541019     0.620928 
    0.345397     0.431083     0.637440 
    0.367957     0.478781     0.366974 
    0.538850     0.391978     0.665813 
    0.569041     0.334818     0.379099 
    0.598946     0.425608     0.327734 
    0.382480     0.375025     0.420003 
    0.580289     0.324207     0.588428 
    0.469047     0.309793     0.415811 
    0.449478     0.455857     0.670005 
    0.555299     0.296374     0.485620 
    0.401503     0.623214     0.376839 
    0.362162     0.662967     0.472295 
    0.616512     0.630526     0.380379 
    0.687773     0.567560     0.449999 
    0.648886     0.519173     0.361144 
    0.697278     0.490126     0.603908 
    0.641460     0.407586     0.636337 
    0.588110     0.663846     0.576147 
    0.486999     0.648170     0.602340 
    0.671167     0.583827     0.561037 
    0.428285     0.570553     0.658424 
    0.646633     0.666651     0.483303 
EA29263 16.112 14.101 13.476 90.00 90.00 90.00 Sym.group:    0
1.0
   16.111986     0.000000     0.000000
    0.000000    14.101187     0.000000
    0.000000     0.000000    13.476129
   W   B
   6  21
Direct
    0.574979     0.484113     0.532079 
    0.463575     0.357791     0.429779 
    0.688190     0.477060     0.389272 
    0.437818     0.549312     0.417758 
    0.463069     0.484636     0.683508 
    0.476105     0.652869     0.586411 
    0.704684     0.568022     0.533842 
    0.674618     0.364799     0.509279 
    0.721661     0.456677     0.546720 
    0.604810     0.359392     0.411952 
    0.551467     0.645905     0.459882 
    0.580205     0.316922     0.525411 
    0.549584     0.451877     0.359902 
    0.571730     0.565276     0.371227 
    0.618299     0.637498     0.565135 
    0.353561     0.410568     0.354643 
    0.648880     0.612241     0.442093 
    0.407142     0.382026     0.579436 
    0.503600     0.356185     0.593170 
    0.366373     0.577373     0.625790 
    0.310319     0.537724     0.511913 
    0.344065     0.465626     0.605143 
    0.349794     0.430234     0.479865 
    0.303857     0.507616     0.380542 
    0.566076     0.580494     0.665874 
    0.354920     0.650319     0.519396 
    0.310617     0.617447     0.419976 
EA29454 14.376 14.640 13.869 90.00 90.00 90.00 Sym.group:    0
1.0
   14.375729     0.000000     0.000000
    0.000000    14.640441     0.000000
    0.000000     0.000000    13.868773
   W   B
   7  24
Direct
    0.480079     0.527527     0.510504 
    0.527017     0.552564     0.688280 
    0.475150     0.445369     0.313470 
    0.661572     0.400850     0.508091 
    0.334225     0.599337     0.489667 
    0.403234     0.348983     0.562798 
    0.599264     0.647641     0.436161 
    0.553421     0.336505     0.606054 
    0.447873     0.662792     0.392114 
    0.627289     0.432202     0.352795 
    0.373650     0.566473     0.648292 
    0.365457     0.380891     0.408963 
    0.638367     0.617594     0.591286 
    0.458657     0.321741     0.412834 
    0.543143     0.675513     0.586019 
    0.680850     0.519316     0.405365 
    0.320657     0.478088     0.594148 
    0.394241     0.574422     0.337835 
    0.606820     0.423462     0.659986 
    0.506068     0.595427     0.315991 
    0.495976     0.400615     0.685234 
    0.695459     0.550089     0.515358 
    0.305139     0.446633     0.483785 
    0.431863     0.654355     0.610159 
    0.569435     0.345623     0.390000 
    0.462700     0.696622     0.502399 
    0.538882     0.303971     0.496714 
    0.664170     0.511077     0.623162 
    0.336328     0.486319     0.374357 
    0.401838     0.459577     0.677416 
    0.601176     0.538423     0.320762 
EA29801 14.851 14.989 14.438 90.00 90.00 90.00 Sym.group:    0
1.0
   14.851133     0.000000     0.000000
    0.000000    14.988580     0.000000
    0.000000     0.000000    14.438153
   W   B
   8  23
Direct
    0.488196     0.487128     0.467294 
    0.619941     0.437252     0.366386 
    0.389166     0.558318     0.631551 
    0.584477     0.392972     0.629982 
    0.420602     0.612425     0.371756 
    0.617830     0.630715     0.539329 
    0.376469     0.366922     0.466557 
    0.311422     0.398476     0.638585 
    0.682468     0.500798     0.581819 
    0.324165     0.502780     0.416527 
    0.443833     0.426690     0.681226 
    0.561331     0.571806     0.322420 
    0.482262     0.674344     0.587668 
    0.521828     0.327190     0.413252 
    0.532270     0.612508     0.663295 
    0.471978     0.389519     0.337397 
    0.437814     0.335846     0.612665 
    0.563843     0.658164     0.395897 
    0.327792     0.587254     0.490725 
    0.683775     0.415201     0.507568 
    0.299409     0.485837     0.528764 
    0.696743     0.518501     0.468576 
    0.506763     0.317556     0.527518 
    0.495665     0.698710     0.473637 
    0.489653     0.493243     0.296547 
    0.515115     0.506454     0.693464 
    0.387557     0.463289     0.334938 
    0.616305     0.539014     0.660946 
    0.608527     0.339385     0.485286 
    0.395261     0.668754     0.514899 
    0.647538     0.582950     0.393527 
EA30134 15.033 14.647 14.349 90.00 90.00 90.00 Sym.group:    0
1.0
   15.032825     0.000000     0.000000
    0.000000    14.647183     0.000000
    0.000000     0.000000    14.349347
   W   B
   6  25
Direct
    0.532479     0.551146     0.508629 
    0.354122     0.603058     0.448730 
    0.625592     0.387168     0.553866 
    0.433612     0.500889     0.675644 
    0.544603     0.489962     0.319751 
    0.430107     0.411555     0.482469 
    0.755563     0.597927     0.474346 
    0.330886     0.425857     0.595980 
    0.666960     0.609315     0.415347 
    0.578299     0.462896     0.679181 
    0.402959     0.528754     0.319918 
    0.537469     0.303451     0.463111 
    0.454403     0.688329     0.536629 
    0.500366     0.305173     0.568578 
    0.485410     0.688162     0.432872 
    0.566029     0.576083     0.671479 
    0.417949     0.417176     0.324932 
    0.654399     0.472966     0.424275 
    0.316741     0.536523     0.582886 
    0.707344     0.512153     0.522494 
    0.293548     0.471787     0.490609 
    0.485549     0.641502     0.641991 
    0.500602     0.350300     0.356000 
    0.467788     0.616051     0.348275 
    0.515877     0.371000     0.662917 
    0.570321     0.634168     0.372818 
    0.408499     0.359140     0.627849 
    0.384978     0.621015     0.598229 
    0.600310     0.373594     0.398969 
    0.328979     0.469645     0.382889 
    0.648258     0.523255     0.618336 
EA30457 14.335 14.593 14.294 90.00 90.00 90.00 Sym.group:    0
1.0
   14.334844     0.000000     0.000000
    0.000000    14.593172     0.000000
    0.000000     0.000000    14.293964
   W   B
   8  23
Direct
    0.498598     0.458724     0.491502 
    0.312943     0.500025     0.501050 
    0.686473     0.508578     0.503691 
    0.506861     0.512512     0.311929 
    0.496833     0.507601     0.684226 
    0.498202     0.632694     0.488808 
    0.571505     0.666977     0.312402 
    0.500427     0.295810     0.514495 
    0.428547     0.646086     0.348824 
    0.555510     0.366426     0.644907 
    0.625150     0.450339     0.381020 
    0.356815     0.561057     0.637713 
    0.642237     0.644187     0.554565 
    0.361278     0.357083     0.448208 
    0.652838     0.647610     0.440087 
    0.360121     0.360812     0.561531 
    0.559214     0.354999     0.367355 
    0.439187     0.642446     0.637169 
    0.634628     0.452708     0.639709 
    0.362351     0.553718     0.364526 
    0.642508     0.364459     0.564679 
    0.346737     0.639472     0.438792 
    0.446847     0.353353     0.366730 
    0.552624     0.644180     0.638796 
    0.362553     0.449041     0.638081 
    0.657543     0.560205     0.361299 
    0.442291     0.362634     0.645718 
    0.371262     0.440920     0.368378 
    0.636154     0.565557     0.639029 
    0.353589     0.640459     0.552755 
    0.638170     0.359329     0.452031 
EA30967 15.193 14.522 13.753 90.00 90.00 90.00 Sym.group:    0
1.0
   15.193320     0.000000     0.000000
    0.000000    14.521596     0.000000
    0.000000     0.000000    13.753004
   W   B
   6  21
Direct
    0.352377     0.507437     0.610551 
    0.562584     0.335119     0.594643 
    0.431621     0.383819     0.461315 
    0.503152     0.545752     0.518736 
    0.676601     0.532288     0.493365 
    0.484828     0.493647     0.317738 
    0.308387     0.371246     0.553965 
    0.294883     0.450797     0.473522 
    0.393082     0.359439     0.619981 
    0.550312     0.300253     0.451204 
    0.470436     0.435056     0.640054 
    0.372041     0.636686     0.523833 
    0.312716     0.563616     0.465473 
    0.355602     0.492770     0.377035 
    0.432186     0.648365     0.620162 
    0.403213     0.601120     0.400772 
    0.621705     0.458471     0.362085 
    0.618033     0.663626     0.554766 
    0.595501     0.659132     0.439397 
    0.549614     0.369193     0.358062 
    0.629772     0.471412     0.635073 
    0.683823     0.397838     0.567334 
    0.533948     0.659014     0.635285 
    0.601132     0.569725     0.362661 
    0.506671     0.634616     0.372832 
    0.618524     0.581249     0.633761 
    0.637254     0.378316     0.456394 
