EA21528 11.917 11.902  9.119 90.00 90.00 90.00 Sym.group:    0
1.0
   11.917297     0.000000     0.000000
    0.000000    11.902443     0.000000
    0.000000     0.000000     9.119061
   B
  16
Direct
    0.337988     0.575661     0.578553 
    0.575870     0.661945     0.578300 
    0.662010     0.424342     0.578552 
    0.424126     0.338056     0.578300 
    0.507908     0.679068     0.421816 
    0.320901     0.508216     0.421552 
    0.492092     0.320930     0.421815 
    0.679100     0.491782     0.421554 
    0.438886     0.669014     0.578307 
    0.669702     0.561562     0.577647 
    0.561115     0.330986     0.578308 
    0.330301     0.438435     0.577646 
    0.378610     0.633109     0.422253 
    0.367459     0.378978     0.421573 
    0.621390     0.366893     0.422254 
    0.632540     0.621024     0.421570 
EA12297 12.625 12.067  9.738 90.00 90.00 90.00 Sym.group:    0
1.0
   12.625110     0.000000     0.000000
    0.000000    12.067211     0.000000
    0.000000     0.000000     9.738263
   B
  17
Direct
    0.685716     0.571515     0.545614 
    0.676072     0.492132     0.406459 
    0.678148     0.438461     0.564316 
    0.626709     0.616688     0.402987 
    0.581373     0.353419     0.592211 
    0.453620     0.356278     0.598548 
    0.511579     0.313521     0.454843 
    0.627996     0.366187     0.432787 
    0.381542     0.335462     0.456142 
    0.364408     0.586271     0.599081 
    0.359111     0.448111     0.558951 
    0.466818     0.665665     0.586010 
    0.593356     0.664461     0.558062 
    0.295822     0.545800     0.464384 
    0.296275     0.423009     0.407067 
    0.390062     0.642993     0.448045 
    0.511393     0.680029     0.424493 
EA21431 12.089 12.556 10.087 90.00 90.00 90.00 Sym.group:    0
1.0
   12.088516     0.000000     0.000000
    0.000000    12.556317     0.000000
    0.000000     0.000000    10.087038
   B
  18
Direct
    0.431242     0.320790     0.425517 
    0.629190     0.355611     0.571509 
    0.690489     0.532544     0.427903 
    0.568634     0.679169     0.574583 
    0.370867     0.644305     0.428231 
    0.309524     0.467533     0.572146 
    0.326242     0.594968     0.572959 
    0.332415     0.404956     0.425669 
    0.498593     0.312436     0.571167 
    0.673815     0.405156     0.426916 
    0.667579     0.594866     0.574585 
    0.501276     0.687583     0.428970 
    0.567018     0.327307     0.425403 
    0.695106     0.465022     0.572756 
    0.626731     0.648489     0.429439 
    0.432853     0.672785     0.574428 
    0.305116     0.534841     0.427080 
    0.373311     0.351639     0.570740 
EA2173 13.432 10.378 13.463 90.00 90.00 90.00 Sym.group:    0
1.0
   13.432295     0.000000     0.000000
    0.000000    10.378204     0.000000
    0.000000     0.000000    13.462533
   B
  19
Direct
    0.237514     0.534021     0.511344 
    0.635761     0.744728     0.513448 
    0.393214     0.719863     0.523046 
    0.464787     0.596860     0.478228 
    0.356791     0.556184     0.520535 
    0.702067     0.615501     0.508225 
    0.516062     0.745269     0.511405 
    0.277140     0.676188     0.526784 
    0.583812     0.621860     0.458157 
    0.428280     0.430611     0.468817 
    0.643190     0.472812     0.452688 
    0.528241     0.486484     0.412745 
    0.374846     0.282557     0.516215 
    0.598420     0.225044     0.534326 
    0.740912     0.472256     0.527342 
    0.679629     0.339629     0.527137 
    0.303036     0.401744     0.502068 
    0.484204     0.222233     0.523598 
    0.552095     0.356158     0.483893 
EA21334 12.494 12.413  8.760 90.00 90.00 90.00 Sym.group:    0
1.0
   12.494364     0.000000     0.000000
    0.000000    12.413456     0.000000
    0.000000     0.000000     8.759632
   B
  20
Direct
    0.611742     0.677829     0.585714 
    0.702566     0.448116     0.585620 
    0.513451     0.290202     0.585917 
    0.305738     0.422248     0.585554 
    0.366517     0.661700     0.585786 
    0.577247     0.304530     0.414459 
    0.708416     0.513455     0.414031 
    0.551631     0.703811     0.414364 
    0.323272     0.612511     0.414300 
    0.339328     0.365678     0.414236 
    0.291473     0.486543     0.414194 
    0.422762     0.695443     0.414562 
    0.660767     0.634383     0.414444 
    0.676763     0.387444     0.414408 
    0.448365     0.296084     0.414514 
    0.297347     0.551884     0.585479 
    0.388258     0.322174     0.585571 
    0.633535     0.338261     0.585641 
    0.694296     0.577787     0.585450 
    0.486528     0.709918     0.585757 
