EA9    11.978 12.460  9.667 90.00 90.00 90.00 Sym.group:    0
1.0
   11.978201     0.000000     0.000000
    0.000000    12.460321     0.000000
    0.000000     0.000000     9.666959
   B
  20
Direct
    0.231030     0.500005     0.500003 
    0.768970     0.499996     0.500004 
    0.563257     0.599550     0.660528 
    0.563255     0.400459     0.339469 
    0.436746     0.400449     0.660527 
    0.436732     0.599542     0.339465 
    0.436743     0.599551     0.660531 
    0.436740     0.400454     0.339475 
    0.563251     0.400452     0.660530 
    0.563272     0.599549     0.339476 
    0.679368     0.569823     0.410531 
    0.679368     0.430176     0.589458 
    0.320631     0.430174     0.410530 
    0.320633     0.569824     0.589461 
    0.320639     0.569823     0.410536 
    0.320629     0.430178     0.589466 
    0.679368     0.430178     0.410540 
    0.679369     0.569822     0.589468 
    0.499990     0.610150     0.500002 
    0.500008     0.389846     0.500002 
EA409  11.734 11.734  9.367 90.00 90.00 90.00 Sym.group:    0
1.0
   11.734277     0.000000     0.000000
    0.000000    11.734296     0.000000
    0.000000     0.000000     9.367054
   B
  16
Direct
    0.679353     0.523899     0.577119 
    0.476320     0.680112     0.575622 
    0.320649     0.476133     0.577161 
    0.523690     0.319912     0.575740 
    0.546930     0.674876     0.422943 
    0.676305     0.453180     0.424362 
    0.453055     0.325100     0.423062 
    0.323686     0.546786     0.424359 
    0.611327     0.645897     0.575489 
    0.355138     0.611227     0.576275 
    0.388687     0.354140     0.575598 
    0.644872     0.388795     0.576315 
    0.658947     0.591497     0.424410 
    0.591548     0.342561     0.423574 
    0.341047     0.408477     0.424488 
    0.408445     0.657407     0.423482 
EA458  10.551 12.702 12.447 90.00 90.00 90.00 Sym.group:    0
1.0
   10.551437     0.000000     0.000000
    0.000000    12.701756     0.000000
    0.000000     0.000000    12.446900
   B
  20
Direct
    0.756660     0.405914     0.550366 
    0.547848     0.319380     0.430680 
    0.708087     0.604710     0.437325 
    0.397592     0.333243     0.422824 
    0.752506     0.480656     0.441409 
    0.627130     0.709355     0.440139 
    0.273255     0.406786     0.403047 
    0.689775     0.361368     0.437506 
    0.264933     0.603605     0.518391 
    0.310440     0.376729     0.530857 
    0.483148     0.723839     0.480638 
    0.222857     0.480210     0.499189 
    0.334365     0.710912     0.500436 
    0.619390     0.354679     0.561762 
    0.673844     0.514365     0.562444 
    0.576854     0.611858     0.516674 
    0.421039     0.615993     0.553140 
    0.359700     0.493084     0.577252 
    0.466823     0.379448     0.549893 
    0.513752     0.513863     0.586028 
EA685  11.251 12.502 11.821 90.00 90.00 90.00 Sym.group:    0
1.0
   11.251185     0.000000     0.000000
    0.000000    12.502247     0.000000
    0.000000     0.000000    11.820828
   B
  20
Direct
    0.541988     0.416832     0.416347 
    0.621995     0.534034     0.382897 
    0.548341     0.649974     0.421423 
    0.480483     0.534070     0.365939 
    0.391935     0.435447     0.395020 
    0.684306     0.382870     0.476100 
    0.574725     0.329662     0.531933 
    0.731517     0.503388     0.487221 
    0.250940     0.483065     0.454499 
    0.435140     0.335992     0.494444 
    0.296046     0.366895     0.484860 
    0.474995     0.469802     0.629388 
    0.536609     0.597071     0.610991 
    0.618916     0.454517     0.603884 
    0.677159     0.578966     0.593220 
    0.686831     0.626824     0.460685 
    0.421881     0.651099     0.487446 
    0.394367     0.586196     0.617081 
    0.337311     0.467437     0.572678 
    0.294513     0.595861     0.513944 
EA941  12.421 11.423 11.277 90.00 90.00 90.00 Sym.group:    0
1.0
   12.420888     0.000000     0.000000
    0.000000    11.423430     0.000000
    0.000000     0.000000    11.277149
   B
  20
Direct
    0.525354     0.645910     0.516889 
    0.380532     0.409063     0.614871 
    0.651672     0.412346     0.552880 
    0.639811     0.566654     0.561872 
    0.446507     0.339730     0.503172 
    0.412782     0.633406     0.604819 
    0.616986     0.478482     0.674431 
    0.523246     0.574364     0.652765 
    0.511280     0.403328     0.629020 
    0.325293     0.537744     0.553516 
    0.398178     0.626449     0.457871 
    0.325346     0.405952     0.483029 
    0.669590     0.496592     0.418168 
    0.410317     0.574732     0.313222 
    0.529460     0.613255     0.360120 
    0.680526     0.359294     0.420795 
    0.431401     0.445337     0.395463 
    0.641286     0.636410     0.432388 
    0.314234     0.524893     0.397362 
    0.566198     0.316057     0.457345 
EA1206 12.991 12.297 10.922 90.00 90.00 90.00 Sym.group:    0
1.0
   12.991397     0.000000     0.000000
    0.000000    12.296845     0.000000
    0.000000     0.000000    10.921848
   B
  20
Direct
    0.489304     0.647651     0.393658 
    0.385156     0.663977     0.484783 
    0.473274     0.410149     0.403517 
    0.403422     0.538003     0.401196 
    0.494580     0.683184     0.548270 
    0.602828     0.655067     0.468395 
    0.517352     0.521671     0.338582 
    0.581758     0.607067     0.615368 
    0.677626     0.559050     0.514662 
    0.608309     0.450270     0.393257 
    0.604659     0.471005     0.606053 
    0.491706     0.395328     0.593539 
    0.494392     0.288729     0.486173 
    0.695679     0.428929     0.497786 
    0.606131     0.339109     0.507388 
    0.384161     0.342009     0.507084 
    0.306380     0.439682     0.474353 
    0.383849     0.476515     0.600218 
    0.491346     0.518801     0.656369 
    0.308086     0.563807     0.509348 
EA1417 12.494 12.413  8.760 90.00 90.00 90.00 Sym.group:    0
1.0
   12.494364     0.000000     0.000000
    0.000000    12.413456     0.000000
    0.000000     0.000000     8.759632
   B
  20
Direct
    0.611742     0.677829     0.585714 
    0.702566     0.448116     0.585620 
    0.513451     0.290202     0.585917 
    0.305738     0.422248     0.585554 
    0.366517     0.661700     0.585786 
    0.577247     0.304530     0.414459 
    0.708416     0.513455     0.414031 
    0.551631     0.703811     0.414364 
    0.323272     0.612511     0.414300 
    0.339328     0.365678     0.414236 
    0.291473     0.486543     0.414194 
    0.422762     0.695443     0.414562 
    0.660767     0.634383     0.414444 
    0.676763     0.387444     0.414408 
    0.448365     0.296084     0.414514 
    0.297347     0.551884     0.585479 
    0.388258     0.322174     0.585571 
    0.633535     0.338261     0.585641 
    0.694296     0.577787     0.585450 
    0.486528     0.709918     0.585757 
EA1645 12.494 12.413  8.760 90.00 90.00 90.00 Sym.group:    0
1.0
   12.494364     0.000000     0.000000
    0.000000    12.413456     0.000000
    0.000000     0.000000     8.759632
   B
  20
Direct
    0.611742     0.677829     0.585714 
    0.702566     0.448116     0.585620 
    0.513451     0.290202     0.585917 
    0.305738     0.422248     0.585554 
    0.366517     0.661700     0.585786 
    0.577247     0.304530     0.414459 
    0.708416     0.513455     0.414031 
    0.551631     0.703811     0.414364 
    0.323272     0.612511     0.414300 
    0.339328     0.365678     0.414236 
    0.291473     0.486543     0.414194 
    0.422762     0.695443     0.414562 
    0.660767     0.634383     0.414444 
    0.676763     0.387444     0.414408 
    0.448365     0.296084     0.414514 
    0.297347     0.551884     0.585479 
    0.388258     0.322174     0.585571 
    0.633535     0.338261     0.585641 
    0.694296     0.577787     0.585450 
    0.486528     0.709918     0.585757 
EA2070 11.535 11.794 11.874 90.00 90.00 90.00 Sym.group:    0
1.0
   11.534651     0.000000     0.000000
    0.000000    11.793773     0.000000
    0.000000     0.000000    11.873662
   B
  16
Direct
    0.583988     0.584208     0.431156 
    0.314195     0.436949     0.446524 
    0.447376     0.610684     0.416300 
    0.355233     0.378141     0.570031 
    0.389812     0.633228     0.547855 
    0.413580     0.341115     0.446592 
    0.317801     0.572695     0.437766 
    0.524937     0.669866     0.544142 
    0.322190     0.511850     0.566944 
    0.663362     0.443412     0.443260 
    0.664049     0.662459     0.524924 
    0.595134     0.397535     0.580777 
    0.557005     0.352528     0.448078 
    0.728721     0.561270     0.458645 
    0.641045     0.523912     0.570066 
    0.481571     0.320146     0.566939 
EA2236 12.089 12.556 10.087 90.00 90.00 90.00 Sym.group:    0
1.0
   12.088516     0.000000     0.000000
    0.000000    12.556317     0.000000
    0.000000     0.000000    10.087038
   B
  18
Direct
    0.431242     0.320790     0.425517 
    0.629190     0.355611     0.571509 
    0.690489     0.532544     0.427903 
    0.568634     0.679169     0.574583 
    0.370867     0.644305     0.428231 
    0.309524     0.467533     0.572146 
    0.326242     0.594968     0.572959 
    0.332415     0.404956     0.425669 
    0.498593     0.312436     0.571167 
    0.673815     0.405156     0.426916 
    0.667579     0.594866     0.574585 
    0.501276     0.687583     0.428970 
    0.567018     0.327307     0.425403 
    0.695106     0.465022     0.572756 
    0.626731     0.648489     0.429439 
    0.432853     0.672785     0.574428 
    0.305116     0.534841     0.427080 
    0.373311     0.351639     0.570740 
EA2440 10.505 10.222 10.222 90.00 90.00 90.00 Sym.group:    0
1.0
   10.504501     0.000000     0.000000
    0.000000    10.222205     0.000000
    0.000000     0.000000    10.222205
   B
  18
Direct
    0.627935     0.565007     0.613375 
    0.629943     0.613072     0.429778 
    0.627873     0.427582     0.391333 
    0.626402     0.390762     0.567577 
    0.374016     0.609844     0.432924 
    0.372567     0.572096     0.609114 
    0.370468     0.386579     0.570178 
    0.372490     0.435251     0.386119 
    0.495938     0.537564     0.340157 
    0.503923     0.339726     0.462070 
    0.503449     0.462307     0.659814 
    0.495484     0.660208     0.537858 
    0.497721     0.307679     0.618187 
    0.500167     0.618318     0.691988 
    0.502406     0.692315     0.381708 
    0.499940     0.381666     0.307915 
    0.726663     0.502207     0.498693 
    0.272616     0.497816     0.501211 
EA2688 12.376 12.376 12.376 90.00 90.00 90.00 Sym.group:    0
1.0
   12.376456     0.000000     0.000000
    0.000000    12.376456     0.000000
    0.000000     0.000000    12.376456
   B
  18
Direct
    0.600814     0.601810     0.508659 
    0.398430     0.397638     0.491721 
    0.603931     0.395733     0.502000 
    0.396287     0.604313     0.498546 
    0.494378     0.396128     0.397744 
    0.393060     0.503388     0.607288 
    0.505400     0.392567     0.606865 
    0.399680     0.496862     0.399230 
    0.495400     0.607534     0.393455 
    0.607048     0.497241     0.392720 
    0.505600     0.603335     0.601483 
    0.599751     0.503588     0.600218 
    0.504638     0.503324     0.311212 
    0.495488     0.496675     0.688911 
    0.498114     0.688674     0.497089 
    0.501970     0.311134     0.502900 
    0.312840     0.502018     0.504236 
    0.687172     0.498038     0.495725 
EA2983 12.772 11.541 11.171 90.00 90.00 90.00 Sym.group:    0
1.0
   12.772156     0.000000     0.000000
    0.000000    11.540654     0.000000
    0.000000     0.000000    11.171167
   B
  17
Direct
    0.394777     0.387365     0.441677 
    0.397953     0.444006     0.600598 
    0.606334     0.450887     0.600163 
    0.611430     0.395670     0.440488 
    0.500308     0.483432     0.365734 
    0.504186     0.371779     0.539316 
    0.502713     0.434961     0.673198 
    0.504677     0.337091     0.387842 
    0.701210     0.481646     0.495774 
    0.496009     0.625461     0.399177 
    0.558142     0.667513     0.534896 
    0.603644     0.558071     0.433062 
    0.665276     0.596921     0.561877 
    0.431145     0.663494     0.534187 
    0.300433     0.466690     0.496807 
    0.393013     0.550038     0.433389 
    0.328752     0.584978     0.561812 
EA3218 12.772 11.880 11.107 90.00 90.00 90.00 Sym.group:    0
1.0
   12.772259     0.000000     0.000000
    0.000000    11.879899     0.000000
    0.000000     0.000000    11.107415
   B
  17
Direct
    0.522936     0.408418     0.566877 
    0.312725     0.572987     0.518821 
    0.309128     0.441188     0.524070 
    0.396383     0.500656     0.424448 
    0.502102     0.426571     0.382061 
    0.524555     0.304993     0.461522 
    0.407080     0.360133     0.481076 
    0.416811     0.642447     0.471907 
    0.698431     0.491226     0.485185 
    0.634916     0.605499     0.447035 
    0.633642     0.498203     0.609647 
    0.537386     0.688488     0.445484 
    0.531200     0.597018     0.560874 
    0.414522     0.511639     0.608625 
    0.523644     0.506948     0.677508 
    0.507024     0.563782     0.377345 
    0.627515     0.379803     0.457510 
EA3507 13.258 10.577  9.848 90.00 90.00 90.00 Sym.group:    0
1.0
   13.257644     0.000000     0.000000
    0.000000    10.576614     0.000000
    0.000000     0.000000     9.848242
   B
  16
Direct
    0.498984     0.342906     0.545687 
    0.621455     0.500806     0.387879 
    0.574545     0.474571     0.567977 
    0.700229     0.413934     0.491538 
    0.606339     0.639262     0.597129 
    0.598077     0.344446     0.445744 
    0.697486     0.551962     0.543516 
    0.414181     0.638101     0.421261 
    0.533153     0.614992     0.439268 
    0.309008     0.581608     0.449840 
    0.506817     0.446879     0.371951 
    0.295396     0.454384     0.538460 
    0.386736     0.457734     0.411438 
    0.380930     0.566155     0.588399 
    0.381934     0.361727     0.573705 
    0.494730     0.610534     0.626208 
EA3744 12.776 12.283  9.908 90.00 90.00 90.00 Sym.group:    0
1.0
   12.776009     0.000000     0.000000
    0.000000    12.282598     0.000000
    0.000000     0.000000     9.908289
   B
  16
Direct
    0.341045     0.351096     0.435632 
    0.457611     0.320067     0.472597 
    0.280354     0.460442     0.464766 
    0.402421     0.445039     0.535108 
    0.507434     0.393430     0.606441 
    0.583612     0.333907     0.489997 
    0.308390     0.573332     0.529655 
    0.428027     0.584647     0.450579 
    0.503068     0.685889     0.525573 
    0.383402     0.671327     0.568403 
    0.656051     0.549995     0.396821 
    0.543076     0.607899     0.388450 
    0.681677     0.533011     0.559774 
    0.623534     0.644724     0.514266 
    0.670247     0.425777     0.451155 
    0.630051     0.419420     0.610785 
EA4001 13.860 12.035  9.177 90.00 90.00 90.00 Sym.group:    0
1.0
   13.860317     0.000000     0.000000
    0.000000    12.034885     0.000000
    0.000000     0.000000     9.177099
   B
  16
Direct
    0.622853     0.446893     0.468298 
    0.574627     0.574052     0.438833 
    0.458009     0.579576     0.398903 
    0.725698     0.439583     0.553537 
    0.622664     0.675623     0.536596 
    0.664540     0.332472     0.534937 
    0.508266     0.677297     0.513734 
    0.688663     0.567953     0.531919 
    0.503269     0.453531     0.418850 
    0.550004     0.333123     0.490868 
    0.433427     0.346043     0.490468 
    0.387514     0.652566     0.498908 
    0.264623     0.469466     0.558434 
    0.380841     0.492108     0.496101 
    0.291345     0.594368     0.547169 
    0.323659     0.365348     0.522447 
EA4199 11.134 12.616 12.904 90.00 90.00 90.00 Sym.group:    0
1.0
   11.133841     0.000000     0.000000
    0.000000    12.616260     0.000000
    0.000000     0.000000    12.904075
   B
  16
Direct
    0.654886     0.550362     0.521451 
    0.591101     0.429784     0.543666 
    0.782449     0.552415     0.460224 
    0.651545     0.329102     0.480806 
    0.706539     0.655883     0.467741 
    0.734208     0.431059     0.482234 
    0.504255     0.545164     0.555639 
    0.563864     0.658563     0.500849 
    0.418266     0.649498     0.504977 
    0.445486     0.425935     0.571090 
    0.508182     0.328047     0.495512 
    0.358775     0.353350     0.498919 
    0.206394     0.532780     0.461296 
    0.352265     0.512457     0.502094 
    0.241299     0.413288     0.468660 
    0.280485     0.632314     0.484842 
EA4473 14.191 12.148  8.180 90.00 90.00 90.00 Sym.group:    0
1.0
   14.190659     0.000000     0.000000
    0.000000    12.148153     0.000000
    0.000000     0.000000     8.179552
   B
  16
Direct
    0.441591     0.670252     0.495591 
    0.674587     0.655451     0.491480 
    0.684328     0.419707     0.489887 
    0.729140     0.543686     0.483738 
    0.499854     0.547806     0.539999 
    0.558276     0.670167     0.495903 
    0.270478     0.543538     0.485091 
    0.384475     0.316376     0.482228 
    0.616061     0.315850     0.483422 
    0.384698     0.541926     0.491074 
    0.441308     0.424813     0.550265 
    0.558445     0.425165     0.547919 
    0.315480     0.419356     0.489347 
    0.500576     0.308341     0.490248 
    0.325367     0.655382     0.492499 
    0.615336     0.542188     0.491308 
EA4693 14.191 12.148  8.180 90.00 90.00 90.00 Sym.group:    0
1.0
   14.190659     0.000000     0.000000
    0.000000    12.148153     0.000000
    0.000000     0.000000     8.179552
   B
  16
Direct
    0.441591     0.670252     0.495591 
    0.674587     0.655451     0.491480 
    0.684328     0.419707     0.489887 
    0.729140     0.543686     0.483738 
    0.499854     0.547806     0.539999 
    0.558276     0.670167     0.495903 
    0.270478     0.543538     0.485091 
    0.384475     0.316376     0.482228 
    0.616061     0.315850     0.483422 
    0.384698     0.541926     0.491074 
    0.441308     0.424813     0.550265 
    0.558445     0.425165     0.547919 
    0.315480     0.419356     0.489347 
    0.500576     0.308341     0.490248 
    0.325367     0.655382     0.492499 
    0.615336     0.542188     0.491308 
EA4903 12.223 11.523 11.801 90.00 90.00 90.00 Sym.group:    0
1.0
   12.223333     0.000000     0.000000
    0.000000    11.523294     0.000000
    0.000000     0.000000    11.800824
   B
  16
Direct
    0.360780     0.621131     0.531696 
    0.293050     0.505334     0.554485 
    0.324225     0.387666     0.487737 
    0.432392     0.477136     0.542234 
    0.349340     0.515395     0.419733 
    0.430310     0.308276     0.481399 
    0.455483     0.588014     0.395903 
    0.691338     0.455929     0.507358 
    0.554758     0.547044     0.551839 
    0.685410     0.594605     0.501490 
    0.663614     0.322839     0.498935 
    0.552993     0.262228     0.481961 
    0.550091     0.400046     0.528219 
    0.478577     0.689655     0.531547 
    0.604601     0.687637     0.559619 
    0.573038     0.637068     0.425847 
EA5158 12.223 11.523 11.801 90.00 90.00 90.00 Sym.group:    0
1.0
   12.223333     0.000000     0.000000
    0.000000    11.523294     0.000000
    0.000000     0.000000    11.800824
   B
  16
Direct
    0.360780     0.621131     0.531696 
    0.293050     0.505334     0.554485 
    0.324225     0.387666     0.487737 
    0.432392     0.477136     0.542234 
    0.349340     0.515395     0.419733 
    0.430310     0.308276     0.481399 
    0.455483     0.588014     0.395903 
    0.691338     0.455929     0.507358 
    0.554758     0.547044     0.551839 
    0.685410     0.594605     0.501490 
    0.663614     0.322839     0.498935 
    0.552993     0.262228     0.481961 
    0.550091     0.400046     0.528219 
    0.478577     0.689655     0.531547 
    0.604601     0.687637     0.559619 
    0.573038     0.637068     0.425847 
EA5374 11.568 14.178  9.525 90.00 90.00 90.00 Sym.group:    0
1.0
   11.568254     0.000000     0.000000
    0.000000    14.178495     0.000000
    0.000000     0.000000     9.525378
   B
  16
Direct
    0.503955     0.651225     0.496872 
    0.415901     0.567281     0.568761 
    0.558392     0.563904     0.601690 
    0.757551     0.564270     0.456879 
    0.367656     0.655932     0.472508 
    0.648031     0.622410     0.505631 
    0.277620     0.571886     0.468071 
    0.642526     0.483798     0.503083 
    0.778588     0.456809     0.434182 
    0.349263     0.463604     0.529811 
    0.226347     0.466115     0.445626 
    0.290282     0.370410     0.464228 
    0.490256     0.461566     0.577452 
    0.427221     0.361719     0.505797 
    0.567463     0.366594     0.504188 
    0.698948     0.372475     0.465223 
EA5631 12.424 11.438  9.716 90.00 90.00 90.00 Sym.group:    0
1.0
   12.424438     0.000000     0.000000
    0.000000    11.438087     0.000000
    0.000000     0.000000     9.715801
   B
  16
Direct
    0.627711     0.494847     0.417036 
    0.720218     0.493006     0.554155 
    0.694748     0.613473     0.477251 
    0.625599     0.400642     0.579546 
    0.600832     0.556833     0.596755 
    0.554110     0.381500     0.403146 
    0.434953     0.332254     0.415378 
    0.507608     0.341094     0.564795 
    0.376475     0.364238     0.563841 
    0.335830     0.423681     0.415167 
    0.332954     0.565690     0.420632 
    0.318009     0.490980     0.567826 
    0.574048     0.644170     0.431450 
    0.442772     0.647854     0.429038 
    0.489809     0.626307     0.593340 
    0.364324     0.623430     0.570642 
EA5857 13.395 12.908  9.074 90.00 90.00 90.00 Sym.group:    0
1.0
   13.394657     0.000000     0.000000
    0.000000    12.907647     0.000000
    0.000000     0.000000     9.073706
   B
  16
Direct
    0.508748     0.542581     0.570448 
    0.595929     0.639466     0.525479 
    0.478135     0.668661     0.496445 
    0.709286     0.599643     0.494732 
    0.666790     0.383246     0.470449 
    0.739112     0.485520     0.459829 
    0.627303     0.510039     0.520176 
    0.577563     0.304077     0.477723 
    0.341023     0.362112     0.495260 
    0.282005     0.595594     0.440162 
    0.457635     0.326924     0.498597 
    0.295955     0.472917     0.475172 
    0.361719     0.682551     0.448827 
    0.392980     0.567229     0.502262 
    0.543746     0.414099     0.554737 
    0.422072     0.445341     0.569700 
EA6090 13.158 12.180  9.648 90.00 90.00 90.00 Sym.group:    0
1.0
   13.157937     0.000000     0.000000
    0.000000    12.179564     0.000000
    0.000000     0.000000     9.647871
   B
  16
Direct
    0.547980     0.415256     0.590908 
    0.589332     0.319480     0.475139 
    0.485913     0.436431     0.430510 
    0.471272     0.308732     0.497114 
    0.365649     0.374012     0.499863 
    0.297091     0.591374     0.531622 
    0.376036     0.516165     0.441670 
    0.279840     0.465241     0.527094 
    0.402935     0.652839     0.496673 
    0.521917     0.678335     0.527546 
    0.559194     0.548259     0.602520 
    0.639569     0.647169     0.532906 
    0.674252     0.411137     0.499191 
    0.700892     0.535851     0.527092 
    0.486864     0.573131     0.403938 
    0.601263     0.526585     0.416213 
EA6252 12.799 11.815 10.553 90.00 90.00 90.00 Sym.group:    0
1.0
   12.799276     0.000000     0.000000
    0.000000    11.815098     0.000000
    0.000000     0.000000    10.552950
   B
  17
Direct
    0.313132     0.584444     0.483121 
    0.410960     0.506698     0.387737 
    0.302096     0.452028     0.475515 
    0.515239     0.412631     0.403562 
    0.401020     0.366731     0.487597 
    0.389996     0.507028     0.582737 
    0.414094     0.649233     0.541447 
    0.500668     0.429612     0.608546 
    0.515099     0.309213     0.522330 
    0.539570     0.664394     0.541444 
    0.523900     0.545415     0.342396 
    0.628541     0.606264     0.456170 
    0.699188     0.494456     0.511059 
    0.629460     0.483015     0.380436 
    0.617824     0.385614     0.518194 
    0.607908     0.537601     0.606610 
    0.491303     0.565625     0.651095 
EA6416 12.500 12.128 10.585 90.00 90.00 90.00 Sym.group:    0
1.0
   12.499571     0.000000     0.000000
    0.000000    12.127847     0.000000
    0.000000     0.000000    10.584800
   B
  18
Direct
    0.489713     0.420186     0.406748 
    0.405141     0.653253     0.499790 
    0.393229     0.529394     0.399260 
    0.628719     0.598377     0.582354 
    0.615842     0.465840     0.374167 
    0.629094     0.596779     0.421664 
    0.536232     0.664213     0.500787 
    0.515405     0.555335     0.359912 
    0.685864     0.488815     0.503915 
    0.511039     0.560114     0.633564 
    0.611563     0.467394     0.630259 
    0.610490     0.374880     0.502679 
    0.486267     0.422269     0.596700 
    0.386345     0.342862     0.499293 
    0.305949     0.450254     0.496087 
    0.389233     0.529818     0.596036 
    0.502263     0.298646     0.502013 
    0.297614     0.581570     0.494771 
EA6624 13.330 11.402 11.326 90.00 90.00 90.00 Sym.group:    0
1.0
   13.330369     0.000000     0.000000
    0.000000    11.401542     0.000000
    0.000000     0.000000    11.326281
   B
  18
Direct
    0.592807     0.566336     0.588813 
    0.439392     0.661466     0.426865 
    0.464699     0.592508     0.558902 
    0.282467     0.508061     0.519108 
    0.386590     0.501762     0.422445 
    0.340965     0.629348     0.492309 
    0.325701     0.381925     0.515975 
    0.537072     0.406442     0.568203 
    0.414619     0.441240     0.610849 
    0.506661     0.509385     0.672824 
    0.675325     0.621379     0.482560 
    0.716553     0.497652     0.511302 
    0.558703     0.642126     0.449530 
    0.607080     0.493846     0.420484 
    0.439436     0.359096     0.470030 
    0.493517     0.463432     0.362154 
    0.658302     0.375723     0.501101 
    0.560110     0.348270     0.426548 
EA6851 12.778 10.270 11.397 90.00 90.00 90.00 Sym.group:    0
1.0
   12.778008     0.000000     0.000000
    0.000000    10.270183     0.000000
    0.000000     0.000000    11.396863
   B
  17
Direct
    0.705441     0.507062     0.484658 
    0.592318     0.456390     0.401465 
    0.306218     0.561524     0.501168 
    0.403741     0.662873     0.492697 
    0.504541     0.584414     0.398198 
    0.381838     0.535691     0.383233 
    0.519232     0.717452     0.501835 
    0.620835     0.622799     0.486831 
    0.509576     0.591873     0.595315 
    0.606252     0.471641     0.583262 
    0.673368     0.359551     0.496647 
    0.469730     0.418532     0.392718 
    0.385663     0.499596     0.599335 
    0.552721     0.321360     0.518522 
    0.493719     0.442160     0.648379 
    0.345616     0.411291     0.467221 
    0.429190     0.335789     0.548516 
EA7117 11.953 12.082 11.032 90.00 90.00 90.00 Sym.group:    0
1.0
   11.952671     0.000000     0.000000
    0.000000    12.082136     0.000000
    0.000000     0.000000    11.032321
   B
  16
Direct
    0.315436     0.487354     0.435635 
    0.356786     0.615216     0.425084 
    0.320083     0.569228     0.560270 
    0.326171     0.435205     0.577166 
    0.372056     0.366984     0.453849 
    0.513603     0.366081     0.451076 
    0.435958     0.358405     0.585178 
    0.645502     0.387149     0.443895 
    0.559448     0.405188     0.598769 
    0.489331     0.604637     0.413164 
    0.695560     0.609910     0.498778 
    0.591079     0.519225     0.419890 
    0.434823     0.648843     0.546880 
    0.730005     0.489118     0.454834 
    0.642920     0.505679     0.583739 
    0.571239     0.631777     0.551794 
EA7362 13.466 12.122 10.014 90.00 90.00 90.00 Sym.group:    0
1.0
   13.465847     0.000000     0.000000
    0.000000    12.121782     0.000000
    0.000000     0.000000    10.013537
   B
  16
Direct
    0.412369     0.455288     0.582587 
    0.715461     0.490139     0.458694 
    0.677774     0.611107     0.452365 
    0.497633     0.553786     0.582432 
    0.618752     0.520271     0.549914 
    0.529487     0.423307     0.539818 
    0.649229     0.382412     0.495495 
    0.366047     0.610264     0.527491 
    0.298497     0.499630     0.519578 
    0.467443     0.599427     0.404680 
    0.560585     0.295190     0.492428 
    0.337112     0.382496     0.476267 
    0.444080     0.319718     0.496102 
    0.395750     0.496124     0.402836 
    0.459500     0.694563     0.531764 
    0.570280     0.666276     0.487547 
EA7604 13.267 12.654  9.514 90.00 90.00 90.00 Sym.group:    0
1.0
   13.267444     0.000000     0.000000
    0.000000    12.653519     0.000000
    0.000000     0.000000     9.513530
   B
  16
Direct
    0.403167     0.467139     0.585154 
    0.716276     0.466819     0.465699 
    0.690856     0.586737     0.461284 
    0.499633     0.551389     0.590648 
    0.619473     0.506392     0.558349 
    0.519945     0.424436     0.541137 
    0.639228     0.371433     0.501843 
    0.374735     0.620812     0.518015 
    0.296573     0.522289     0.505602 
    0.481504     0.598165     0.400488 
    0.541274     0.298958     0.493388 
    0.324301     0.405567     0.466737 
    0.426453     0.334927     0.489780 
    0.402448     0.504112     0.394340 
    0.476701     0.689350     0.533609 
    0.587433     0.651474     0.493929 
EA7696 14.065 13.717  8.020 90.00 90.00 90.00 Sym.group:    0
1.0
   14.064736     0.000000     0.000000
    0.000000    13.716626     0.000000
    0.000000     0.000000     8.020291
   B
  19
Direct
    0.321155     0.650194     0.490413 
    0.721520     0.584447     0.493659 
    0.460668     0.266976     0.511715 
    0.707748     0.465109     0.496679 
    0.427332     0.699484     0.502573 
    0.365017     0.334214     0.499109 
    0.481199     0.382551     0.466647 
    0.410370     0.576643     0.535928 
    0.613097     0.543376     0.501821 
    0.386880     0.456439     0.504371 
    0.589984     0.423545     0.536613 
    0.518559     0.617387     0.465057 
    0.635021     0.665872     0.498323 
    0.572587     0.300650     0.503046 
    0.292366     0.534902     0.496882 
    0.539157     0.732822     0.511666 
    0.278466     0.415475     0.493404 
    0.678824     0.349832     0.490153 
    0.500053     0.500082     0.501939 
EA8077 13.161 12.464  9.678 90.00 90.00 90.00 Sym.group:    0
1.0
   13.160742     0.000000     0.000000
    0.000000    12.464392     0.000000
    0.000000     0.000000     9.678125
   B
  16
Direct
    0.722096     0.495280     0.470223 
    0.678672     0.379359     0.457820 
    0.618130     0.468366     0.555103 
    0.442718     0.318724     0.511857 
    0.458883     0.429166     0.408690 
    0.562342     0.341941     0.492989 
    0.658121     0.601192     0.498764 
    0.567701     0.687064     0.498707 
    0.525353     0.567332     0.556326 
    0.499992     0.437195     0.602200 
    0.448314     0.681697     0.498979 
    0.339209     0.625619     0.487738 
    0.399934     0.513101     0.583976 
    0.342336     0.388255     0.496572 
    0.437848     0.557810     0.402922 
    0.298349     0.507900     0.477132 
EA8310 11.500 11.500  8.921 90.00 90.00 90.00 Sym.group:    0
1.0
   11.500492     0.000000     0.000000
    0.000000    11.500492     0.000000
    0.000000     0.000000     8.920506
   B
  16
Direct
    0.684571     0.481811     0.420112 
    0.481821     0.315429     0.420108 
    0.315428     0.518185     0.420114 
    0.518183     0.684569     0.420109 
    0.615209     0.354864     0.420091 
    0.645134     0.615210     0.420084 
    0.384791     0.645136     0.420087 
    0.354864     0.384793     0.420086 
    0.666690     0.409137     0.578990 
    0.409132     0.333313     0.578988 
    0.333309     0.590859     0.578991 
    0.590866     0.666689     0.578983 
    0.449225     0.672511     0.580815 
    0.672509     0.550780     0.580815 
    0.550780     0.327493     0.580816 
    0.327489     0.449220     0.580813 
EA8558 12.581 11.589  9.800 90.00 90.00 90.00 Sym.group:    0
1.0
   12.581083     0.000000     0.000000
    0.000000    11.589378     0.000000
    0.000000     0.000000     9.799719
   B
  16
Direct
    0.575675     0.665732     0.581251 
    0.657393     0.558368     0.574435 
    0.670836     0.420583     0.548814 
    0.552899     0.385127     0.580145 
    0.427771     0.403161     0.587357 
    0.446274     0.643794     0.582753 
    0.591586     0.391676     0.410466 
    0.629091     0.635883     0.428236 
    0.351481     0.327217     0.462944 
    0.296516     0.423427     0.556053 
    0.376868     0.466219     0.417882 
    0.469110     0.348022     0.406866 
    0.359691     0.540205     0.588271 
    0.413070     0.598799     0.420188 
    0.508914     0.686457     0.439260 
    0.672824     0.505330     0.415078 
EA8786 12.581 11.589  9.800 90.00 90.00 90.00 Sym.group:    0
1.0
   12.581083     0.000000     0.000000
    0.000000    11.589378     0.000000
    0.000000     0.000000     9.799719
   B
  16
Direct
    0.575675     0.665732     0.581251 
    0.657393     0.558368     0.574435 
    0.670836     0.420583     0.548814 
    0.552899     0.385127     0.580145 
    0.427771     0.403161     0.587357 
    0.446274     0.643794     0.582753 
    0.591586     0.391676     0.410466 
    0.629091     0.635883     0.428236 
    0.351481     0.327217     0.462944 
    0.296516     0.423427     0.556053 
    0.376868     0.466219     0.417882 
    0.469110     0.348022     0.406866 
    0.359691     0.540205     0.588271 
    0.413070     0.598799     0.420188 
    0.508914     0.686457     0.439260 
    0.672824     0.505330     0.415078 
EA9028 13.221 12.451  9.564 90.00 90.00 90.00 Sym.group:    0
1.0
   13.221089     0.000000     0.000000
    0.000000    12.450935     0.000000
    0.000000     0.000000     9.563905
   B
  16
Direct
    0.280991     0.532339     0.476303 
    0.305520     0.410689     0.459490 
    0.382236     0.486036     0.555993 
    0.524107     0.307598     0.506903 
    0.527208     0.413719     0.394536 
    0.411751     0.349051     0.481321 
    0.360258     0.625490     0.511144 
    0.458751     0.699064     0.500232 
    0.482671     0.570322     0.547007 
    0.503307     0.439936     0.586286 
    0.575049     0.663553     0.495206 
    0.681063     0.598200     0.483976 
    0.601102     0.527736     0.593751 
    0.627409     0.370777     0.514245 
    0.580456     0.530607     0.401730 
    0.698121     0.474883     0.491879 
EA9245 12.846 11.902 10.675 90.00 90.00 90.00 Sym.group:    0
1.0
   12.846025     0.000000     0.000000
    0.000000    11.902144     0.000000
    0.000000     0.000000    10.674590
   B
  16
Direct
    0.490893     0.402906     0.404566 
    0.413398     0.509975     0.409359 
    0.707872     0.433261     0.470856 
    0.606969     0.352915     0.486925 
    0.496564     0.296849     0.511894 
    0.502198     0.438762     0.580706 
    0.384305     0.352317     0.502572 
    0.297245     0.449738     0.488908 
    0.720190     0.562699     0.485503 
    0.620922     0.503483     0.556016 
    0.628405     0.650132     0.513452 
    0.519492     0.714099     0.505089 
    0.508585     0.575083     0.532075 
    0.404718     0.662384     0.495120 
    0.305683     0.579107     0.476125 
    0.392563     0.516287     0.580833 
EA9482 12.879 10.428 12.363 90.00 90.00 90.00 Sym.group:    0
1.0
   12.879132     0.000000     0.000000
    0.000000    10.428344     0.000000
    0.000000     0.000000    12.362904
   B
  16
Direct
    0.398203     0.669522     0.502405 
    0.520006     0.581812     0.440729 
    0.519323     0.657481     0.576665 
    0.495095     0.748879     0.463406 
    0.610367     0.703711     0.481673 
    0.671819     0.572472     0.490293 
    0.449617     0.446079     0.449658 
    0.329227     0.538491     0.502569 
    0.316587     0.395524     0.461217 
    0.386503     0.410860     0.579505 
    0.443335     0.541809     0.605980 
    0.644594     0.302386     0.501827 
    0.523785     0.277281     0.489246 
    0.400960     0.289505     0.484656 
    0.707467     0.427479     0.503015 
    0.583112     0.436711     0.467160 
EA9597 12.012 11.051 11.129 90.00 90.00 90.00 Sym.group:    0
1.0
   12.011654     0.000000     0.000000
    0.000000    11.050629     0.000000
    0.000000     0.000000    11.129497
   B
  18
Direct
    0.379827     0.589220     0.527754 
    0.367561     0.434062     0.560969 
    0.380331     0.478689     0.410669 
    0.620174     0.410781     0.472244 
    0.619670     0.521313     0.589331 
    0.632437     0.565938     0.439031 
    0.609919     0.369465     0.616537 
    0.613291     0.466644     0.333159 
    0.613289     0.666385     0.544237 
    0.386710     0.533354     0.666842 
    0.390082     0.630535     0.383464 
    0.386712     0.333615     0.455763 
    0.493765     0.670493     0.470898 
    0.495598     0.542871     0.341569 
    0.504401     0.457130     0.658433 
    0.499681     0.609129     0.615343 
    0.500319     0.390870     0.384657 
    0.506234     0.329507     0.529100 
EA9858 13.076 11.875  9.724 90.00 90.00 90.00 Sym.group:    0
1.0
   13.075891     0.000000     0.000000
    0.000000    11.874786     0.000000
    0.000000     0.000000     9.723804
   B
  18
Direct
    0.653425     0.601239     0.418548 
    0.383147     0.639649     0.592988 
    0.320123     0.523520     0.595744 
    0.498172     0.696461     0.579551 
    0.614378     0.656603     0.571384 
    0.323597     0.595734     0.448537 
    0.306229     0.463150     0.440353 
    0.428951     0.672753     0.436129 
    0.550528     0.678989     0.423813 
    0.445746     0.307204     0.561684 
    0.503698     0.317775     0.408298 
    0.348319     0.391523     0.579815 
    0.387288     0.356054     0.419474 
    0.665849     0.407171     0.565755 
    0.623669     0.361625     0.411200 
    0.567672     0.318834     0.559065 
    0.684344     0.539335     0.569321 
    0.694863     0.472385     0.418343 
EA10184 13.372 12.507  9.761 90.00 90.00 90.00 Sym.group:    0
1.0
   13.372145     0.000000     0.000000
    0.000000    12.507097     0.000000
    0.000000     0.000000     9.761128
   B
  16
Direct
    0.502195     0.444842     0.593096 
    0.523691     0.407170     0.404719 
    0.526288     0.309252     0.526277 
    0.415541     0.346892     0.492738 
    0.697419     0.478025     0.493324 
    0.626839     0.375734     0.522305 
    0.598777     0.530782     0.588683 
    0.580384     0.521858     0.401354 
    0.676782     0.598860     0.474344 
    0.572272     0.664385     0.486417 
    0.361080     0.625188     0.501330 
    0.382109     0.489355     0.558861 
    0.311867     0.408121     0.463360 
    0.482250     0.570738     0.532011 
    0.457399     0.699546     0.491785 
    0.285108     0.529251     0.469395 
EA10434 13.047 12.640  9.622 90.00 90.00 90.00 Sym.group:    0
1.0
   13.046717     0.000000     0.000000
    0.000000    12.640137     0.000000
    0.000000     0.000000     9.622363
   B
  16
Direct
    0.483044     0.308995     0.510333 
    0.501370     0.440198     0.585819 
    0.299597     0.466594     0.493928 
    0.397706     0.518653     0.593456 
    0.376975     0.368934     0.523496 
    0.513748     0.569618     0.536938 
    0.700682     0.421117     0.458279 
    0.619226     0.492943     0.548797 
    0.594867     0.355344     0.482245 
    0.720246     0.542437     0.472587 
    0.474319     0.410792     0.394423 
    0.417124     0.525450     0.403375 
    0.417104     0.659290     0.497098 
    0.636989     0.631789     0.507702 
    0.313270     0.588515     0.488219 
    0.533733     0.699331     0.503302 
EA10667 12.820 12.612  9.770 90.00 90.00 90.00 Sym.group:    0
1.0
   12.820325     0.000000     0.000000
    0.000000    12.612193     0.000000
    0.000000     0.000000     9.769657
   B
  16
Direct
    0.679181     0.404065     0.443823 
    0.627135     0.452834     0.593884 
    0.699190     0.523704     0.474149 
    0.571041     0.495186     0.425883 
    0.419567     0.706765     0.515858 
    0.482970     0.594962     0.471613 
    0.540169     0.710459     0.516190 
    0.628241     0.625202     0.491433 
    0.445393     0.463188     0.425844 
    0.388118     0.432031     0.597815 
    0.338190     0.616568     0.494440 
    0.574099     0.347164     0.483184 
    0.340178     0.374825     0.451596 
    0.508839     0.428062     0.635115 
    0.448753     0.330043     0.504694 
    0.308936     0.494944     0.474479 
EA10904 12.780 12.417  9.699 90.00 90.00 90.00 Sym.group:    0
1.0
   12.779614     0.000000     0.000000
    0.000000    12.417046     0.000000
    0.000000     0.000000     9.699438
   B
  16
Direct
    0.550805     0.329086     0.480744 
    0.565710     0.481175     0.437476 
    0.615558     0.423613     0.596940 
    0.661890     0.375373     0.441929 
    0.699478     0.491869     0.485834 
    0.649754     0.609133     0.494488 
    0.434783     0.489622     0.438425 
    0.423455     0.337930     0.483211 
    0.321734     0.401779     0.441218 
    0.373807     0.444076     0.596342 
    0.493973     0.426447     0.630914 
    0.455926     0.720038     0.516231 
    0.367800     0.631078     0.494559 
    0.301906     0.523138     0.482416 
    0.575830     0.711007     0.515677 
    0.507592     0.604636     0.463596 
EA11155 12.780 12.417  9.699 90.00 90.00 90.00 Sym.group:    0
1.0
   12.779614     0.000000     0.000000
    0.000000    12.417046     0.000000
    0.000000     0.000000     9.699438
   B
  16
Direct
    0.550805     0.329086     0.480744 
    0.565710     0.481175     0.437476 
    0.615558     0.423613     0.596940 
    0.661890     0.375373     0.441929 
    0.699478     0.491869     0.485834 
    0.649754     0.609133     0.494488 
    0.434783     0.489622     0.438425 
    0.423455     0.337930     0.483211 
    0.321734     0.401779     0.441218 
    0.373807     0.444076     0.596342 
    0.493973     0.426447     0.630914 
    0.455926     0.720038     0.516231 
    0.367800     0.631078     0.494559 
    0.301906     0.523138     0.482416 
    0.575830     0.711007     0.515677 
    0.507592     0.604636     0.463596 
EA11408 12.531 12.575  9.973 90.00 90.00 90.00 Sym.group:    0
1.0
   12.530952     0.000000     0.000000
    0.000000    12.574635     0.000000
    0.000000     0.000000     9.973369
   B
  16
Direct
    0.357119     0.339047     0.526108 
    0.309923     0.583367     0.479576 
    0.412168     0.599838     0.596046 
    0.323304     0.460476     0.505097 
    0.390489     0.676299     0.453613 
    0.511233     0.674535     0.491275 
    0.529382     0.557337     0.627888 
    0.639114     0.502084     0.591212 
    0.679469     0.407111     0.473881 
    0.579395     0.328980     0.480024 
    0.458225     0.406879     0.458000 
    0.464450     0.281848     0.507848 
    0.443537     0.542068     0.434857 
    0.566369     0.489566     0.436264 
    0.705535     0.528658     0.444649 
    0.630287     0.621909     0.493661 
EA11632 12.531 12.575  9.973 90.00 90.00 90.00 Sym.group:    0
1.0
   12.530952     0.000000     0.000000
    0.000000    12.574635     0.000000
    0.000000     0.000000     9.973369
   B
  16
Direct
    0.357119     0.339047     0.526108 
    0.309923     0.583367     0.479576 
    0.412168     0.599838     0.596046 
    0.323304     0.460476     0.505097 
    0.390489     0.676299     0.453613 
    0.511233     0.674535     0.491275 
    0.529382     0.557337     0.627888 
    0.639114     0.502084     0.591212 
    0.679469     0.407111     0.473881 
    0.579395     0.328980     0.480024 
    0.458225     0.406879     0.458000 
    0.464450     0.281848     0.507848 
    0.443537     0.542068     0.434857 
    0.566369     0.489566     0.436264 
    0.705535     0.528658     0.444649 
    0.630287     0.621909     0.493661 
EA11864 13.846 12.536  9.077 90.00 90.00 90.00 Sym.group:    0
1.0
   13.846100     0.000000     0.000000
    0.000000    12.535953     0.000000
    0.000000     0.000000     9.076643
   B
  16
Direct
    0.731967     0.480406     0.447744 
    0.631857     0.520616     0.532542 
    0.697781     0.600703     0.432727 
    0.593659     0.643134     0.481608 
    0.476994     0.668961     0.518691 
    0.364575     0.685290     0.489372 
    0.345255     0.362435     0.476250 
    0.550759     0.330072     0.487777 
    0.439407     0.298756     0.456530 
    0.452128     0.422001     0.539068 
    0.658780     0.388170     0.503777 
    0.565090     0.427039     0.611896 
    0.514240     0.545657     0.568132 
    0.290952     0.472881     0.472779 
    0.286780     0.597676     0.470398 
    0.399777     0.556205     0.510712 
EA12106 12.820 12.467  9.861 90.00 90.00 90.00 Sym.group:    0
1.0
   12.820198     0.000000     0.000000
    0.000000    12.467017     0.000000
    0.000000     0.000000     9.860543
   B
  16
Direct
    0.700549     0.502254     0.532787 
    0.568045     0.478846     0.579697 
    0.666580     0.381319     0.542632 
    0.561416     0.708320     0.489883 
    0.640380     0.612703     0.515446 
    0.500157     0.596348     0.534471 
    0.441495     0.709526     0.486417 
    0.620246     0.452365     0.405232 
    0.378304     0.459566     0.407487 
    0.359386     0.616782     0.511410 
    0.498662     0.440953     0.367004 
    0.437801     0.474347     0.578715 
    0.560420     0.336697     0.483999 
    0.331557     0.385526     0.544056 
    0.433574     0.337309     0.480875 
    0.301429     0.507138     0.539893 
EA12341 12.705 12.258  9.750 90.00 90.00 90.00 Sym.group:    0
1.0
   12.705404     0.000000     0.000000
    0.000000    12.258174     0.000000
    0.000000     0.000000     9.750196
   B
  16
Direct
    0.302117     0.506621     0.432821 
    0.353999     0.483675     0.591014 
    0.474628     0.322003     0.434979 
    0.560345     0.353150     0.586121 
    0.368397     0.397811     0.433576 
    0.453447     0.410407     0.625867 
    0.597410     0.319721     0.419444 
    0.671087     0.402059     0.501471 
    0.545618     0.456962     0.463149 
    0.681942     0.530990     0.506753 
    0.662566     0.660300     0.520711 
    0.440921     0.683868     0.514337 
    0.560934     0.727422     0.520404 
    0.554159     0.597158     0.473212 
    0.334665     0.613556     0.519200 
    0.437767     0.534298     0.456944 
EA12575 12.685  9.878 12.624 90.00 90.00 90.00 Sym.group:    0
1.0
   12.684894     0.000000     0.000000
    0.000000     9.878146     0.000000
    0.000000     0.000000    12.623629
   B
  16
Direct
    0.361523     0.462183     0.427056 
    0.447488     0.573321     0.398931 
    0.541024     0.674053     0.425670 
    0.691804     0.509357     0.501452 
    0.437496     0.716410     0.518618 
    0.555343     0.750868     0.548235 
    0.531066     0.570454     0.544276 
    0.650644     0.661361     0.507612 
    0.347002     0.598145     0.524936 
    0.442221     0.446108     0.546949 
    0.301104     0.452359     0.548146 
    0.691010     0.349791     0.489737 
    0.599212     0.246970     0.485857 
    0.571962     0.403675     0.526654 
    0.356197     0.318269     0.505943 
    0.474905     0.266675     0.499927 
EA12824 11.703 11.703  9.520 90.00 90.00 90.00 Sym.group:    0
1.0
   11.702756     0.000000     0.000000
    0.000000    11.702756     0.000000
    0.000000     0.000000     9.519784
   B
  16
Direct
    0.326494     0.432586     0.426065 
    0.432578     0.673496     0.426061 
    0.673506     0.567414     0.426065 
    0.567422     0.326504     0.426061 
    0.570901     0.665050     0.424274 
    0.665065     0.429101     0.424279 
    0.429099     0.334950     0.424274 
    0.334935     0.570899     0.424279 
    0.636419     0.630848     0.573613 
    0.630840     0.363575     0.573615 
    0.363581     0.369152     0.573613 
    0.369161     0.636424     0.573616 
    0.676768     0.496401     0.576050 
    0.496398     0.323216     0.576043 
    0.323231     0.503599     0.576050 
    0.503602     0.676784     0.576043 
EA13080 12.748 12.384  9.739 90.00 90.00 90.00 Sym.group:    0
1.0
   12.747757     0.000000     0.000000
    0.000000    12.383900     0.000000
    0.000000     0.000000     9.738984
   B
  16
Direct
    0.697211     0.462475     0.520720 
    0.568654     0.507001     0.568876 
    0.684959     0.586883     0.551075 
    0.528039     0.277736     0.488285 
    0.622831     0.359948     0.508975 
    0.484999     0.398337     0.538321 
    0.408734     0.295903     0.490903 
    0.628408     0.540546     0.402156 
    0.387360     0.578108     0.402609 
    0.341883     0.402830     0.511438 
    0.508916     0.567685     0.367323 
    0.439497     0.528857     0.566279 
    0.587088     0.655455     0.503083 
    0.348432     0.639493     0.553655 
    0.460780     0.675062     0.502621 
    0.302210     0.523682     0.523683 
EA13305 12.508 12.686  9.803 90.00 90.00 90.00 Sym.group:    0
1.0
   12.508117     0.000000     0.000000
    0.000000    12.685859     0.000000
    0.000000     0.000000     9.802673
   B
  16
Direct
    0.350742     0.343882     0.485527 
    0.455689     0.412559     0.537159 
    0.457280     0.285649     0.500728 
    0.634491     0.493511     0.399153 
    0.574586     0.331339     0.518734 
    0.569536     0.485496     0.571023 
    0.706290     0.523584     0.543597 
    0.679311     0.403265     0.519169 
    0.515188     0.671970     0.492414 
    0.398295     0.677201     0.551224 
    0.630817     0.615115     0.491168 
    0.528377     0.558039     0.367215 
    0.320718     0.465627     0.499839 
    0.452845     0.549316     0.578361 
    0.411438     0.597149     0.408626 
    0.314396     0.586297     0.536061 
EA13544 12.520 12.711  9.684 90.00 90.00 90.00 Sym.group:    0
1.0
   12.519988     0.000000     0.000000
    0.000000    12.710736     0.000000
    0.000000     0.000000     9.683708
   B
  16
Direct
    0.358184     0.338451     0.483888 
    0.460520     0.413783     0.532856 
    0.468193     0.286084     0.494718 
    0.634677     0.498368     0.400401 
    0.582841     0.335500     0.515569 
    0.571177     0.489001     0.575395 
    0.704064     0.532710     0.545449 
    0.683912     0.411453     0.521918 
    0.506787     0.672424     0.491736 
    0.389792     0.672786     0.550352 
    0.624463     0.620112     0.492466 
    0.524950     0.556902     0.367172 
    0.321345     0.456794     0.500831 
    0.451870     0.548914     0.580785 
    0.405359     0.589669     0.408054 
    0.311866     0.577047     0.538408 
EA13773 12.663 12.644 10.274 90.00 90.00 90.00 Sym.group:    0
1.0
   12.663345     0.000000     0.000000
    0.000000    12.644373     0.000000
    0.000000     0.000000    10.274182
   B
  16
Direct
    0.534104     0.286081     0.493877 
    0.625670     0.368627     0.515837 
    0.296751     0.520150     0.525463 
    0.431845     0.529822     0.576268 
    0.388882     0.548541     0.405698 
    0.487849     0.406169     0.536813 
    0.414401     0.301887     0.495819 
    0.345144     0.405315     0.507736 
    0.459078     0.667197     0.486624 
    0.632609     0.534144     0.412041 
    0.585456     0.654874     0.484947 
    0.682604     0.594015     0.550249 
    0.696248     0.470586     0.540208 
    0.562990     0.520055     0.570920 
    0.343292     0.634648     0.525612 
    0.513075     0.557892     0.371890 
EA13973 11.317 12.185 12.036 90.00 90.00 90.00 Sym.group:    0
1.0
   11.316661     0.000000     0.000000
    0.000000    12.184871     0.000000
    0.000000     0.000000    12.036207
   B
  16
Direct
    0.447193     0.717882     0.483729 
    0.347445     0.628692     0.502759 
    0.507440     0.601968     0.528597 
    0.582918     0.712489     0.487805 
    0.667099     0.610119     0.504919 
    0.357288     0.462187     0.432762 
    0.277139     0.522643     0.538361 
    0.488817     0.429200     0.397135 
    0.555771     0.329178     0.498242 
    0.683751     0.370698     0.533567 
    0.727962     0.491405     0.504898 
    0.581431     0.481617     0.554262 
    0.628683     0.429840     0.415336 
    0.412049     0.337723     0.499773 
    0.301417     0.396846     0.551030 
    0.433598     0.477511     0.566823 
EA14229 12.691 12.423  9.611 90.00 90.00 90.00 Sym.group:    0
1.0
   12.691500     0.000000     0.000000
    0.000000    12.422865     0.000000
    0.000000     0.000000     9.610761
   B
  16
Direct
    0.627162     0.483226     0.408073 
    0.687620     0.418727     0.544568 
    0.700365     0.543401     0.536454 
    0.397501     0.692760     0.490106 
    0.516754     0.712421     0.490489 
    0.576708     0.501896     0.591651 
    0.475742     0.581207     0.510103 
    0.613223     0.633311     0.510294 
    0.466167     0.320646     0.472592 
    0.330133     0.587139     0.505037 
    0.301342     0.467053     0.549242 
    0.356422     0.355552     0.533982 
    0.392144     0.468303     0.415909 
    0.460537     0.439489     0.584575 
    0.586741     0.354799     0.491080 
    0.511437     0.440067     0.365848 
EA14408 13.095 12.218  9.552 90.00 90.00 90.00 Sym.group:    0
1.0
   13.095091     0.000000     0.000000
    0.000000    12.217759     0.000000
    0.000000     0.000000     9.551859
   B
  16
Direct
    0.551079     0.434571     0.594092 
    0.375196     0.489891     0.443375 
    0.293304     0.420219     0.536106 
    0.279800     0.545672     0.525549 
    0.369694     0.633010     0.498357 
    0.397790     0.350844     0.503648 
    0.513433     0.310063     0.509490 
    0.489420     0.430970     0.411844 
    0.599636     0.499702     0.418265 
    0.698256     0.454618     0.519753 
    0.630112     0.347467     0.498254 
    0.685349     0.583795     0.516024 
    0.555699     0.566868     0.596479 
    0.478513     0.690529     0.507199 
    0.483777     0.567370     0.426486 
    0.598942     0.674411     0.495078 
EA14505 12.953 12.239 10.406 90.00 90.00 90.00 Sym.group:    0
1.0
   12.953124     0.000000     0.000000
    0.000000    12.238546     0.000000
    0.000000     0.000000    10.406372
   B
  18
Direct
    0.606952     0.343572     0.570545 
    0.587455     0.391195     0.416616 
    0.386384     0.358342     0.503043 
    0.286110     0.561763     0.483655 
    0.291316     0.432457     0.469830 
    0.373015     0.491846     0.581994 
    0.391517     0.509006     0.406004 
    0.503002     0.305412     0.503492 
    0.491836     0.426033     0.589682 
    0.489855     0.562510     0.595731 
    0.494195     0.693215     0.531794 
    0.379609     0.635318     0.526585 
    0.683010     0.569717     0.526627 
    0.687196     0.432758     0.517971 
    0.647793     0.506445     0.390002 
    0.600244     0.656634     0.585822 
    0.583749     0.617447     0.429462 
    0.516762     0.506330     0.371147 
EA14719 12.937 12.399 10.014 90.00 90.00 90.00 Sym.group:    0
1.0
   12.936951     0.000000     0.000000
    0.000000    12.399060     0.000000
    0.000000     0.000000    10.014110
   B
  18
Direct
    0.600937     0.654405     0.584056 
    0.585328     0.612587     0.421341 
    0.382442     0.637138     0.511900 
    0.289178     0.433907     0.477993 
    0.288547     0.562044     0.476854 
    0.373611     0.499345     0.585786 
    0.390589     0.497802     0.399051 
    0.497743     0.692635     0.515280 
    0.490400     0.567456     0.592075 
    0.491202     0.432972     0.592066 
    0.501216     0.307632     0.515905 
    0.384899     0.360791     0.511418 
    0.684983     0.435101     0.527316 
    0.683831     0.568741     0.526563 
    0.648203     0.501100     0.387664 
    0.603288     0.348242     0.585340 
    0.587847     0.388447     0.422179 
    0.515759     0.499654     0.367213 
EA14958 12.420 12.843  8.269 90.00 90.00 90.00 Sym.group:    0
1.0
   12.419923     0.000000     0.000000
    0.000000    12.843418     0.000000
    0.000000     0.000000     8.269441
   B
  18
Direct
    0.473956     0.277214     0.515170 
    0.313961     0.633311     0.515333 
    0.712396     0.589474     0.515140 
    0.751920     0.472666     0.538261 
    0.349303     0.302549     0.538504 
    0.398423     0.724875     0.538392 
    0.650864     0.697420     0.538366 
    0.248156     0.527420     0.538486 
    0.601148     0.275103     0.538431 
    0.554141     0.379029     0.443448 
    0.364751     0.514927     0.443560 
    0.581270     0.606044     0.443492 
    0.445330     0.620786     0.443607 
    0.419232     0.393569     0.443293 
    0.635329     0.485611     0.443580 
    0.683649     0.368583     0.521003 
    0.290315     0.411540     0.521058 
    0.525855     0.719876     0.520879 
EA15309 13.067 12.200  9.697 90.00 90.00 90.00 Sym.group:    0
1.0
   13.066839     0.000000     0.000000
    0.000000    12.199820     0.000000
    0.000000     0.000000     9.696898
   B
  16
Direct
    0.464645     0.666832     0.445912 
    0.589591     0.664459     0.458262 
    0.491471     0.393577     0.469831 
    0.304283     0.517761     0.494576 
    0.347887     0.630200     0.435657 
    0.351862     0.397242     0.504926 
    0.417626     0.287165     0.520850 
    0.681229     0.463246     0.507692 
    0.626618     0.346034     0.499190 
    0.533077     0.265809     0.504739 
    0.389898     0.592455     0.596657 
    0.507786     0.588834     0.636519 
    0.624787     0.571301     0.597371 
    0.557766     0.516820     0.445331 
    0.431266     0.516630     0.446421 
    0.680209     0.581634     0.436069 
EA15354 14.508 14.174  8.686 90.00 90.00 90.00 Sym.group:    0
1.0
   14.508263     0.000000     0.000000
    0.000000    14.174064     0.000000
    0.000000     0.000000     8.685977
   B
  20
Direct
    0.506946     0.690931     0.415697 
    0.323389     0.564627     0.416595 
    0.384101     0.349733     0.415852 
    0.605444     0.341558     0.415319 
    0.680263     0.552393     0.416286 
    0.549325     0.325636     0.585695 
    0.678048     0.495288     0.586185 
    0.559592     0.671629     0.586286 
    0.359018     0.611032     0.585798 
    0.353508     0.396488     0.586754 
    0.451891     0.675867     0.585695 
    0.647964     0.600007     0.585466 
    0.640001     0.386461     0.585881 
    0.438710     0.329670     0.585765 
    0.322300     0.508728     0.586497 
    0.606626     0.639783     0.410944 
    0.402582     0.647790     0.412787 
    0.332599     0.451283     0.411521 
    0.493628     0.322536     0.413320 
    0.664065     0.438561     0.411653 
EA15789 12.774 12.654  9.593 90.00 90.00 90.00 Sym.group:    0
1.0
   12.773961     0.000000     0.000000
    0.000000    12.653637     0.000000
    0.000000     0.000000     9.593193
   B
  16
Direct
    0.670205     0.472526     0.464008 
    0.607252     0.360030     0.467942 
    0.410555     0.553848     0.464500 
    0.593161     0.676788     0.494076 
    0.677237     0.594885     0.436321 
    0.469103     0.684960     0.499766 
    0.346893     0.662006     0.514627 
    0.393022     0.332142     0.494201 
    0.326518     0.438420     0.499794 
    0.286019     0.557056     0.513393 
    0.622643     0.567021     0.596067 
    0.568101     0.457517     0.631922 
    0.503273     0.354158     0.597990 
    0.479012     0.438316     0.451242 
    0.543413     0.553255     0.439760 
    0.503593     0.297072     0.434393 
EA16019 12.774 12.654  9.593 90.00 90.00 90.00 Sym.group:    0
1.0
   12.773961     0.000000     0.000000
    0.000000    12.653637     0.000000
    0.000000     0.000000     9.593193
   B
  16
Direct
    0.670205     0.472526     0.464008 
    0.607252     0.360030     0.467942 
    0.410555     0.553848     0.464500 
    0.593161     0.676788     0.494076 
    0.677237     0.594885     0.436321 
    0.469103     0.684960     0.499766 
    0.346893     0.662006     0.514627 
    0.393022     0.332142     0.494201 
    0.326518     0.438420     0.499794 
    0.286019     0.557056     0.513393 
    0.622643     0.567021     0.596067 
    0.568101     0.457517     0.631922 
    0.503273     0.354158     0.597990 
    0.479012     0.438316     0.451242 
    0.543413     0.553255     0.439760 
    0.503593     0.297072     0.434393 
EA16234 10.828 12.676 11.464 90.00 90.00 90.00 Sym.group:    0
1.0
   10.828481     0.000000     0.000000
    0.000000    12.676289     0.000000
    0.000000     0.000000    11.463813
   B
  16
Direct
    0.635604     0.499395     0.590125 
    0.550815     0.399041     0.607330 
    0.519774     0.360821     0.457901 
    0.756448     0.490150     0.488652 
    0.713139     0.602283     0.533093 
    0.618600     0.533940     0.430221 
    0.660378     0.398346     0.466893 
    0.495383     0.601011     0.404142 
    0.571590     0.633312     0.547601 
    0.418815     0.356043     0.577694 
    0.371916     0.377705     0.443555 
    0.303743     0.566522     0.538226 
    0.307326     0.438442     0.560179 
    0.302686     0.488156     0.420944 
    0.424814     0.646516     0.527012 
    0.348968     0.608314     0.406432 
EA16488 12.575 12.697  9.595 90.00 90.00 90.00 Sym.group:    0
1.0
   12.575325     0.000000     0.000000
    0.000000    12.697156     0.000000
    0.000000     0.000000     9.595016
   B
  16
Direct
    0.495249     0.326709     0.466844 
    0.374394     0.374088     0.468085 
    0.541063     0.596539     0.463103 
    0.689353     0.429415     0.494531 
    0.618462     0.334938     0.438400 
    0.678823     0.554280     0.498528 
    0.640699     0.673836     0.512916 
    0.318435     0.584774     0.491906 
    0.414664     0.666144     0.497357 
    0.528059     0.721373     0.511246 
    0.583753     0.386265     0.597858 
    0.467908     0.427964     0.632649 
    0.356186     0.478695     0.597677 
    0.435741     0.511673     0.449809 
    0.559529     0.464182     0.443334 
    0.297684     0.469123     0.435757 
EA16579 12.499 10.232 12.584 90.00 90.00 90.00 Sym.group:    0
1.0
   12.499440     0.000000     0.000000
    0.000000    10.232274     0.000000
    0.000000     0.000000    12.584328
   B
  18
Direct
    0.503291     0.721353     0.431693 
    0.301544     0.544078     0.451048 
    0.338257     0.470028     0.564154 
    0.440242     0.721179     0.550668 
    0.657452     0.613432     0.561108 
    0.568326     0.724895     0.547245 
    0.338386     0.624835     0.562343 
    0.374563     0.672967     0.439710 
    0.622963     0.659557     0.438554 
    0.319554     0.384460     0.446421 
    0.396004     0.263133     0.425884 
    0.405579     0.334147     0.545708 
    0.532803     0.365618     0.574054 
    0.503301     0.245483     0.490728 
    0.631605     0.291951     0.509082 
    0.644491     0.447847     0.554511 
    0.713845     0.379818     0.451058 
    0.707794     0.535216     0.456028 
EA16949 13.348 12.095  9.639 90.00 90.00 90.00 Sym.group:    0
1.0
   13.348454     0.000000     0.000000
    0.000000    12.094977     0.000000
    0.000000     0.000000     9.639280
   B
  16
Direct
    0.516699     0.404605     0.596544 
    0.368180     0.644658     0.502456 
    0.298239     0.420989     0.516161 
    0.284139     0.550158     0.520752 
    0.404266     0.355654     0.490765 
    0.385768     0.500785     0.450538 
    0.514481     0.300437     0.480732 
    0.497222     0.444015     0.408813 
    0.584178     0.665928     0.521584 
    0.606776     0.503433     0.408667 
    0.471920     0.711771     0.513001 
    0.681461     0.585043     0.522220 
    0.490898     0.579272     0.456656 
    0.697254     0.456965     0.521245 
    0.623893     0.352844     0.493922 
    0.574626     0.523442     0.595944 
EA17067 13.252 12.508 11.006 90.00 90.00 90.00 Sym.group:    0
1.0
   13.251565     0.000000     0.000000
    0.000000    12.508073     0.000000
    0.000000     0.000000    11.005809
   B
  18
Direct
    0.529551     0.566678     0.611671 
    0.340324     0.594534     0.533547 
    0.439466     0.661435     0.569214 
    0.548238     0.691918     0.526510 
    0.492319     0.586966     0.444191 
    0.379483     0.502363     0.402485 
    0.273155     0.505140     0.479347 
    0.336288     0.412574     0.533966 
    0.630449     0.388356     0.501552 
    0.483454     0.499897     0.325488 
    0.596965     0.497587     0.365253 
    0.634856     0.497104     0.596415 
    0.634049     0.605625     0.501782 
    0.692212     0.495816     0.458107 
    0.432999     0.341844     0.569070 
    0.489071     0.412049     0.442688 
    0.541057     0.306859     0.527572 
    0.526065     0.433254     0.611144 
EA17437 12.228 11.158 11.936 90.00 90.00 90.00 Sym.group:    0
1.0
   12.228430     0.000000     0.000000
    0.000000    11.158206     0.000000
    0.000000     0.000000    11.935725
   B
  16
Direct
    0.696874     0.449636     0.444663 
    0.627321     0.494362     0.562913 
    0.691195     0.588792     0.454149 
    0.557694     0.532336     0.429057 
    0.524138     0.256061     0.507530 
    0.626946     0.337378     0.482244 
    0.402711     0.284438     0.525401 
    0.337794     0.404956     0.509933 
    0.292148     0.537826     0.495540 
    0.422029     0.533481     0.441538 
    0.523991     0.568945     0.606078 
    0.393486     0.583576     0.586875 
    0.470665     0.692044     0.499704 
    0.345189     0.663482     0.474586 
    0.602225     0.676062     0.500263 
    0.485596     0.396624     0.479524 
EA17539 11.839 11.400 11.556 90.00 90.00 90.00 Sym.group:    0
1.0
   11.838654     0.000000     0.000000
    0.000000    11.399756     0.000000
    0.000000     0.000000    11.555763
   B
  18
Direct
    0.391560     0.451650     0.395514 
    0.324061     0.389464     0.500351 
    0.448229     0.320750     0.505707 
    0.330581     0.529375     0.535931 
    0.485812     0.525703     0.328325 
    0.581221     0.291996     0.471388 
    0.549459     0.423150     0.407590 
    0.677861     0.386344     0.487871 
    0.560628     0.393244     0.579549 
    0.565195     0.538406     0.599775 
    0.645322     0.655038     0.520631 
    0.696455     0.527492     0.515115 
    0.576791     0.582651     0.416590 
    0.510486     0.677623     0.546222 
    0.422409     0.612816     0.418772 
    0.432560     0.583043     0.630467 
    0.432183     0.441467     0.606173 
    0.369189     0.669787     0.534028 
EA17784 13.224 12.451 10.928 90.00 90.00 90.00 Sym.group:    0
1.0
   13.223813     0.000000     0.000000
    0.000000    12.450965     0.000000
    0.000000     0.000000    10.927929
   B
  18
Direct
    0.531497     0.567087     0.613274 
    0.340565     0.597063     0.535392 
    0.441150     0.662057     0.571645 
    0.550190     0.692704     0.527320 
    0.493754     0.585188     0.445977 
    0.379382     0.504893     0.401460 
    0.272970     0.508368     0.478132 
    0.334394     0.413983     0.533170 
    0.629035     0.386136     0.500902 
    0.483248     0.500327     0.323853 
    0.597083     0.496275     0.363242 
    0.635948     0.495202     0.595705 
    0.634364     0.604329     0.500270 
    0.692362     0.493442     0.456033 
    0.431001     0.342329     0.569309 
    0.488556     0.412375     0.443084 
    0.538753     0.305288     0.529149 
    0.525750     0.432952     0.612083 
EA18154 10.974 12.657 11.257 90.00 90.00 90.00 Sym.group:    0
1.0
   10.973728     0.000000     0.000000
    0.000000    12.657212     0.000000
    0.000000     0.000000    11.256535
   B
  16
Direct
    0.432960     0.443203     0.384547 
    0.304684     0.430813     0.533832 
    0.418371     0.347642     0.540837 
    0.327091     0.525676     0.412127 
    0.345337     0.647358     0.496867 
    0.485403     0.681173     0.489790 
    0.268156     0.551417     0.550049 
    0.438207     0.533540     0.523058 
    0.588395     0.573072     0.519912 
    0.713381     0.483291     0.504348 
    0.629869     0.695282     0.493538 
    0.730705     0.610113     0.503304 
    0.539556     0.363625     0.421271 
    0.553060     0.446917     0.549506 
    0.672793     0.362245     0.516775 
    0.552031     0.304633     0.560239 
EA18395 13.009 12.776  9.527 90.00 90.00 90.00 Sym.group:    0
1.0
   13.008514     0.000000     0.000000
    0.000000    12.776242     0.000000
    0.000000     0.000000     9.527369
   B
  16
Direct
    0.605628     0.360517     0.483047 
    0.494329     0.449917     0.404630 
    0.605274     0.516189     0.414544 
    0.699577     0.443065     0.502554 
    0.692513     0.561735     0.538014 
    0.491666     0.702682     0.510402 
    0.601582     0.648114     0.516538 
    0.494147     0.574615     0.467993 
    0.590662     0.484339     0.604097 
    0.386674     0.365680     0.502242 
    0.492953     0.311768     0.463069 
    0.499846     0.400582     0.597518 
    0.380368     0.514532     0.436591 
    0.294572     0.447954     0.532433 
    0.381694     0.648854     0.497472 
    0.288514     0.569456     0.528854 
EA18638 12.979 12.680  9.453 90.00 90.00 90.00 Sym.group:    0
1.0
   12.979214     0.000000     0.000000
    0.000000    12.680224     0.000000
    0.000000     0.000000     9.452900
   B
  16
Direct
    0.608445     0.361375     0.481151 
    0.495001     0.450387     0.404642 
    0.605044     0.518618     0.415336 
    0.701147     0.445849     0.501735 
    0.691892     0.564962     0.539617 
    0.488421     0.704082     0.512796 
    0.599346     0.650679     0.518616 
    0.492496     0.576228     0.466276 
    0.591774     0.483755     0.605832 
    0.388616     0.362838     0.499992 
    0.495896     0.310393     0.460317 
    0.501526     0.398831     0.596980 
    0.379830     0.513267     0.436448 
    0.294769     0.444024     0.531635 
    0.379027     0.648250     0.498807 
    0.286772     0.566464     0.529819 
EA18740 12.663 12.475 11.065 90.00 90.00 90.00 Sym.group:    0
1.0
   12.663403     0.000000     0.000000
    0.000000    12.475427     0.000000
    0.000000     0.000000    11.065338
   B
  18
Direct
    0.307116     0.560526     0.503582 
    0.403066     0.500599     0.592240 
    0.510005     0.577099     0.608150 
    0.522520     0.693553     0.504254 
    0.406140     0.641831     0.529412 
    0.507339     0.604020     0.399572 
    0.621637     0.610380     0.519056 
    0.617466     0.503561     0.620779 
    0.511678     0.427112     0.612247 
    0.623840     0.393276     0.523818 
    0.526660     0.307216     0.514054 
    0.698044     0.502326     0.501580 
    0.401938     0.497023     0.410190 
    0.308100     0.435285     0.506684 
    0.409247     0.357511     0.535934 
    0.509422     0.393051     0.405705 
    0.503534     0.496606     0.317745 
    0.612248     0.499024     0.394998 
EA19178 12.535 12.708  9.643 90.00 90.00 90.00 Sym.group:    0
1.0
   12.534767     0.000000     0.000000
    0.000000    12.708017     0.000000
    0.000000     0.000000     9.642763
   B
  16
Direct
    0.544287     0.432218     0.368085 
    0.641927     0.394208     0.537083 
    0.530010     0.328269     0.537362 
    0.647765     0.498449     0.404738 
    0.668052     0.610058     0.507924 
    0.559636     0.674892     0.502038 
    0.704521     0.499219     0.566906 
    0.561554     0.523151     0.548116 
    0.443619     0.589695     0.536787 
    0.313217     0.528866     0.498675 
    0.439270     0.715249     0.489108 
    0.333982     0.652682     0.489587 
    0.435961     0.372887     0.401567 
    0.447279     0.455862     0.551789 
    0.323104     0.403982     0.499371 
    0.405817     0.320311     0.560865 
EA19347 12.920 12.643  9.817 90.00 90.00 90.00 Sym.group:    0
1.0
   12.919973     0.000000     0.000000
    0.000000    12.642780     0.000000
    0.000000     0.000000     9.816727
   B
  16
Direct
    0.532147     0.567077     0.581737 
    0.413087     0.637972     0.477859 
    0.530275     0.674346     0.461867 
    0.316186     0.575752     0.535670 
    0.304468     0.452965     0.535744 
    0.423637     0.495777     0.592520 
    0.392585     0.365688     0.517179 
    0.377491     0.508235     0.408041 
    0.490510     0.552262     0.364878 
    0.525011     0.422632     0.503973 
    0.668759     0.419979     0.516483 
    0.686759     0.538710     0.563069 
    0.607969     0.534217     0.420709 
    0.635844     0.647586     0.532124 
    0.489708     0.291372     0.494432 
    0.605561     0.315430     0.493715 
EA19466 12.382 12.395 11.097 90.00 90.00 90.00 Sym.group:    0
1.0
   12.382310     0.000000     0.000000
    0.000000    12.395067     0.000000
    0.000000     0.000000    11.097042
   B
  18
Direct
    0.520152     0.299244     0.493925 
    0.699924     0.491817     0.496280 
    0.619756     0.384975     0.476703 
    0.614932     0.495714     0.605030 
    0.498293     0.401441     0.589050 
    0.403058     0.514326     0.586133 
    0.504051     0.504022     0.681205 
    0.517927     0.612466     0.602338 
    0.399356     0.338889     0.482979 
    0.499853     0.413940     0.398612 
    0.310601     0.438635     0.487993 
    0.411186     0.641655     0.469212 
    0.305330     0.564367     0.493152 
    0.408320     0.511793     0.401979 
    0.608804     0.495432     0.380756 
    0.532673     0.694902     0.492487 
    0.628181     0.603357     0.479301 
    0.517602     0.593024     0.382862 
EA19833 12.412 11.939 10.570 90.00 90.00 90.00 Sym.group:    0
1.0
   12.412319     0.000000     0.000000
    0.000000    11.938604     0.000000
    0.000000     0.000000    10.569596
   B
  16
Direct
    0.527058     0.518287     0.644654 
    0.400618     0.628545     0.526726 
    0.300434     0.424226     0.491563 
    0.295370     0.550710     0.528306 
    0.409013     0.480375     0.592910 
    0.527248     0.658285     0.525079 
    0.397081     0.512652     0.416186 
    0.616013     0.625813     0.410981 
    0.668551     0.502116     0.448657 
    0.636704     0.590839     0.562442 
    0.521056     0.409407     0.538435 
    0.641411     0.455037     0.596545 
    0.636519     0.368012     0.465468 
    0.405927     0.356442     0.449292 
    0.527603     0.314299     0.420366 
    0.489392     0.604957     0.382392 
EA20120 13.632 12.669  8.999 90.00 90.00 90.00 Sym.group:    0
1.0
   13.632039     0.000000     0.000000
    0.000000    12.669177     0.000000
    0.000000     0.000000     8.999407
   B
  16
Direct
    0.731901     0.541794     0.504100 
    0.623530     0.493254     0.473538 
    0.717315     0.420021     0.515669 
    0.615117     0.356903     0.516637 
    0.511310     0.452713     0.503310 
    0.393459     0.313912     0.449923 
    0.502780     0.315155     0.510586 
    0.413305     0.405648     0.578336 
    0.328155     0.635227     0.507879 
    0.645542     0.632772     0.485483 
    0.282122     0.523305     0.501394 
    0.551003     0.706945     0.493622 
    0.437040     0.679810     0.498207 
    0.309581     0.403406     0.467715 
    0.526548     0.581831     0.462434 
    0.411291     0.537305     0.531170 
EA20334 12.961 12.425  9.589 90.00 90.00 90.00 Sym.group:    0
1.0
   12.960921     0.000000     0.000000
    0.000000    12.424514     0.000000
    0.000000     0.000000     9.588826
   B
  16
Direct
    0.375896     0.493406     0.544889 
    0.492294     0.429841     0.562466 
    0.386652     0.632021     0.488614 
    0.282850     0.430417     0.465283 
    0.378687     0.352205     0.498525 
    0.497245     0.689740     0.493897 
    0.287600     0.555420     0.454763 
    0.536502     0.577562     0.401380 
    0.481781     0.563728     0.588216 
    0.693145     0.561130     0.482680 
    0.617017     0.662174     0.503167 
    0.599017     0.514646     0.589854 
    0.694648     0.435147     0.501202 
    0.491751     0.302030     0.503747 
    0.606715     0.344959     0.513633 
    0.578198     0.455573     0.407684 
EA20574 13.112 12.516  9.733 90.00 90.00 90.00 Sym.group:    0
1.0
   13.111669     0.000000     0.000000
    0.000000    12.516272     0.000000
    0.000000     0.000000     9.733015
   B
  16
Direct
    0.705403     0.439508     0.538848 
    0.605680     0.364845     0.514129 
    0.498509     0.307655     0.488128 
    0.484635     0.410182     0.601455 
    0.303731     0.447378     0.509865 
    0.386635     0.354182     0.487565 
    0.507034     0.440798     0.409498 
    0.619934     0.504611     0.445043 
    0.715078     0.563030     0.523454 
    0.623774     0.644011     0.490243 
    0.404871     0.651646     0.505560 
    0.507811     0.571433     0.459156 
    0.396230     0.508845     0.410617 
    0.516428     0.702325     0.499745 
    0.307758     0.571097     0.518542 
    0.416489     0.518456     0.598152 
EA20787 11.161 13.357 11.827 90.00 90.00 90.00 Sym.group:    0
1.0
   11.161231     0.000000     0.000000
    0.000000    13.357115     0.000000
    0.000000     0.000000    11.827164
   B
  16
Direct
    0.490395     0.659756     0.502039 
    0.552385     0.571690     0.415225 
    0.639371     0.631738     0.496905 
    0.748289     0.579131     0.558447 
    0.781731     0.466905     0.563031 
    0.715967     0.376641     0.512962 
    0.648267     0.493503     0.491191 
    0.441503     0.352425     0.501094 
    0.226127     0.449813     0.552060 
    0.303253     0.354402     0.540371 
    0.585671     0.360111     0.468779 
    0.265477     0.565025     0.522381 
    0.406691     0.568572     0.444280 
    0.350489     0.659162     0.523996 
    0.494519     0.458153     0.428350 
    0.349868     0.452972     0.478890 
EA20890 14.088 13.803  8.134 90.00 90.00 90.00 Sym.group:    0
1.0
   14.087577     0.000000     0.000000
    0.000000    13.803199     0.000000
    0.000000     0.000000     8.134423
   B
  19
Direct
    0.279921     0.431418     0.529671 
    0.331585     0.659813     0.530082 
    0.551921     0.728868     0.530021 
    0.720085     0.568602     0.529665 
    0.668433     0.340219     0.530073 
    0.448107     0.271134     0.530020 
    0.412579     0.582998     0.464815 
    0.526493     0.618581     0.465585 
    0.613827     0.535984     0.465030 
    0.587430     0.417000     0.464807 
    0.473501     0.381387     0.465598 
    0.386142     0.464012     0.465038 
    0.560670     0.298236     0.518137 
    0.359173     0.345563     0.517930 
    0.298556     0.547550     0.517868 
    0.439323     0.701759     0.518142 
    0.640820     0.654430     0.517940 
    0.701432     0.452432     0.517882 
    0.500000     0.500013     0.421697 
EA21189 12.605 12.139 12.196 90.00 90.00 90.00 Sym.group:    0
1.0
   12.604945     0.000000     0.000000
    0.000000    12.138592     0.000000
    0.000000     0.000000    12.195542
   B
  18
Direct
    0.541403     0.392816     0.592712 
    0.526651     0.408546     0.382844 
    0.458598     0.607184     0.407287 
    0.473349     0.591456     0.617156 
    0.360265     0.562058     0.502955 
    0.411660     0.438411     0.608548 
    0.445223     0.366871     0.490914 
    0.402249     0.469190     0.398357 
    0.554776     0.633130     0.509087 
    0.597752     0.530810     0.601643 
    0.639734     0.437941     0.497044 
    0.588340     0.561590     0.391451 
    0.427469     0.674104     0.522196 
    0.506693     0.482709     0.689096 
    0.572531     0.325895     0.477804 
    0.493307     0.517291     0.310904 
    0.673050     0.566959     0.493311 
    0.326949     0.433039     0.506689 
EA21407 11.407 10.509 11.981 90.00 90.00 90.00 Sym.group:    0
1.0
   11.406853     0.000000     0.000000
    0.000000    10.508638     0.000000
    0.000000     0.000000    11.980849
   B
  18
Direct
    0.442581     0.362669     0.439829 
    0.589990     0.327719     0.460181 
    0.307878     0.397616     0.420967 
    0.386324     0.547622     0.417214 
    0.413829     0.630047     0.651745 
    0.382322     0.456312     0.553532 
    0.501588     0.362666     0.567415 
    0.310271     0.606010     0.566474 
    0.248987     0.513015     0.477653 
    0.642269     0.372434     0.587374 
    0.650126     0.522686     0.612671 
    0.554542     0.630299     0.636392 
    0.625606     0.415890     0.353780 
    0.519213     0.583739     0.386335 
    0.660538     0.558801     0.367926 
    0.676613     0.470971     0.482162 
    0.617574     0.623010     0.496685 
    0.469747     0.618496     0.521664 
