EA26216 14.044 13.970 12.773 90.00 90.00 90.00 Sym.group:    0
1.0
   14.044038     0.000000     0.000000
    0.000000    13.969960     0.000000
    0.000000     0.000000    12.773261
   W   B
   1  21
Direct
    0.499795     0.500670     0.491097 
    0.503279     0.479667     0.678047 
    0.399502     0.472324     0.635284 
    0.353728     0.563998     0.554691 
    0.427314     0.653647     0.546728 
    0.333230     0.449548     0.531953 
    0.332206     0.517254     0.417960 
    0.379886     0.620011     0.420625 
    0.628919     0.594074     0.555192 
    0.479973     0.673822     0.422504 
    0.538965     0.666048     0.545324 
    0.652356     0.438660     0.408958 
    0.616389     0.387996     0.541723 
    0.674463     0.488596     0.529757 
    0.605936     0.491059     0.634114 
    0.571697     0.359673     0.393955 
    0.658433     0.553595     0.416199 
    0.460741     0.347382     0.394989 
    0.519255     0.328769     0.519819 
    0.587809     0.642144     0.413310 
    0.364945     0.407337     0.409095 
    0.411180     0.363723     0.538675 
EA26180 13.876 14.177 13.233 90.00 90.00 90.00 Sym.group:    0
1.0
   13.875617     0.000000     0.000000
    0.000000    14.177260     0.000000
    0.000000     0.000000    13.233059
   W   B
   1  22
Direct
    0.500254     0.499910     0.483281 
    0.665846     0.508717     0.477637 
    0.383764     0.397561     0.548638 
    0.505511     0.361954     0.581724 
    0.631702     0.405425     0.545555 
    0.464446     0.450642     0.652014 
    0.641751     0.503214     0.605937 
    0.634179     0.406419     0.409413 
    0.636352     0.503235     0.349264 
    0.382117     0.398149     0.397669 
    0.448478     0.329611     0.468606 
    0.566215     0.332525     0.473391 
    0.534783     0.549449     0.652159 
    0.494080     0.638130     0.581602 
    0.616208     0.602508     0.549022 
    0.364005     0.496635     0.348541 
    0.334388     0.491233     0.476827 
    0.357735     0.496882     0.605209 
    0.433934     0.667352     0.472882 
    0.368094     0.594599     0.544782 
    0.366136     0.593514     0.408628 
    0.618297     0.601859     0.398346 
    0.551725     0.670474     0.468872 
EA15602 15.424 13.970 12.675 90.00 90.00 90.00 Sym.group:    0
1.0
   15.423703     0.000000     0.000000
    0.000000    13.969962     0.000000
    0.000000     0.000000    12.674821
   W   B
   1  23
Direct
    0.463406     0.500405     0.473234 
    0.494050     0.646421     0.392760 
    0.556939     0.635353     0.510712 
    0.577570     0.568356     0.385393 
    0.645709     0.577011     0.501282 
    0.459493     0.669464     0.523067 
    0.379041     0.605478     0.572274 
    0.486678     0.593337     0.620982 
    0.322121     0.559423     0.452803 
    0.390021     0.640219     0.418223 
    0.654238     0.498103     0.619666 
    0.722320     0.498611     0.524802 
    0.670674     0.499416     0.402484 
    0.457767     0.331011     0.521905 
    0.492541     0.354329     0.391861 
    0.321239     0.442900     0.452827 
    0.388494     0.361539     0.417309 
    0.377642     0.395574     0.571310 
    0.555521     0.364343     0.510092 
    0.546161     0.498955     0.656569 
    0.484824     0.406068     0.620801 
    0.331600     0.501139     0.574489 
    0.576908     0.431475     0.385226 
    0.645044     0.421071     0.499929 
EA26051 13.434 13.513 13.781 90.00 90.00 90.00 Sym.group:    0
1.0
   13.433660     0.000000     0.000000
    0.000000    13.512574     0.000000
    0.000000     0.000000    13.780548
   W   B
   1  24
Direct
    0.499919     0.500274     0.499870 
    0.524031     0.443011     0.663788 
    0.559188     0.331432     0.505529 
    0.585005     0.390853     0.388529 
    0.587663     0.590571     0.376017 
    0.564518     0.665713     0.484472 
    0.526592     0.578648     0.654786 
    0.441007     0.668689     0.494759 
    0.475740     0.556902     0.335928 
    0.473422     0.421061     0.345079 
    0.435524     0.334217     0.515865 
    0.411891     0.409414     0.623766 
    0.415135     0.608919     0.611596 
    0.626406     0.507052     0.634220 
    0.620017     0.392132     0.597742 
    0.658678     0.403626     0.485847 
    0.662565     0.490800     0.403519 
    0.662108     0.588499     0.473802 
    0.624425     0.616222     0.583250 
    0.341138     0.597331     0.514490 
    0.379906     0.607813     0.402547 
    0.373594     0.492734     0.366248 
    0.376020     0.383503     0.416779 
    0.337796     0.411414     0.525837 
    0.337713     0.509167     0.595736 
EA25976 16.027 13.899 13.697 90.00 90.00 90.00 Sym.group:    0
1.0
   16.026961     0.000000     0.000000
    0.000000    13.899491     0.000000
    0.000000     0.000000    13.697292
   W   B
   1  25
Direct
    0.466548     0.509659     0.498426 
    0.568554     0.393053     0.440759 
    0.477643     0.354511     0.411160 
    0.506155     0.455185     0.338917 
    0.730045     0.511686     0.513750 
    0.676051     0.564436     0.427711 
    0.657173     0.448875     0.452902 
    0.637263     0.558984     0.558817 
    0.586191     0.514942     0.379847 
    0.682412     0.442902     0.584439 
    0.586355     0.620501     0.454049 
    0.508357     0.684958     0.480729 
    0.591068     0.404328     0.619214 
    0.556587     0.626314     0.581518 
    0.498786     0.396731     0.656676 
    0.413253     0.383364     0.605216 
    0.506969     0.358228     0.537342 
    0.310910     0.526847     0.549107 
    0.335005     0.477547     0.431892 
    0.328292     0.414194     0.548765 
    0.410046     0.676130     0.474974 
    0.391401     0.365087     0.470375 
    0.408343     0.440039     0.357204 
    0.341533     0.597188     0.453113 
    0.459777     0.654142     0.594408 
    0.365282     0.620168     0.578687 
EA24812 14.575 14.446 12.593 90.00 90.00 90.00 Sym.group:    0
1.0
   14.574793     0.000000     0.000000
    0.000000    14.446041     0.000000
    0.000000     0.000000    12.592997
   W   B
   2  21
Direct
    0.511210     0.481952     0.619447 
    0.461573     0.520528     0.445669 
    0.597135     0.345986     0.608433 
    0.565658     0.389659     0.475352 
    0.610429     0.559811     0.370401 
    0.559642     0.652755     0.418497 
    0.461099     0.683618     0.464901 
    0.590706     0.450000     0.353714 
    0.650776     0.607277     0.487245 
    0.673614     0.543436     0.590223 
    0.638712     0.485487     0.476438 
    0.663707     0.434827     0.603332 
    0.553448     0.625541     0.555741 
    0.449573     0.635680     0.594435 
    0.404193     0.367755     0.533063 
    0.499706     0.321545     0.570014 
    0.399085     0.380709     0.376626 
    0.323584     0.431210     0.447140 
    0.503398     0.384462     0.349178 
    0.348576     0.456570     0.578308 
    0.360932     0.638933     0.492435 
    0.367915     0.562946     0.602758 
    0.305330     0.539317     0.486650 
EA24408 14.568 14.495 12.543 90.00 90.00 90.00 Sym.group:    0
1.0
   14.568413     0.000000     0.000000
    0.000000    14.494696     0.000000
    0.000000     0.000000    12.542804
   W   B
   2  22
Direct
    0.508711     0.547247     0.550988 
    0.501434     0.486705     0.379670 
    0.526033     0.325061     0.390716 
    0.536420     0.371861     0.523839 
    0.528883     0.647078     0.394713 
    0.662797     0.605353     0.546641 
    0.623708     0.592984     0.411065 
    0.662811     0.503365     0.598997 
    0.648674     0.494846     0.458397 
    0.663317     0.400578     0.536076 
    0.622633     0.355345     0.427842 
    0.587281     0.424968     0.638240 
    0.590026     0.683437     0.508290 
    0.386553     0.462167     0.635762 
    0.344471     0.560542     0.590960 
    0.382395     0.654240     0.537584 
    0.479256     0.702295     0.504956 
    0.479095     0.400289     0.642651 
    0.309058     0.463671     0.529588 
    0.336887     0.409837     0.421171 
    0.416532     0.393299     0.523689 
    0.418515     0.345722     0.390229 
    0.363424     0.541755     0.451087 
    0.421088     0.627357     0.406847 
EA11145 14.929 13.882 13.547 90.00 90.00 90.00 Sym.group:    0
1.0
   14.929165     0.000000     0.000000
    0.000000    13.882225     0.000000
    0.000000     0.000000    13.546666
   W   B
   2  23
Direct
    0.607199     0.443335     0.613943 
    0.468038     0.507538     0.495017 
    0.391980     0.362871     0.530999 
    0.341878     0.419504     0.427034 
    0.429909     0.354215     0.413013 
    0.509404     0.346234     0.514390 
    0.532080     0.373649     0.384795 
    0.613929     0.361512     0.478190 
    0.462618     0.385210     0.624007 
    0.694637     0.435028     0.483134 
    0.696197     0.545360     0.522641 
    0.620760     0.437588     0.372983 
    0.677139     0.531812     0.400948 
    0.336800     0.531859     0.399717 
    0.409173     0.621484     0.386744 
    0.316086     0.502081     0.523838 
    0.369684     0.455214     0.618226 
    0.340544     0.614923     0.493854 
    0.462802     0.493245     0.675745 
    0.524170     0.579665     0.641856 
    0.529966     0.658704     0.542300 
    0.620452     0.598363     0.587656 
    0.428080     0.678023     0.501384 
    0.510341     0.653656     0.413539 
    0.606135     0.608928     0.454045 
EA9373 15.190 14.322 13.785 90.00 90.00 90.00 Sym.group:    0
1.0
   15.189678     0.000000     0.000000
    0.000000    14.321752     0.000000
    0.000000     0.000000    13.784836
   W   B
   2  24
Direct
    0.532359     0.474976     0.481215 
    0.385299     0.602832     0.446158 
    0.443507     0.511313     0.636816 
    0.629194     0.546925     0.593536 
    0.523956     0.592378     0.607287 
    0.547409     0.489876     0.662681 
    0.640119     0.351587     0.517298 
    0.540342     0.316995     0.520950 
    0.620543     0.425719     0.611888 
    0.438610     0.340744     0.507891 
    0.385309     0.436211     0.566620 
    0.679652     0.399478     0.417701 
    0.680479     0.465823     0.519138 
    0.519796     0.658135     0.427009 
    0.484166     0.682445     0.537529 
    0.593555     0.628542     0.516092 
    0.429126     0.495424     0.335625 
    0.672114     0.504424     0.394587 
    0.501966     0.576992     0.346784 
    0.606124     0.593508     0.394303 
    0.335172     0.467379     0.389494 
    0.424218     0.396074     0.399081 
    0.412097     0.629156     0.602312 
    0.298368     0.484029     0.503697 
    0.338084     0.379716     0.475473 
    0.338434     0.549316     0.588831 
EA17440 15.602 14.333 13.402 90.00 90.00 90.00 Sym.group:    0
1.0
   15.602024     0.000000     0.000000
    0.000000    14.333455     0.000000
    0.000000     0.000000    13.401648
   W   B
   2  25
Direct
    0.411816     0.382145     0.567445 
    0.542005     0.500219     0.505117 
    0.575846     0.354090     0.406586 
    0.532022     0.322484     0.515476 
    0.468913     0.353963     0.414554 
    0.367579     0.367460     0.406008 
    0.629304     0.371242     0.525664 
    0.554385     0.377706     0.620930 
    0.499678     0.464719     0.673861 
    0.306006     0.436322     0.464942 
    0.315940     0.493477     0.577715 
    0.682462     0.566688     0.547961 
    0.658964     0.542617     0.411380 
    0.463135     0.580603     0.381300 
    0.362852     0.596266     0.416559 
    0.533933     0.670193     0.499445 
    0.433958     0.647954     0.497728 
    0.601558     0.629956     0.595507 
    0.568886     0.603412     0.377999 
    0.629950     0.641250     0.474024 
    0.693699     0.464571     0.511449 
    0.418633     0.523013     0.613058 
    0.350526     0.601235     0.552372 
    0.547866     0.562410     0.666954 
    0.414539     0.472188     0.403336 
    0.652217     0.425660     0.402019 
    0.283328     0.548156     0.470610 
EA26123 14.899 13.796 13.266 90.00 90.00 90.00 Sym.group:    0
1.0
   14.899362     0.000000     0.000000
    0.000000    13.796188     0.000000
    0.000000     0.000000    13.265738
   W   B
   3  21
Direct
    0.416198     0.627221     0.428994 
    0.384978     0.353305     0.463362 
    0.526536     0.498660     0.509895 
    0.314274     0.497821     0.440451 
    0.396072     0.476520     0.361255 
    0.398322     0.633965     0.599255 
    0.498446     0.518264     0.330725 
    0.488923     0.404256     0.366222 
    0.321435     0.574500     0.536933 
    0.317482     0.449790     0.557651 
    0.407957     0.404244     0.616173 
    0.387570     0.520010     0.632448 
    0.537426     0.334480     0.458818 
    0.594960     0.344151     0.576522 
    0.487598     0.328309     0.577835 
    0.664261     0.546095     0.588412 
    0.640477     0.383094     0.463623 
    0.557126     0.671037     0.464452 
    0.603970     0.642036     0.578287 
    0.563515     0.601204     0.366427 
    0.682455     0.488097     0.466547 
    0.665990     0.431026     0.584825 
    0.497469     0.672470     0.571998 
    0.646559     0.599447     0.458889 
EA26054 15.017 14.233 13.695 90.00 90.00 90.00 Sym.group:    0
1.0
   15.016895     0.000000     0.000000
    0.000000    14.232650     0.000000
    0.000000     0.000000    13.695055
   W   B
   3  22
Direct
    0.536381     0.670194     0.467678 
    0.427113     0.499773     0.420706 
    0.541772     0.486774     0.545983 
    0.436021     0.564007     0.644956 
    0.430623     0.660128     0.570954 
    0.526981     0.628625     0.629230 
    0.630466     0.611028     0.594799 
    0.350292     0.573082     0.542426 
    0.386407     0.651890     0.458988 
    0.432828     0.646723     0.353411 
    0.321044     0.386042     0.437082 
    0.372969     0.371095     0.547416 
    0.304457     0.467330     0.516973 
    0.388568     0.471391     0.608092 
    0.622878     0.370419     0.438404 
    0.590839     0.541234     0.389538 
    0.518183     0.593149     0.322629 
    0.659223     0.587316     0.478034 
    0.671899     0.475190     0.446544 
    0.692243     0.512454     0.567076 
    0.413130     0.334501     0.424674 
    0.521185     0.332996     0.435456 
    0.669570     0.401530     0.549793 
    0.580015     0.331596     0.549924 
    0.474912     0.331534     0.559231 
EA14821 14.696 13.900 13.802 90.00 90.00 90.00 Sym.group:    0
1.0
   14.695627     0.000000     0.000000
    0.000000    13.900081     0.000000
    0.000000     0.000000    13.802178
   W   B
   3  23
Direct
    0.469815     0.500863     0.494671 
    0.595652     0.450416     0.645693 
    0.583553     0.558861     0.352584 
    0.588789     0.351254     0.528887 
    0.447477     0.459384     0.663235 
    0.433172     0.498010     0.327592 
    0.499119     0.339783     0.448456 
    0.506981     0.413800     0.350296 
    0.322623     0.430996     0.482718 
    0.366984     0.414185     0.595556 
    0.342342     0.523004     0.405801 
    0.318934     0.543051     0.527825 
    0.395715     0.342605     0.501799 
    0.481874     0.358048     0.582433 
    0.601918     0.419304     0.418353 
    0.377601     0.632508     0.467562 
    0.386248     0.613838     0.592142 
    0.429392     0.608939     0.365690 
    0.486362     0.575538     0.645071 
    0.694826     0.527277     0.563078 
    0.587340     0.590085     0.581258 
    0.663843     0.609200     0.478142 
    0.563149     0.658044     0.472813 
    0.479392     0.663232     0.549975 
    0.695120     0.502714     0.436713 
    0.681782     0.415060     0.521657 
EA25921 16.005 13.869 13.471 90.00 90.00 90.00 Sym.group:    0
1.0
   16.004625     0.000000     0.000000
    0.000000    13.868671     0.000000
    0.000000     0.000000    13.470511
   W   B
   3  24
Direct
    0.386607     0.573020     0.525403 
    0.414255     0.384124     0.546307 
    0.545623     0.496304     0.500799 
    0.315348     0.478078     0.631090 
    0.273262     0.479486     0.523998 
    0.283730     0.551769     0.422973 
    0.332740     0.445500     0.426193 
    0.364785     0.538106     0.352331 
    0.466317     0.571429     0.357974 
    0.429570     0.440245     0.380155 
    0.493499     0.654601     0.445103 
    0.568360     0.604004     0.370414 
    0.493250     0.355011     0.400595 
    0.591509     0.651107     0.493584 
    0.589349     0.617993     0.623158 
    0.656868     0.565235     0.423587 
    0.668575     0.586624     0.556209 
    0.695548     0.483673     0.516525 
    0.596624     0.358905     0.402160 
    0.640688     0.374400     0.523184 
    0.664235     0.440800     0.408473 
    0.501513     0.655155     0.566545 
    0.568119     0.367517     0.614860 
    0.497747     0.568962     0.654909 
    0.507448     0.445417     0.662741 
    0.410896     0.490166     0.668149 
    0.543535     0.322369     0.502581 
EA25898 15.008 14.373 13.931 90.00 90.00 90.00 Sym.group:    0
1.0
   15.008289     0.000000     0.000000
    0.000000    14.373319     0.000000
    0.000000     0.000000    13.931025
   W   B
   3  25
Direct
    0.462757     0.609907     0.385595 
    0.554279     0.488317     0.495028 
    0.449820     0.474850     0.653697 
    0.475722     0.676940     0.527367 
    0.483380     0.457306     0.337949 
    0.372085     0.654480     0.506740 
    0.323798     0.579299     0.436888 
    0.389679     0.483048     0.398834 
    0.293269     0.476661     0.469905 
    0.416774     0.615417     0.612719 
    0.342290     0.542699     0.567819 
    0.577922     0.645148     0.492733 
    0.529089     0.598854     0.608992 
    0.576124     0.510242     0.326118 
    0.675668     0.498743     0.392542 
    0.615504     0.600100     0.383187 
    0.682319     0.589447     0.475986 
    0.447824     0.361935     0.404797 
    0.347351     0.380680     0.455749 
    0.527936     0.322312     0.478163 
    0.433742     0.374823     0.537943 
    0.336643     0.425710     0.572483 
    0.679182     0.405444     0.455090 
    0.625591     0.349602     0.535152 
    0.527922     0.346454     0.595411 
    0.598373     0.414792     0.645992 
    0.650343     0.592069     0.584623 
    0.604613     0.524722     0.662500 
EA12512 14.690 13.956 13.915 90.00 90.00 90.00 Sym.group:    0
1.0
   14.690319     0.000000     0.000000
    0.000000    13.955623     0.000000
    0.000000     0.000000    13.915321
   W   B
   4  21
Direct
    0.569944     0.526869     0.350839 
    0.536520     0.643733     0.597819 
    0.597507     0.356461     0.559575 
    0.462902     0.485678     0.503933 
    0.667123     0.436371     0.437433 
    0.512773     0.642004     0.436371 
    0.621609     0.637365     0.459980 
    0.689367     0.548609     0.448760 
    0.668082     0.591098     0.564741 
    0.575820     0.379817     0.405237 
    0.590283     0.500789     0.614119 
    0.693016     0.473262     0.551585 
    0.442755     0.330103     0.570280 
    0.350170     0.389016     0.573402 
    0.493917     0.411395     0.651181 
    0.383393     0.587535     0.598642 
    0.313055     0.494070     0.548274 
    0.476248     0.527598     0.668197 
    0.413333     0.590975     0.392326 
    0.486297     0.323252     0.458123 
    0.402310     0.473697     0.342130 
    0.475183     0.390153     0.356121 
    0.331010     0.596004     0.488429 
    0.421270     0.660553     0.503904 
    0.326114     0.503595     0.418600 
EA21258 15.169 14.505 13.894 90.00 90.00 90.00 Sym.group:    0
1.0
   15.168903     0.000000     0.000000
    0.000000    14.505260     0.000000
    0.000000     0.000000    13.894376
   W   B
   4  22
Direct
    0.524987     0.594998     0.630491 
    0.406527     0.612553     0.383413 
    0.539054     0.499775     0.334809 
    0.453054     0.482052     0.504849 
    0.662019     0.585243     0.558111 
    0.404923     0.636861     0.540683 
    0.498506     0.673540     0.493901 
    0.700950     0.490558     0.513034 
    0.608388     0.479446     0.589802 
    0.549701     0.639177     0.390390 
    0.602478     0.662019     0.507742 
    0.651208     0.455659     0.407287 
    0.369249     0.559648     0.623381 
    0.423892     0.477485     0.672665 
    0.525050     0.444095     0.660815 
    0.649589     0.392954     0.514370 
    0.636419     0.569908     0.430585 
    0.553237     0.370380     0.565492 
    0.459996     0.375459     0.377277 
    0.448834     0.367346     0.620296 
    0.382267     0.343350     0.533349 
    0.358355     0.378154     0.427644 
    0.393616     0.463904     0.345715 
    0.321114     0.567478     0.512729 
    0.316526     0.491987     0.426540 
    0.560059     0.385968     0.434629 
EA25922 15.116 14.679 13.797 90.00 90.00 90.00 Sym.group:    0
1.0
   15.116079     0.000000     0.000000
    0.000000    14.679443     0.000000
    0.000000     0.000000    13.796872
   W   B
   4  23
Direct
    0.467833     0.517623     0.461031 
    0.542179     0.505696     0.657497 
    0.626148     0.404589     0.437851 
    0.389909     0.339740     0.514979 
    0.354702     0.646351     0.416016 
    0.579979     0.506575     0.336763 
    0.435404     0.684994     0.473280 
    0.542042     0.669985     0.485890 
    0.596774     0.601501     0.412033 
    0.677569     0.531805     0.382129 
    0.512598     0.420155     0.333010 
    0.360305     0.610572     0.534949 
    0.324946     0.444739     0.425784 
    0.308618     0.552083     0.429508 
    0.411040     0.392864     0.370484 
    0.693198     0.531918     0.496837 
    0.478444     0.628421     0.581867 
    0.490732     0.358094     0.631521 
    0.413860     0.437488     0.623811 
    0.496430     0.334218     0.415887 
    0.665286     0.458633     0.588037 
    0.670803     0.566986     0.610922 
    0.530114     0.311121     0.528008 
    0.404756     0.548510     0.620858 
    0.340560     0.484814     0.543133 
    0.595101     0.376614     0.598078 
    0.590673     0.633911     0.589838 
EA14021 14.471 13.931 14.063 90.00 90.00 90.00 Sym.group:    0
1.0
   14.471332     0.000000     0.000000
    0.000000    13.930990     0.000000
    0.000000     0.000000    14.063441
   W   B
   4  24
Direct
    0.507680     0.434354     0.542428 
    0.577740     0.600865     0.619237 
    0.688707     0.612144     0.441905 
    0.503742     0.575991     0.434344 
    0.387749     0.354839     0.472019 
    0.382291     0.666456     0.489566 
    0.356287     0.470371     0.426364 
    0.349966     0.592987     0.402102 
    0.374339     0.367798     0.589281 
    0.356850     0.492410     0.619438 
    0.342488     0.555863     0.520018 
    0.512395     0.502414     0.293750 
    0.496590     0.320529     0.424866 
    0.559976     0.414622     0.371474 
    0.401090     0.520248     0.323572 
    0.440832     0.414286     0.371426 
    0.633081     0.451099     0.643845 
    0.617327     0.524162     0.335831 
    0.427610     0.613328     0.590425 
    0.449280     0.536829     0.682737 
    0.589700     0.700971     0.497687 
    0.658556     0.388210     0.542613 
    0.683858     0.508734     0.550091 
    0.483024     0.705702     0.533145 
    0.425825     0.416097     0.679383 
    0.538004     0.466126     0.704032 
    0.603292     0.334285     0.457904 
    0.651718     0.458283     0.440517 
EA18429 14.728 14.503 12.942 90.00 90.00 90.00 Sym.group:    0
1.0
   14.728003     0.000000     0.000000
    0.000000    14.502859     0.000000
    0.000000     0.000000    12.941605
   W   B
   4  25
Direct
    0.514615     0.500816     0.591890 
    0.309590     0.393950     0.498864 
    0.516444     0.501712     0.406456 
    0.367342     0.655709     0.499811 
    0.614829     0.401309     0.499910 
    0.524872     0.328770     0.574047 
    0.657529     0.569532     0.619418 
    0.620455     0.618286     0.501046 
    0.660957     0.510844     0.500087 
    0.577726     0.643871     0.630404 
    0.666587     0.456951     0.623498 
    0.468037     0.652775     0.630946 
    0.512293     0.661040     0.501054 
    0.611270     0.365727     0.633532 
    0.578901     0.646883     0.374564 
    0.667144     0.459557     0.373326 
    0.659012     0.571663     0.381644 
    0.612438     0.367354     0.366444 
    0.382283     0.581863     0.355454 
    0.300850     0.536365     0.434140 
    0.365239     0.463505     0.362617 
    0.418730     0.372289     0.604805 
    0.431151     0.302791     0.499473 
    0.420530     0.373253     0.395315 
    0.526960     0.330062     0.427942 
    0.363829     0.463061     0.636420 
    0.300433     0.535563     0.563325 
    0.381195     0.580976     0.643365 
    0.468757     0.653524     0.370204 
EA25978 15.067 13.958 13.888 90.00 90.00 90.00 Sym.group:    0
1.0
   15.066996     0.000000     0.000000
    0.000000    13.958450     0.000000
    0.000000     0.000000    13.887898
   W   B
   5  21
Direct
    0.458775     0.335014     0.592484 
    0.694372     0.495362     0.603235 
    0.567307     0.437741     0.364959 
    0.530825     0.494357     0.661243 
    0.450174     0.490073     0.494912 
    0.681759     0.507340     0.446453 
    0.473193     0.328366     0.432821 
    0.570512     0.333932     0.485572 
    0.670481     0.613558     0.502002 
    0.611948     0.586201     0.400101 
    0.606246     0.374324     0.596182 
    0.661192     0.399907     0.486758 
    0.606674     0.614099     0.600318 
    0.462044     0.661927     0.463008 
    0.401050     0.579121     0.626300 
    0.395487     0.606132     0.388493 
    0.357892     0.617120     0.506354 
    0.315148     0.527139     0.563509 
    0.380100     0.459705     0.645803 
    0.367296     0.351626     0.460538 
    0.324742     0.407374     0.553426 
    0.415112     0.396095     0.357265 
    0.425090     0.508343     0.328784 
    0.506210     0.585876     0.368112 
    0.495837     0.624340     0.580637 
    0.570532     0.664927     0.490732 
EA25926 15.222 14.314 14.232 90.00 90.00 90.00 Sym.group:    0
1.0
   15.221960     0.000000     0.000000
    0.000000    14.313929     0.000000
    0.000000     0.000000    14.232351
   W   B
   5  22
Direct
    0.518619     0.657484     0.407371 
    0.291317     0.571493     0.535972 
    0.444908     0.417660     0.381719 
    0.540206     0.483471     0.520512 
    0.442052     0.651972     0.562826 
    0.326211     0.437128     0.478747 
    0.596228     0.330289     0.546055 
    0.523255     0.530116     0.323706 
    0.421453     0.568811     0.338603 
    0.578404     0.349326     0.424308 
    0.335431     0.440449     0.594249 
    0.413356     0.378284     0.531270 
    0.590310     0.439609     0.357919 
    0.372950     0.634488     0.426380 
    0.338708     0.523079     0.402844 
    0.621613     0.551014     0.376652 
    0.495426     0.316647     0.490304 
    0.649455     0.611000     0.467544 
    0.586693     0.670369     0.544560 
    0.666962     0.396394     0.493610 
    0.662254     0.583771     0.583518 
    0.694112     0.504883     0.511318 
    0.504551     0.340226     0.606833 
    0.446211     0.430203     0.644216 
    0.488377     0.540031     0.663639 
    0.570057     0.608010     0.641652 
    0.380881     0.533795     0.643670 
EA25903 14.880 14.731 14.507 90.00 90.00 90.00 Sym.group:    0
1.0
   14.880063     0.000000     0.000000
    0.000000    14.730814     0.000000
    0.000000     0.000000    14.506793
   W   B
   5  23
Direct
    0.507582     0.478493     0.525084 
    0.458052     0.367338     0.407676 
    0.392583     0.526969     0.354938 
    0.604270     0.630664     0.456095 
    0.390689     0.610858     0.605198 
    0.526250     0.556830     0.666719 
    0.620475     0.490869     0.641406 
    0.673095     0.532503     0.544499 
    0.617009     0.525515     0.344733 
    0.362947     0.366738     0.532516 
    0.594267     0.415919     0.366148 
    0.652236     0.484518     0.446999 
    0.542229     0.302175     0.523958 
    0.434222     0.485186     0.670222 
    0.649634     0.421372     0.556016 
    0.445168     0.300484     0.563386 
    0.416035     0.382419     0.634944 
    0.611291     0.356270     0.461269 
    0.346302     0.471315     0.580133 
    0.468240     0.654853     0.389710 
    0.468109     0.692812     0.499171 
    0.329720     0.439479     0.452786 
    0.323602     0.546486     0.489573 
    0.525148     0.654070     0.589742 
    0.528034     0.588598     0.325314 
    0.618270     0.602170     0.608988 
    0.375981     0.640102     0.458042 
    0.518558     0.474994     0.304736 
EA5168 14.517 14.381 14.843 90.00 90.00 90.00 Sym.group:    0
1.0
   14.517257     0.000000     0.000000
    0.000000    14.381432     0.000000
    0.000000     0.000000    14.842735
   W   B
   5  24
Direct
    0.700511     0.541228     0.505245 
    0.471576     0.667727     0.486702 
    0.502403     0.458971     0.351414 
    0.684690     0.375746     0.528307 
    0.457703     0.471919     0.525946 
    0.559611     0.549906     0.454458 
    0.529168     0.639523     0.621970 
    0.357042     0.579054     0.425220 
    0.637276     0.553986     0.365575 
    0.347995     0.519068     0.625994 
    0.430196     0.607300     0.347303 
    0.611592     0.661753     0.545421 
    0.631267     0.583654     0.627629 
    0.539235     0.619085     0.350816 
    0.343140     0.602525     0.539273 
    0.421272     0.609881     0.619781 
    0.618119     0.654949     0.429028 
    0.652722     0.471327     0.633599 
    0.660009     0.441812     0.389323 
    0.591404     0.355257     0.416288 
    0.571131     0.381760     0.630899 
    0.545781     0.330798     0.531462 
    0.344983     0.460413     0.411209 
    0.484905     0.325513     0.436208 
    0.355084     0.402547     0.622840 
    0.315812     0.396033     0.510390 
    0.461161     0.372798     0.645055 
    0.380506     0.354909     0.423791 
    0.293703     0.510560     0.498854 
EA25894 14.397 14.390 14.378 90.00 90.00 90.00 Sym.group:    0
1.0
   14.397213     0.000000     0.000000
    0.000000    14.390242     0.000000
    0.000000     0.000000    14.378170
   W   B
   5  25
Direct
    0.687238     0.523175     0.483426 
    0.322946     0.464176     0.528911 
    0.510449     0.524996     0.598343 
    0.490135     0.438706     0.328049 
    0.467624     0.669155     0.456431 
    0.459828     0.508403     0.457844 
    0.542441     0.679748     0.593957 
    0.465005     0.315872     0.424662 
    0.391914     0.458795     0.670981 
    0.613746     0.528939     0.341393 
    0.332606     0.591756     0.432554 
    0.681871     0.403491     0.581167 
    0.343132     0.622158     0.543655 
    0.650789     0.370842     0.478951 
    0.488656     0.393156     0.682940 
    0.519543     0.596394     0.328141 
    0.364499     0.375542     0.409249 
    0.641719     0.610708     0.605067 
    0.381116     0.321856     0.506864 
    0.614196     0.662515     0.505046 
    0.593987     0.398444     0.654690 
    0.409014     0.580631     0.344571 
    0.632929     0.422491     0.374937 
    0.364655     0.565552     0.640854 
    0.571933     0.331132     0.401226 
    0.431775     0.662183     0.608066 
    0.663257     0.503022     0.629768 
    0.349566     0.486062     0.381624 
    0.606822     0.631478     0.395647 
    0.406606     0.358622     0.610987 
