EA10   14.782 14.782 14.479 90.00 90.00 90.00 Sym.group:    0
1.0
   14.782434     0.000000     0.000000
    0.000000    14.782434     0.000000
    0.000000     0.000000    14.478582
   W   B
   5  25
Direct
    0.607890     0.535978     0.427443 
    0.544999     0.409233     0.550155 
    0.410674     0.460965     0.435989 
    0.481711     0.605915     0.549642 
    0.289920     0.511690     0.536163 
    0.419809     0.692415     0.441677 
    0.701324     0.545162     0.560205 
    0.566601     0.291286     0.444575 
    0.312904     0.347739     0.517538 
    0.321819     0.666313     0.497385 
    0.667594     0.649207     0.517493 
    0.668592     0.306812     0.491413 
    0.614856     0.522082     0.626506 
    0.525317     0.371803     0.385608 
    0.415272     0.483108     0.602317 
    0.481967     0.608249     0.392462 
    0.395553     0.556690     0.317271 
    0.549205     0.601302     0.684800 
    0.577562     0.443781     0.314655 
    0.458607     0.398186     0.675591 
    0.398466     0.725741     0.546291 
    0.734327     0.583645     0.460208 
    0.591629     0.261510     0.549396 
    0.262443     0.405153     0.446335 
    0.381426     0.369184     0.601035 
    0.348377     0.599798     0.409708 
    0.618966     0.643668     0.616197 
    0.638526     0.382901     0.409683 
    0.501678     0.524069     0.310775 
    0.511985     0.496413     0.681487 
EA405  13.003 13.003 13.003 90.00 90.00 90.00 Sym.group:    0
1.0
   13.003467     0.000000     0.000000
    0.000000    13.003467     0.000000
    0.000000     0.000000    13.003467
   W   B
   5  25
Direct
    0.497179     0.503012     0.284128 
    0.497315     0.503283     0.715737 
    0.637348     0.623629     0.499974 
    0.366153     0.374714     0.500009 
    0.376823     0.634291     0.499671 
    0.610556     0.377831     0.500004 
    0.513430     0.720175     0.435904 
    0.512258     0.296703     0.561366 
    0.648198     0.549154     0.652730 
    0.345474     0.444142     0.345300 
    0.347576     0.571999     0.655956 
    0.650452     0.426160     0.328756 
    0.442512     0.658358     0.655840 
    0.559656     0.343578     0.329100 
    0.701310     0.468575     0.561198 
    0.279478     0.507452     0.435713 
    0.437056     0.356884     0.653104 
    0.569941     0.648426     0.345638 
    0.559637     0.343570     0.670967 
    0.442531     0.658368     0.344156 
    0.701312     0.468570     0.438844 
    0.279508     0.507468     0.564352 
    0.437004     0.356865     0.346956 
    0.569923     0.648460     0.654401 
    0.512265     0.296689     0.438679 
    0.513425     0.720158     0.564151 
    0.648172     0.549179     0.347304 
    0.345483     0.444182     0.654731 
    0.347543     0.571961     0.344036 
    0.650478     0.426165     0.671294 
EA869  14.298 14.726 13.994 90.00 90.00 90.00 Sym.group:    0
1.0
   14.297996     0.000000     0.000000
    0.000000    14.726129     0.000000
    0.000000     0.000000    13.993677
   W   B
   5  21
Direct
    0.588772     0.616594     0.577666 
    0.564727     0.387350     0.586341 
    0.488709     0.509408     0.474509 
    0.482706     0.406343     0.324768 
    0.379680     0.364104     0.487739 
    0.339340     0.503867     0.536493 
    0.600084     0.391408     0.427489 
    0.509755     0.637694     0.378981 
    0.356616     0.479031     0.369463 
    0.512405     0.508569     0.654926 
    0.555507     0.545039     0.323701 
    0.439784     0.548059     0.325269 
    0.624397     0.505180     0.671284 
    0.414514     0.564219     0.626258 
    0.412213     0.441234     0.625583 
    0.667555     0.471853     0.467826 
    0.446816     0.669117     0.472860 
    0.707977     0.576897     0.491582 
    0.356783     0.615007     0.535967 
    0.477698     0.270520     0.549308 
    0.444462     0.673945     0.592255 
    0.697977     0.509230     0.584566 
    0.429472     0.331405     0.633091 
    0.518155     0.310632     0.446782 
    0.624217     0.582652     0.412573 
    0.359679     0.580640     0.422713 
EA1114 14.524 14.752 14.979 90.00 90.00 90.00 Sym.group:    0
1.0
   14.523609     0.000000     0.000000
    0.000000    14.751637     0.000000
    0.000000     0.000000    14.979176
   W   B
   3  25
Direct
    0.536450     0.449332     0.581929 
    0.539366     0.595303     0.486016 
    0.490783     0.442268     0.416813 
    0.446626     0.582002     0.353641 
    0.527668     0.599300     0.643156 
    0.436899     0.339536     0.530805 
    0.456474     0.524333     0.699390 
    0.414635     0.674545     0.415302 
    0.355895     0.354451     0.446125 
    0.559735     0.599703     0.321261 
    0.638535     0.561978     0.653475 
    0.529965     0.291210     0.480568 
    0.681587     0.437699     0.517323 
    0.683107     0.529573     0.450037 
    0.651877     0.427569     0.409460 
    0.356534     0.567517     0.420363 
    0.420165     0.602561     0.609466 
    0.349443     0.415387     0.549058 
    0.382797     0.474560     0.635644 
    0.383480     0.640857     0.514481 
    0.329456     0.461906     0.442894 
    0.623886     0.518948     0.353241 
    0.683181     0.547215     0.556942 
    0.621964     0.350931     0.486636 
    0.502109     0.684158     0.351527 
    0.434047     0.280366     0.431560 
    0.564557     0.526281     0.720535 
    0.398783     0.520508     0.522351 
EA1521 14.667 14.096 13.838 90.00 90.00 90.00 Sym.group:    0
1.0
   14.667455     0.000000     0.000000
    0.000000    14.096217     0.000000
    0.000000     0.000000    13.837607
   W   B
   5  21
Direct
    0.313029     0.580563     0.491063 
    0.468989     0.643490     0.392764 
    0.512577     0.492533     0.501418 
    0.529626     0.711629     0.560181 
    0.635089     0.470187     0.645905 
    0.322590     0.432232     0.544072 
    0.333179     0.438391     0.425032 
    0.373932     0.527830     0.360299 
    0.438035     0.410288     0.378979 
    0.485372     0.504016     0.329074 
    0.650334     0.458484     0.395410 
    0.507213     0.324950     0.465199 
    0.589864     0.552316     0.361130 
    0.605200     0.356273     0.426371 
    0.404787     0.362484     0.490012 
    0.635005     0.607339     0.569815 
    0.675678     0.528200     0.495151 
    0.675016     0.412176     0.507503 
    0.539011     0.587860     0.646337 
    0.591513     0.345204     0.554267 
    0.609179     0.637930     0.453509 
    0.518701     0.383302     0.644012 
    0.364835     0.512957     0.620172 
    0.393038     0.699728     0.522116 
    0.415238     0.616356     0.608275 
    0.412972     0.403283     0.611935 
EA1774 14.166 14.370 14.976 90.00 90.00 90.00 Sym.group:    0
1.0
   14.166294     0.000000     0.000000
    0.000000    14.370459     0.000000
    0.000000     0.000000    14.976330
   W   B
   5  23
Direct
    0.474652     0.492304     0.505276 
    0.375103     0.638128     0.447007 
    0.556211     0.643564     0.388442 
    0.607414     0.380379     0.412864 
    0.648953     0.538136     0.607000 
    0.579641     0.404271     0.630786 
    0.473928     0.357025     0.597717 
    0.488988     0.320304     0.483674 
    0.461900     0.434902     0.346668 
    0.419493     0.658686     0.584108 
    0.361857     0.485537     0.392423 
    0.404249     0.371398     0.419571 
    0.305248     0.519819     0.527329 
    0.501447     0.487596     0.659744 
    0.386080     0.350258     0.529992 
    0.318654     0.609380     0.584313 
    0.403524     0.546942     0.636498 
    0.314548     0.421533     0.477596 
    0.524085     0.612277     0.619574 
    0.656146     0.523353     0.384564 
    0.705100     0.479815     0.479273 
    0.493959     0.699328     0.513111 
    0.602700     0.653979     0.526181 
    0.669058     0.397621     0.548790 
    0.554744     0.503440     0.334381 
    0.582222     0.322030     0.546669 
    0.683155     0.593186     0.473622 
    0.446941     0.554809     0.342826 
EA2438 15.118 14.111 14.441 90.00 90.00 90.00 Sym.group:    0
1.0
   15.118143     0.000000     0.000000
    0.000000    14.110602     0.000000
    0.000000     0.000000    14.441343
   W   B
   1  21
Direct
    0.503242     0.498396     0.521643 
    0.471409     0.342578     0.445243 
    0.356324     0.618112     0.538309 
    0.306040     0.529444     0.574268 
    0.356499     0.522431     0.464378 
    0.330141     0.423934     0.562049 
    0.394276     0.418764     0.431846 
    0.508618     0.316503     0.558175 
    0.609420     0.330207     0.577532 
    0.407034     0.348330     0.542488 
    0.632919     0.606122     0.567503 
    0.668507     0.406409     0.526707 
    0.676575     0.520326     0.511642 
    0.456738     0.655015     0.564680 
    0.580936     0.359099     0.463216 
    0.545847     0.651517     0.616826 
    0.528514     0.421458     0.384184 
    0.518496     0.630457     0.398263 
    0.552165     0.665958     0.503146 
    0.424018     0.614683     0.442389 
    0.554080     0.528509     0.363664 
    0.618201     0.591749     0.441849 
EA2564 14.771 14.103 14.448 90.00 90.00 90.00 Sym.group:    0
1.0
   14.770542     0.000000     0.000000
    0.000000    14.102848     0.000000
    0.000000     0.000000    14.448394
   W   B
   5  21
Direct
    0.367017     0.404772     0.490595 
    0.403846     0.671965     0.527692 
    0.519216     0.524848     0.333939 
    0.523714     0.534162     0.509784 
    0.601180     0.392642     0.583499 
    0.438728     0.568095     0.637802 
    0.484572     0.302490     0.527388 
    0.379468     0.499104     0.362131 
    0.429005     0.395772     0.346262 
    0.498708     0.664753     0.413286 
    0.340618     0.536780     0.573048 
    0.382723     0.454178     0.636565 
    0.403365     0.614286     0.383120 
    0.463303     0.308130     0.412675 
    0.540729     0.385825     0.363038 
    0.341611     0.552093     0.460583 
    0.454856     0.363769     0.614874 
    0.517155     0.660401     0.619180 
    0.499220     0.464646     0.661257 
    0.638734     0.415471     0.420381 
    0.661553     0.610180     0.494531 
    0.569705     0.321619     0.455307 
    0.687547     0.496939     0.476373 
    0.564179     0.683883     0.508224 
    0.666383     0.531931     0.589622 
    0.622866     0.641264     0.598843 
EA3113 14.481 14.135 13.561 90.00 90.00 90.00 Sym.group:    0
1.0
   14.480771     0.000000     0.000000
    0.000000    14.134830     0.000000
    0.000000     0.000000    13.560638
   W   B
   1  21
Direct
    0.496270     0.504091     0.500173 
    0.542280     0.668200     0.529172 
    0.430767     0.662975     0.530853 
    0.484132     0.599035     0.356982 
    0.391771     0.611994     0.420347 
    0.335044     0.512553     0.437946 
    0.348184     0.583348     0.534228 
    0.412064     0.542301     0.642219 
    0.506378     0.602182     0.634674 
    0.353824     0.467236     0.567324 
    0.372034     0.407580     0.435517 
    0.475590     0.359119     0.429753 
    0.510104     0.320090     0.552206 
    0.613256     0.335811     0.585868 
    0.614670     0.595170     0.589006 
    0.674423     0.409762     0.531722 
    0.678324     0.523564     0.528818 
    0.588922     0.354016     0.459173 
    0.566220     0.426580     0.367848 
    0.579036     0.542523     0.359311 
    0.618203     0.608801     0.460766 
    0.408505     0.363071     0.546093 
EA3278 15.551 13.813 13.833 90.00 90.00 90.00 Sym.group:    0
1.0
   15.551322     0.000000     0.000000
    0.000000    13.813372     0.000000
    0.000000     0.000000    13.833079
   W   B
   2  24
Direct
    0.542793     0.503849     0.487633 
    0.369135     0.514974     0.423899 
    0.673308     0.601095     0.533460 
    0.465218     0.482218     0.635175 
    0.590603     0.603608     0.613887 
    0.650571     0.393799     0.443970 
    0.626829     0.396997     0.572925 
    0.691025     0.486540     0.491471 
    0.640071     0.624404     0.428501 
    0.409094     0.423567     0.552538 
    0.567132     0.332565     0.500915 
    0.657629     0.509433     0.609177 
    0.566821     0.472681     0.652899 
    0.486666     0.610945     0.600520 
    0.561726     0.361654     0.383454 
    0.468699     0.346722     0.447775 
    0.366280     0.344140     0.467135 
    0.403257     0.658539     0.507731 
    0.479059     0.548899     0.331282 
    0.464844     0.641175     0.412449 
    0.559701     0.621523     0.361967 
    0.280159     0.511556     0.554770 
    0.485626     0.431028     0.344567 
    0.297088     0.402629     0.520827 
    0.388814     0.556919     0.589049 
    0.307854     0.618540     0.532027 
EA3793 13.874 13.828 13.293 90.00 90.00 90.00 Sym.group:    0
1.0
   13.874146     0.000000     0.000000
    0.000000    13.828491     0.000000
    0.000000     0.000000    13.293451
   W   B
   1  21
Direct
    0.497517     0.499529     0.503202 
    0.336963     0.418438     0.502600 
    0.608205     0.576906     0.620032 
    0.408052     0.396894     0.611955 
    0.582666     0.655799     0.517439 
    0.396090     0.611441     0.587016 
    0.379844     0.630135     0.449390 
    0.354701     0.500990     0.601604 
    0.509051     0.635140     0.622787 
    0.470003     0.676787     0.504277 
    0.329197     0.525014     0.460006 
    0.655707     0.451115     0.456041 
    0.614166     0.369563     0.548218 
    0.567660     0.412171     0.367435 
    0.525872     0.335328     0.451769 
    0.416888     0.336864     0.495161 
    0.506747     0.339770     0.582559 
    0.652915     0.475242     0.582918 
    0.653214     0.569054     0.485184 
    0.408838     0.546026     0.362545 
    0.510001     0.512902     0.319755 
    0.615704     0.524893     0.368106 
EA4128 14.372 13.883 13.376 90.00 90.00 90.00 Sym.group:    0
1.0
   14.372055     0.000000     0.000000
    0.000000    13.883052     0.000000
    0.000000     0.000000    13.375958
   W   B
   1  21
Direct
    0.496909     0.500388     0.503417 
    0.330500     0.445210     0.492360 
    0.610691     0.561595     0.622323 
    0.388429     0.416306     0.604713 
    0.600107     0.640915     0.519376 
    0.415093     0.629381     0.583414 
    0.406695     0.640935     0.445881 
    0.357136     0.528834     0.591275 
    0.524111     0.634028     0.621049 
    0.496555     0.678760     0.501575 
    0.341204     0.545891     0.437548 
    0.638215     0.423383     0.467310 
    0.585358     0.356945     0.562923 
    0.557062     0.400787     0.373596 
    0.505958     0.334939     0.457647 
    0.397154     0.353219     0.491670 
    0.476509     0.344801     0.585752 
    0.639414     0.453818     0.592369 
    0.657250     0.543113     0.492981 
    0.428166     0.555610     0.355051 
    0.523780     0.509840     0.322804 
    0.623705     0.501303     0.374964 
EA4357 15.317 14.325 13.072 90.00 90.00 90.00 Sym.group:    0
1.0
   15.316692     0.000000     0.000000
    0.000000    14.324817     0.000000
    0.000000     0.000000    13.071949
   W   B
   3  22
Direct
    0.480177     0.680573     0.468855 
    0.564989     0.495745     0.407142 
    0.462419     0.491103     0.555753 
    0.588831     0.564481     0.636406 
    0.593679     0.660833     0.556677 
    0.502831     0.632044     0.628632 
    0.395077     0.627675     0.601667 
    0.658317     0.562029     0.513383 
    0.616709     0.642064     0.432027 
    0.550405     0.634883     0.333656 
    0.653146     0.365837     0.415957 
    0.609768     0.369875     0.539495 
    0.689322     0.447978     0.487756 
    0.633907     0.471073     0.599007 
    0.362303     0.387530     0.456318 
    0.411895     0.494456     0.397186 
    0.457811     0.584463     0.336933 
    0.364759     0.594480     0.475011 
    0.320071     0.490389     0.471861 
    0.323616     0.539816     0.593419 
    0.558344     0.325088     0.420053 
    0.454856     0.333752     0.447233 
    0.327940     0.424930     0.581142 
    0.408061     0.345141     0.574243 
    0.510766     0.333767     0.570189 
EA4559 15.911 13.953 13.314 90.00 90.00 90.00 Sym.group:    0
1.0
   15.910880     0.000000     0.000000
    0.000000    13.953247     0.000000
    0.000000     0.000000    13.313611
   W   B
   2  25
Direct
    0.431114     0.637813     0.564948 
    0.541376     0.499459     0.504256 
    0.596462     0.636446     0.402061 
    0.556718     0.678096     0.510778 
    0.492952     0.646621     0.410200 
    0.391273     0.643674     0.401687 
    0.644910     0.614316     0.522477 
    0.573074     0.624788     0.619385 
    0.510732     0.546763     0.673349 
    0.320021     0.594726     0.467568 
    0.325635     0.535722     0.580105 
    0.662671     0.405834     0.555161 
    0.648546     0.431799     0.412717 
    0.453820     0.412054     0.385324 
    0.353280     0.421319     0.417427 
    0.507778     0.326167     0.494087 
    0.408237     0.346649     0.491542 
    0.572693     0.357108     0.597543 
    0.554766     0.381929     0.378309 
    0.606302     0.338005     0.478576 
    0.691161     0.506953     0.518229 
    0.421507     0.495758     0.621980 
    0.345513     0.419359     0.553811 
    0.518590     0.432161     0.662997 
    0.424059     0.531721     0.396842 
    0.662123     0.550329     0.403392 
    0.284687     0.484430     0.475251 
EA5145 13.798 14.191 13.282 90.00 90.00 90.00 Sym.group:    0
1.0
   13.798457     0.000000     0.000000
    0.000000    14.191296     0.000000
    0.000000     0.000000    13.282186
   W   B
   1  21
Direct
    0.500632     0.499583     0.501267 
    0.608130     0.359833     0.486033 
    0.456229     0.610352     0.632733 
    0.548711     0.368115     0.608817 
    0.500875     0.672168     0.524500 
    0.656877     0.544181     0.554961 
    0.654271     0.564854     0.420720 
    0.639901     0.434529     0.589271 
    0.569975     0.613187     0.615052 
    0.609033     0.642847     0.494623 
    0.662176     0.454308     0.455027 
    0.331874     0.534788     0.475158 
    0.350173     0.441981     0.565934 
    0.373965     0.451345     0.389529 
    0.395793     0.365163     0.467474 
    0.500146     0.321866     0.494580 
    0.432823     0.365609     0.593980 
    0.360930     0.553322     0.596022 
    0.397103     0.632095     0.487557 
    0.584707     0.499055     0.350139 
    0.472675     0.501801     0.322367 
    0.392999     0.569016     0.374255 
EA5469 13.964 13.934 13.009 90.00 90.00 90.00 Sym.group:    0
1.0
   13.964237     0.000000     0.000000
    0.000000    13.933912     0.000000
    0.000000     0.000000    13.008850
   W   B
   1  22
Direct
    0.499832     0.499559     0.486506 
    0.350025     0.423593     0.412671 
    0.437408     0.357459     0.385196 
    0.642350     0.404236     0.415462 
    0.322286     0.482404     0.522174 
    0.603683     0.354622     0.526247 
    0.563091     0.412027     0.627873 
    0.544302     0.335924     0.414276 
    0.490490     0.336823     0.545089 
    0.657252     0.456548     0.544466 
    0.388793     0.491595     0.626057 
    0.498630     0.502731     0.672563 
    0.382835     0.385762     0.544819 
    0.545092     0.602776     0.624742 
    0.659263     0.513405     0.392881 
    0.336576     0.542672     0.411009 
    0.572776     0.663240     0.519841 
    0.619673     0.617495     0.410631 
    0.645275     0.574933     0.543127 
    0.458568     0.659465     0.540064 
    0.510990     0.666743     0.408290 
    0.408759     0.625408     0.384971 
    0.362055     0.590581     0.541047 
EA5562 15.705 14.025 13.179 90.00 90.00 90.00 Sym.group:    0
1.0
   15.705097     0.000000     0.000000
    0.000000    14.024719     0.000000
    0.000000     0.000000    13.178524
   W   B
   2  25
Direct
    0.577769     0.629056     0.573628 
    0.456774     0.502205     0.502108 
    0.413227     0.645598     0.404386 
    0.453674     0.679701     0.516498 
    0.518814     0.646130     0.415286 
    0.621565     0.639532     0.410360 
    0.360215     0.622548     0.524356 
    0.432473     0.623576     0.623569 
    0.491028     0.540036     0.675842 
    0.688677     0.581866     0.475263 
    0.678643     0.519749     0.587056 
    0.326770     0.416819     0.547844 
    0.345861     0.446280     0.405434 
    0.542347     0.414103     0.383354 
    0.644497     0.414010     0.416450 
    0.481083     0.329834     0.485280 
    0.583061     0.342433     0.488677 
    0.414689     0.361178     0.590820 
    0.438477     0.391689     0.370783 
    0.382089     0.348052     0.469442 
    0.305207     0.520251     0.512317 
    0.578528     0.485569     0.623909 
    0.650167     0.407137     0.555567 
    0.473199     0.428260     0.660531 
    0.583356     0.529779     0.402206 
    0.340962     0.565684     0.400409 
    0.716852     0.468927     0.478628 
EA6034 14.909 14.627 13.386 90.00 90.00 90.00 Sym.group:    0
1.0
   14.908606     0.000000     0.000000
    0.000000    14.626920     0.000000
    0.000000     0.000000    13.386105
   W   B
   3  22
Direct
    0.497674     0.664683     0.451861 
    0.429003     0.477192     0.416381 
    0.541883     0.499155     0.547201 
    0.414766     0.555844     0.639184 
    0.391168     0.638699     0.554308 
    0.489815     0.637145     0.620910 
    0.596520     0.640863     0.594000 
    0.333505     0.535225     0.531106 
    0.355321     0.612798     0.438979 
    0.408541     0.611734     0.333413 
    0.354891     0.344157     0.442229 
    0.404623     0.350985     0.557399 
    0.315357     0.421151     0.515754 
    0.393870     0.453617     0.608428 
    0.650243     0.407997     0.449887 
    0.584165     0.553298     0.389033 
    0.505359     0.577456     0.310614 
    0.635735     0.619423     0.477956 
    0.679053     0.517053     0.455015 
    0.680651     0.562685     0.578045 
    0.456757     0.322164     0.432965 
    0.564473     0.341554     0.449557 
    0.687223     0.451914     0.564612 
    0.616052     0.364103     0.566762 
    0.513351     0.339103     0.574404 
EA6292 15.620 14.091 12.876 90.00 90.00 90.00 Sym.group:    0
1.0
   15.620410     0.000000     0.000000
    0.000000    14.090958     0.000000
    0.000000     0.000000    12.875758
   W   B
   1  25
Direct
    0.541100     0.496217     0.513851 
    0.443113     0.362665     0.440853 
    0.276990     0.483438     0.461536 
    0.316484     0.447752     0.579544 
    0.343380     0.391988     0.472094 
    0.335954     0.559383     0.535539 
    0.409384     0.391055     0.586273 
    0.542441     0.321005     0.450952 
    0.493749     0.326380     0.565398 
    0.295451     0.586122     0.418603 
    0.519981     0.402643     0.360278 
    0.625628     0.389243     0.429645 
    0.566261     0.495479     0.329541 
    0.598194     0.337707     0.561857 
    0.604933     0.587781     0.377897 
    0.372012     0.650046     0.455298 
    0.661913     0.419671     0.588031 
    0.679799     0.529158     0.585935 
    0.677977     0.490547     0.446368 
    0.623185     0.625518     0.598691 
    0.667838     0.599672     0.481101 
    0.576750     0.661700     0.473363 
    0.526095     0.657714     0.593300 
    0.426856     0.612372     0.587641 
    0.403145     0.506772     0.626697 
    0.471389     0.667969     0.479717 
EA6649 14.907 14.279 13.781 90.00 90.00 90.00 Sym.group:    0
1.0
   14.907379     0.000000     0.000000
    0.000000    14.278761     0.000000
    0.000000     0.000000    13.780589
   W   B
   5  21
Direct
    0.652415     0.546852     0.607048 
    0.556574     0.650594     0.397087 
    0.663430     0.510932     0.421753 
    0.578928     0.375562     0.617158 
    0.475481     0.499777     0.498231 
    0.523903     0.613526     0.633474 
    0.471801     0.665846     0.535206 
    0.410618     0.647714     0.435267 
    0.584386     0.674735     0.552043 
    0.673877     0.646279     0.490708 
    0.437794     0.571879     0.343657 
    0.579402     0.395646     0.374308 
    0.643240     0.359203     0.473421 
    0.530089     0.500350     0.339293 
    0.702363     0.419955     0.547653 
    0.519681     0.505527     0.672963 
    0.344789     0.558410     0.409605 
    0.347837     0.507741     0.596439 
    0.532202     0.335770     0.473282 
    0.447582     0.341756     0.554642 
    0.470510     0.388585     0.372406 
    0.384762     0.375708     0.442478 
    0.317430     0.468994     0.472309 
    0.351632     0.399562     0.556111 
    0.366741     0.606318     0.539033 
    0.432531     0.432782     0.644423 
EA6981 15.190 14.322 13.785 90.00 90.00 90.00 Sym.group:    0
1.0
   15.189678     0.000000     0.000000
    0.000000    14.321752     0.000000
    0.000000     0.000000    13.784836
   W   B
   2  24
Direct
    0.532359     0.474976     0.481215 
    0.385299     0.602832     0.446158 
    0.443507     0.511313     0.636816 
    0.629194     0.546925     0.593536 
    0.523956     0.592378     0.607287 
    0.547409     0.489876     0.662681 
    0.640119     0.351587     0.517298 
    0.540342     0.316995     0.520950 
    0.620543     0.425719     0.611888 
    0.438610     0.340744     0.507891 
    0.385309     0.436211     0.566620 
    0.679652     0.399478     0.417701 
    0.680479     0.465823     0.519138 
    0.519796     0.658135     0.427009 
    0.484166     0.682445     0.537529 
    0.593555     0.628542     0.516092 
    0.429126     0.495424     0.335625 
    0.672114     0.504424     0.394587 
    0.501966     0.576992     0.346784 
    0.606124     0.593508     0.394303 
    0.335172     0.467379     0.389494 
    0.424218     0.396074     0.399081 
    0.412097     0.629156     0.602312 
    0.298368     0.484029     0.503697 
    0.338084     0.379716     0.475473 
    0.338434     0.549316     0.588831 
EA7245 15.714 14.214 13.169 90.00 90.00 90.00 Sym.group:    0
1.0
   15.713894     0.000000     0.000000
    0.000000    14.213783     0.000000
    0.000000     0.000000    13.168940
   W   B
   2  25
Direct
    0.418724     0.375195     0.571260 
    0.543387     0.499633     0.503748 
    0.583678     0.355015     0.406323 
    0.541005     0.322244     0.517593 
    0.477670     0.353448     0.414934 
    0.376061     0.362080     0.406768 
    0.635475     0.376887     0.527033 
    0.562012     0.379183     0.624517 
    0.503118     0.462733     0.676956 
    0.310457     0.423392     0.468842 
    0.318639     0.484071     0.582278 
    0.676281     0.578375     0.549402 
    0.656077     0.550083     0.408576 
    0.460322     0.582700     0.380307 
    0.359037     0.587925     0.413085 
    0.524245     0.670362     0.491166 
    0.423281     0.652411     0.491655 
    0.590669     0.635869     0.594130 
    0.564651     0.606332     0.373385 
    0.621807     0.648526     0.471929 
    0.694177     0.475536     0.513783 
    0.419102     0.517345     0.618255 
    0.349318     0.594236     0.553058 
    0.534560     0.568749     0.664776 
    0.415551     0.470763     0.402262 
    0.656889     0.431547     0.402247 
    0.283807     0.535358     0.471733 
EA7612 15.965 13.789 13.226 90.00 90.00 90.00 Sym.group:    0
1.0
   15.965189     0.000000     0.000000
    0.000000    13.789337     0.000000
    0.000000     0.000000    13.225860
   W   B
   4  23
Direct
    0.661050     0.598173     0.438891 
    0.449376     0.502462     0.501315 
    0.650101     0.529372     0.623656 
    0.565813     0.349722     0.437693 
    0.502759     0.457299     0.342310 
    0.433227     0.380136     0.375540 
    0.349626     0.386531     0.457260 
    0.435428     0.322478     0.485631 
    0.605569     0.481507     0.351178 
    0.321037     0.451299     0.576213 
    0.382500     0.361424     0.586654 
    0.595429     0.385625     0.603963 
    0.679387     0.399572     0.535711 
    0.525650     0.467497     0.646538 
    0.740890     0.494721     0.506551 
    0.684671     0.442391     0.415202 
    0.490252     0.360218     0.590281 
    0.523260     0.584738     0.636897 
    0.534188     0.668643     0.448954 
    0.475954     0.668198     0.561361 
    0.536142     0.570779     0.373584 
    0.586342     0.655153     0.565183 
    0.308163     0.495471     0.447557 
    0.343039     0.604297     0.437175 
    0.431858     0.663251     0.439210 
    0.375383     0.653482     0.556061 
    0.312909     0.565559     0.559432 
EA7977 13.726 13.829 15.222 90.00 90.00 90.00 Sym.group:    0
1.0
   13.726454     0.000000     0.000000
    0.000000    13.828782     0.000000
    0.000000     0.000000    15.222314
   W   B
   4  22
Direct
    0.602086     0.429912     0.621864 
    0.462108     0.507990     0.506942 
    0.583063     0.569818     0.372562 
    0.551893     0.324164     0.491497 
    0.512933     0.561983     0.651898 
    0.710638     0.506936     0.551892 
    0.438430     0.471597     0.658691 
    0.342463     0.438898     0.587410 
    0.455735     0.364677     0.608470 
    0.611621     0.581104     0.580644 
    0.687830     0.602216     0.479758 
    0.581404     0.655907     0.489263 
    0.300144     0.531109     0.525056 
    0.416118     0.675188     0.535159 
    0.513756     0.658938     0.583331 
    0.338486     0.629509     0.471266 
    0.709500     0.498330     0.437676 
    0.687051     0.397457     0.505231 
    0.433544     0.490219     0.356427 
    0.423053     0.374771     0.415399 
    0.527910     0.420267     0.379420 
    0.424310     0.608992     0.389074 
    0.646071     0.406539     0.398924 
    0.331058     0.527507     0.412464 
    0.319700     0.423418     0.472114 
    0.389097     0.342554     0.517570 
EA8256 15.602 14.333 13.402 90.00 90.00 90.00 Sym.group:    0
1.0
   15.602024     0.000000     0.000000
    0.000000    14.333455     0.000000
    0.000000     0.000000    13.401648
   W   B
   2  25
Direct
    0.411816     0.382145     0.567445 
    0.542005     0.500219     0.505117 
    0.575846     0.354090     0.406586 
    0.532022     0.322484     0.515476 
    0.468913     0.353963     0.414554 
    0.367579     0.367460     0.406008 
    0.629304     0.371242     0.525664 
    0.554385     0.377706     0.620930 
    0.499678     0.464719     0.673861 
    0.306006     0.436322     0.464942 
    0.315940     0.493477     0.577715 
    0.682462     0.566688     0.547961 
    0.658964     0.542617     0.411380 
    0.463135     0.580603     0.381300 
    0.362852     0.596266     0.416559 
    0.533933     0.670193     0.499445 
    0.433958     0.647954     0.497728 
    0.601558     0.629956     0.595507 
    0.568886     0.603412     0.377999 
    0.629950     0.641250     0.474024 
    0.693699     0.464571     0.511449 
    0.418633     0.523013     0.613058 
    0.350526     0.601235     0.552372 
    0.547866     0.562410     0.666954 
    0.414539     0.472188     0.403336 
    0.652217     0.425660     0.402019 
    0.283328     0.548156     0.470610 
EA8670 15.728 13.869 13.668 90.00 90.00 90.00 Sym.group:    0
1.0
   15.728053     0.000000     0.000000
    0.000000    13.869322     0.000000
    0.000000     0.000000    13.667844
   W   B
   1  25
Direct
    0.534810     0.490385     0.499432 
    0.433072     0.613978     0.441465 
    0.529058     0.649215     0.424531 
    0.498073     0.555719     0.342237 
    0.265540     0.493001     0.505085 
    0.322184     0.445704     0.417411 
    0.341590     0.559210     0.451583 
    0.357487     0.439756     0.550273 
    0.414674     0.495300     0.375206 
    0.312090     0.552380     0.585261 
    0.411760     0.385144     0.444414 
    0.490008     0.317535     0.468193 
    0.404438     0.588181     0.626273 
    0.437892     0.369205     0.571184 
    0.499297     0.593871     0.662342 
    0.584907     0.613703     0.607879 
    0.486355     0.638836     0.546980 
    0.689421     0.466495     0.559021 
    0.671024     0.520773     0.438184 
    0.674614     0.579569     0.559097 
    0.590395     0.323589     0.468467 
    0.622124     0.632322     0.472172 
    0.597595     0.563492     0.363420 
    0.663224     0.401220     0.455275 
    0.535731     0.339089     0.586511 
    0.632640     0.372321     0.578103 
EA9229 13.921 13.851 12.894 90.00 90.00 90.00 Sym.group:    0
1.0
   13.921089     0.000000     0.000000
    0.000000    13.851215     0.000000
    0.000000     0.000000    12.893720
   W   B
   1  21
Direct
    0.499859     0.500634     0.490828 
    0.506636     0.482105     0.676589 
    0.411317     0.440160     0.631847 
    0.338538     0.510490     0.550752 
    0.378044     0.621032     0.543847 
    0.358524     0.394950     0.528544 
    0.336323     0.458787     0.415111 
    0.345326     0.572790     0.419336 
    0.589427     0.633456     0.556911 
    0.423239     0.657747     0.421118 
    0.479850     0.670900     0.543897 
    0.667068     0.493814     0.413088 
    0.647638     0.433542     0.543730 
    0.668841     0.549275     0.533365 
    0.601236     0.527226     0.634808 
    0.618927     0.390448     0.399711 
    0.633557     0.604927     0.419662 
    0.516959     0.342487     0.395413 
    0.575790     0.343912     0.522035 
    0.536275     0.664558     0.412783 
    0.405467     0.366275     0.407754 
    0.461157     0.340483     0.538868 
EA9364 15.930 13.867 13.620 90.00 90.00 90.00 Sym.group:    0
1.0
   15.930115     0.000000     0.000000
    0.000000    13.866793     0.000000
    0.000000     0.000000    13.620397
   W   B
   1  25
Direct
    0.534387     0.509323     0.498720 
    0.431216     0.390332     0.444651 
    0.523181     0.350101     0.419106 
    0.495009     0.446843     0.340744 
    0.268594     0.514248     0.509679 
    0.323970     0.561444     0.420867 
    0.341935     0.447316     0.453985 
    0.361746     0.563055     0.553514 
    0.414006     0.508779     0.376782 
    0.314982     0.449698     0.586243 
    0.413988     0.618780     0.445909 
    0.493321     0.683335     0.469578 
    0.406042     0.412048     0.624592 
    0.442603     0.631595     0.573601 
    0.498727     0.403575     0.663127 
    0.584752     0.386754     0.611655 
    0.490048     0.360472     0.545329 
    0.689364     0.527590     0.552577 
    0.667078     0.473308     0.435392 
    0.671780     0.414769     0.556239 
    0.592311     0.674093     0.467268 
    0.611341     0.363251     0.475439 
    0.593432     0.433962     0.360721 
    0.661411     0.593661     0.451314 
    0.540020     0.658949     0.587204 
    0.634757     0.622718     0.575767 
EA9640 15.264 14.128 13.696 90.00 90.00 90.00 Sym.group:    0
1.0
   15.264113     0.000000     0.000000
    0.000000    14.128461     0.000000
    0.000000     0.000000    13.695777
   W   B
   3  24
Direct
    0.608517     0.410923     0.406725 
    0.605346     0.660715     0.496639 
    0.469932     0.498733     0.506423 
    0.464239     0.671248     0.500822 
    0.687863     0.542213     0.443248 
    0.603882     0.570554     0.374413 
    0.665825     0.354586     0.543889 
    0.515663     0.514329     0.335470 
    0.504300     0.625109     0.385385 
    0.713769     0.450860     0.516271 
    0.688799     0.556319     0.566534 
    0.505849     0.639796     0.618709 
    0.593258     0.570246     0.621191 
    0.611881     0.455637     0.580053 
    0.377989     0.356290     0.491859 
    0.318721     0.452127     0.511582 
    0.372906     0.399404     0.608174 
    0.457014     0.332691     0.569961 
    0.363265     0.436404     0.397286 
    0.462337     0.418253     0.349132 
    0.561651     0.341006     0.548467 
    0.483224     0.342811     0.446299 
    0.380825     0.500760     0.655823 
    0.324470     0.542951     0.439267 
    0.402703     0.609293     0.640588 
    0.396232     0.626345     0.415592 
    0.359542     0.620398     0.530192 
EA10178 14.762 14.038 13.126 90.00 90.00 90.00 Sym.group:    0
1.0
   14.761699     0.000000     0.000000
    0.000000    14.038273     0.000000
    0.000000     0.000000    13.126187
   W   B
   3  21
Direct
    0.422663     0.373389     0.420181 
    0.374549     0.636598     0.472543 
    0.526816     0.503374     0.510356 
    0.312682     0.491409     0.440669 
    0.393296     0.522754     0.361773 
    0.405432     0.353972     0.591345 
    0.499111     0.491541     0.328220 
    0.481795     0.600731     0.370189 
    0.324694     0.411101     0.533102 
    0.314218     0.531796     0.561990 
    0.403888     0.578838     0.622511 
    0.389642     0.463193     0.631996 
    0.526946     0.667373     0.467506 
    0.586303     0.657115     0.585555 
    0.477282     0.662909     0.588449 
    0.667633     0.463013     0.587243 
    0.633772     0.626787     0.469376 
    0.568017     0.339496     0.454023 
    0.613252     0.364918     0.571044 
    0.569986     0.413724     0.359698 
    0.682852     0.526891     0.466931 
    0.662971     0.575993     0.589174 
    0.508420     0.327247     0.562414 
    0.653780     0.415838     0.453708 
EA10520 14.762 14.038 13.126 90.00 90.00 90.00 Sym.group:    0
1.0
   14.761699     0.000000     0.000000
    0.000000    14.038273     0.000000
    0.000000     0.000000    13.126187
   W   B
   3  21
Direct
    0.422663     0.373389     0.420181 
    0.374549     0.636598     0.472543 
    0.526816     0.503374     0.510356 
    0.312682     0.491409     0.440669 
    0.393296     0.522754     0.361773 
    0.405432     0.353972     0.591345 
    0.499111     0.491541     0.328220 
    0.481795     0.600731     0.370189 
    0.324694     0.411101     0.533102 
    0.314218     0.531796     0.561990 
    0.403888     0.578838     0.622511 
    0.389642     0.463193     0.631996 
    0.526946     0.667373     0.467506 
    0.586303     0.657115     0.585555 
    0.477282     0.662909     0.588449 
    0.667633     0.463013     0.587243 
    0.633772     0.626787     0.469376 
    0.568017     0.339496     0.454023 
    0.613252     0.364918     0.571044 
    0.569986     0.413724     0.359698 
    0.682852     0.526891     0.466931 
    0.662971     0.575993     0.589174 
    0.508420     0.327247     0.562414 
    0.653780     0.415838     0.453708 
EA10669 15.191 14.004 13.594 90.00 90.00 90.00 Sym.group:    0
1.0
   15.191240     0.000000     0.000000
    0.000000    14.003795     0.000000
    0.000000     0.000000    13.594453
   W   B
   3  24
Direct
    0.387908     0.411377     0.410807 
    0.396523     0.663403     0.497847 
    0.530597     0.498337     0.506034 
    0.539146     0.671463     0.500965 
    0.311042     0.545216     0.447359 
    0.394255     0.572397     0.375285 
    0.332231     0.356557     0.550108 
    0.480949     0.513436     0.334526 
    0.495335     0.625415     0.383920 
    0.284686     0.454158     0.522462 
    0.312108     0.560548     0.571385 
    0.497791     0.641133     0.619510 
    0.408784     0.573580     0.624570 
    0.388508     0.457857     0.583775 
    0.620324     0.353225     0.488919 
    0.681574     0.449243     0.507099 
    0.628815     0.397065     0.605775 
    0.542535     0.330919     0.570046 
    0.634511     0.433341     0.393140 
    0.533432     0.415799     0.347628 
    0.436948     0.340967     0.551695 
    0.513208     0.340602     0.446500 
    0.622894     0.499735     0.653310 
    0.675472     0.540147     0.432993 
    0.601900     0.609527     0.637385 
    0.604052     0.625951     0.411559 
    0.644474     0.618602     0.525397 
EA11002 15.191 14.004 13.594 90.00 90.00 90.00 Sym.group:    0
1.0
   15.191240     0.000000     0.000000
    0.000000    14.003795     0.000000
    0.000000     0.000000    13.594453
   W   B
   3  24
Direct
    0.387908     0.411377     0.410807 
    0.396523     0.663403     0.497847 
    0.530597     0.498337     0.506034 
    0.539146     0.671463     0.500965 
    0.311042     0.545216     0.447359 
    0.394255     0.572397     0.375285 
    0.332231     0.356557     0.550108 
    0.480949     0.513436     0.334526 
    0.495335     0.625415     0.383920 
    0.284686     0.454158     0.522462 
    0.312108     0.560548     0.571385 
    0.497791     0.641133     0.619510 
    0.408784     0.573580     0.624570 
    0.388508     0.457857     0.583775 
    0.620324     0.353225     0.488919 
    0.681574     0.449243     0.507099 
    0.628815     0.397065     0.605775 
    0.542535     0.330919     0.570046 
    0.634511     0.433341     0.393140 
    0.533432     0.415799     0.347628 
    0.436948     0.340967     0.551695 
    0.513208     0.340602     0.446500 
    0.622894     0.499735     0.653310 
    0.675472     0.540147     0.432993 
    0.601900     0.609527     0.637385 
    0.604052     0.625951     0.411559 
    0.644474     0.618602     0.525397 
EA11347 16.279 14.210 13.105 90.00 90.00 90.00 Sym.group:    0
1.0
   16.278894     0.000000     0.000000
    0.000000    14.210482     0.000000
    0.000000     0.000000    13.105028
   W   B
   4  23
Direct
    0.342743     0.599950     0.442384 
    0.549410     0.502973     0.497781 
    0.355913     0.536623     0.631632 
    0.429885     0.357769     0.444150 
    0.490244     0.458335     0.340135 
    0.557243     0.382081     0.371487 
    0.641349     0.384262     0.449992 
    0.556235     0.323451     0.482026 
    0.388579     0.483048     0.353490 
    0.676258     0.442565     0.568189 
    0.611832     0.360354     0.580718 
    0.404616     0.394783     0.611067 
    0.321055     0.411273     0.546074 
    0.477131     0.471041     0.648079 
    0.262865     0.505732     0.519171 
    0.311746     0.451645     0.424025 
    0.506434     0.367779     0.587768 
    0.483814     0.584832     0.640806 
    0.476436     0.658890     0.445416 
    0.532006     0.660547     0.561550 
    0.459127     0.567379     0.368720 
    0.424699     0.650238     0.563678 
    0.684960     0.488430     0.438143 
    0.658819     0.596730     0.432636 
    0.577605     0.664024     0.441664 
    0.631111     0.642162     0.554488 
    0.687885     0.553106     0.554732 
EA11676 14.822 14.578 14.047 90.00 90.00 90.00 Sym.group:    0
1.0
   14.822074     0.000000     0.000000
    0.000000    14.578195     0.000000
    0.000000     0.000000    14.046555
   W   B
   5  22
Direct
    0.583755     0.642909     0.440077 
    0.609163     0.365637     0.543582 
    0.565238     0.507562     0.327198 
    0.458693     0.508609     0.507515 
    0.541138     0.464261     0.673038 
    0.685236     0.578985     0.524146 
    0.461612     0.614747     0.353535 
    0.705296     0.467554     0.507101 
    0.684880     0.538177     0.410081 
    0.459693     0.405415     0.368318 
    0.571284     0.369124     0.388667 
    0.663996     0.425284     0.405098 
    0.415701     0.508470     0.341000 
    0.487992     0.664709     0.556270 
    0.581390     0.589079     0.590487 
    0.666144     0.496947     0.613972 
    0.431933     0.661746     0.456315 
    0.355958     0.587613     0.399855 
    0.309109     0.561377     0.496751 
    0.389808     0.429183     0.643827 
    0.398283     0.536820     0.674426 
    0.318151     0.508542     0.595632 
    0.481570     0.605069     0.655135 
    0.336274     0.405715     0.541683 
    0.387374     0.368024     0.452471 
    0.457006     0.362182     0.571923 
    0.493323     0.326260     0.461893 
EA12148 15.569 14.231 13.084 90.00 90.00 90.00 Sym.group:    0
1.0
   15.569144     0.000000     0.000000
    0.000000    14.231224     0.000000
    0.000000     0.000000    13.084357
   W   B
   1  24
Direct
    0.467038     0.501758     0.475474 
    0.603872     0.440197     0.365484 
    0.621290     0.408353     0.503919 
    0.643070     0.494963     0.631235 
    0.538350     0.516569     0.661599 
    0.571269     0.624054     0.508519 
    0.712939     0.465604     0.549821 
    0.687147     0.477168     0.427363 
    0.653886     0.558197     0.514784 
    0.601308     0.562227     0.394951 
    0.481524     0.675816     0.502325 
    0.521239     0.639327     0.384362 
    0.489295     0.606079     0.607603 
    0.337678     0.579256     0.432431 
    0.336386     0.545316     0.567459 
    0.416296     0.643191     0.394116 
    0.391670     0.636430     0.544624 
    0.430444     0.350101     0.560126 
    0.361081     0.435702     0.585898 
    0.313701     0.472075     0.461253 
    0.352730     0.369868     0.468608 
    0.446534     0.334973     0.430643 
    0.467386     0.435298     0.635331 
    0.530065     0.353794     0.523319 
    0.523799     0.373688     0.368751 
EA12481 13.791 13.907 12.946 90.00 90.00 90.00 Sym.group:    0
1.0
   13.791469     0.000000     0.000000
    0.000000    13.906955     0.000000
    0.000000     0.000000    12.945776
   W   B
   1  24
Direct
    0.499963     0.500006     0.497003 
    0.354130     0.428019     0.563336 
    0.489549     0.338697     0.563295 
    0.635845     0.410455     0.563321 
    0.645762     0.572194     0.563323 
    0.510735     0.661306     0.563280 
    0.363945     0.589258     0.563316 
    0.510545     0.661929     0.436802 
    0.646356     0.572381     0.436719 
    0.636670     0.410578     0.436818 
    0.489179     0.338069     0.436818 
    0.353746     0.427386     0.436729 
    0.363529     0.589727     0.436804 
    0.380817     0.507281     0.655379 
    0.434116     0.401315     0.655539 
    0.553148     0.394244     0.655440 
    0.619058     0.492738     0.655487 
    0.565974     0.598785     0.655451 
    0.446927     0.605654     0.655537 
    0.446907     0.605889     0.345109 
    0.566071     0.598601     0.344747 
    0.619199     0.492564     0.345002 
    0.553023     0.394239     0.344979 
    0.433860     0.401271     0.344848 
    0.380947     0.507415     0.344912 
EA12690 15.116 14.679 13.797 90.00 90.00 90.00 Sym.group:    0
1.0
   15.116079     0.000000     0.000000
    0.000000    14.679443     0.000000
    0.000000     0.000000    13.796872
   W   B
   4  23
Direct
    0.467833     0.517623     0.461031 
    0.542179     0.505696     0.657497 
    0.626148     0.404589     0.437851 
    0.389909     0.339740     0.514979 
    0.354702     0.646351     0.416016 
    0.579979     0.506575     0.336763 
    0.435404     0.684994     0.473280 
    0.542042     0.669985     0.485890 
    0.596774     0.601501     0.412033 
    0.677569     0.531805     0.382129 
    0.512598     0.420155     0.333010 
    0.360305     0.610572     0.534949 
    0.324946     0.444739     0.425784 
    0.308618     0.552083     0.429508 
    0.411040     0.392864     0.370484 
    0.693198     0.531918     0.496837 
    0.478444     0.628421     0.581867 
    0.490732     0.358094     0.631521 
    0.413860     0.437488     0.623811 
    0.496430     0.334218     0.415887 
    0.665286     0.458633     0.588037 
    0.670803     0.566986     0.610922 
    0.530114     0.311121     0.528008 
    0.404756     0.548510     0.620858 
    0.340560     0.484814     0.543133 
    0.595101     0.376614     0.598078 
    0.590673     0.633911     0.589838 
EA13081 14.066 14.985 14.592 90.00 90.00 90.00 Sym.group:    0
1.0
   14.065580     0.000000     0.000000
    0.000000    14.985456     0.000000
    0.000000     0.000000    14.591786
   W   B
   5  21
Direct
    0.465311     0.528513     0.628192 
    0.437486     0.483246     0.463910 
    0.428547     0.662505     0.506600 
    0.628725     0.560869     0.678189 
    0.646978     0.540067     0.411315 
    0.504000     0.384844     0.573891 
    0.389798     0.389245     0.592918 
    0.413339     0.330309     0.492124 
    0.273357     0.486222     0.470200 
    0.318774     0.571947     0.546667 
    0.314199     0.386977     0.495544 
    0.313350     0.468281     0.581347 
    0.314132     0.580382     0.426757 
    0.410330     0.601237     0.366765 
    0.519292     0.350174     0.450007 
    0.545751     0.435540     0.360973 
    0.610591     0.353209     0.532528 
    0.630441     0.391870     0.422158 
    0.508925     0.535037     0.333219 
    0.693241     0.425896     0.510315 
    0.554270     0.651611     0.590435 
    0.522418     0.632828     0.386861 
    0.703135     0.523140     0.555935 
    0.611266     0.439347     0.605375 
    0.581433     0.666487     0.476219 
    0.660914     0.620217     0.541554 
EA13437 14.066 14.985 14.592 90.00 90.00 90.00 Sym.group:    0
1.0
   14.065580     0.000000     0.000000
    0.000000    14.985456     0.000000
    0.000000     0.000000    14.591786
   W   B
   5  21
Direct
    0.465311     0.528513     0.628192 
    0.437486     0.483246     0.463910 
    0.428547     0.662505     0.506600 
    0.628725     0.560869     0.678189 
    0.646978     0.540067     0.411315 
    0.504000     0.384844     0.573891 
    0.389798     0.389245     0.592918 
    0.413339     0.330309     0.492124 
    0.273357     0.486222     0.470200 
    0.318774     0.571947     0.546667 
    0.314199     0.386977     0.495544 
    0.313350     0.468281     0.581347 
    0.314132     0.580382     0.426757 
    0.410330     0.601237     0.366765 
    0.519292     0.350174     0.450007 
    0.545751     0.435540     0.360973 
    0.610591     0.353209     0.532528 
    0.630441     0.391870     0.422158 
    0.508925     0.535037     0.333219 
    0.693241     0.425896     0.510315 
    0.554270     0.651611     0.590435 
    0.522418     0.632828     0.386861 
    0.703135     0.523140     0.555935 
    0.611266     0.439347     0.605375 
    0.581433     0.666487     0.476219 
    0.660914     0.620217     0.541554 
EA13784 14.723 14.792 13.252 90.00 90.00 90.00 Sym.group:    0
1.0
   14.723203     0.000000     0.000000
    0.000000    14.792237     0.000000
    0.000000     0.000000    13.251753
   W   B
   5  21
Direct
    0.493599     0.606344     0.377310 
    0.315629     0.418336     0.460697 
    0.426413     0.555397     0.589820 
    0.522169     0.457014     0.468584 
    0.588984     0.520007     0.650823 
    0.458233     0.685705     0.512923 
    0.366346     0.641528     0.464757 
    0.352255     0.547095     0.394859 
    0.290231     0.560131     0.502156 
    0.568250     0.693329     0.488256 
    0.415626     0.460084     0.351059 
    0.290884     0.490989     0.600148 
    0.364255     0.410566     0.617006 
    0.535792     0.654668     0.605390 
    0.638342     0.529168     0.377947 
    0.637860     0.628428     0.431584 
    0.676117     0.436917     0.426191 
    0.666526     0.531681     0.509867 
    0.641514     0.634387     0.565575 
    0.435926     0.345101     0.396274 
    0.534773     0.307138     0.420037 
    0.625809     0.342557     0.475826 
    0.667742     0.423885     0.552528 
    0.582027     0.369037     0.599891 
    0.479912     0.402569     0.629360 
    0.424785     0.347936     0.531129 
EA14091 13.628 15.364 14.365 90.00 90.00 90.00 Sym.group:    0
1.0
   13.628075     0.000000     0.000000
    0.000000    15.363571     0.000000
    0.000000     0.000000    14.364799
   W   B
   5  21
Direct
    0.516282     0.513740     0.636865 
    0.339540     0.520427     0.670003 
    0.357389     0.536609     0.398508 
    0.568697     0.495294     0.468860 
    0.548911     0.662197     0.539478 
    0.479485     0.453721     0.345434 
    0.404765     0.343021     0.497026 
    0.392542     0.394473     0.390461 
    0.312641     0.406786     0.475445 
    0.411140     0.627387     0.604780 
    0.472302     0.641737     0.403657 
    0.283912     0.492630     0.533399 
    0.384102     0.416774     0.580988 
    0.396300     0.655042     0.489747 
    0.314304     0.592164     0.537675 
    0.503640     0.376362     0.556799 
    0.507865     0.361443     0.424479 
    0.616290     0.391225     0.590809 
    0.612502     0.347462     0.478577 
    0.735052     0.514150     0.497652 
    0.667838     0.580232     0.580628 
    0.704775     0.411353     0.502771 
    0.683879     0.476485     0.600518 
    0.685855     0.606680     0.463648 
    0.593115     0.625570     0.394135 
    0.506878     0.557033     0.337660 
EA14467 14.723 14.792 13.252 90.00 90.00 90.00 Sym.group:    0
1.0
   14.723203     0.000000     0.000000
    0.000000    14.792237     0.000000
    0.000000     0.000000    13.251753
   W   B
   5  21
Direct
    0.493599     0.606344     0.377310 
    0.315629     0.418336     0.460697 
    0.426413     0.555397     0.589820 
    0.522169     0.457014     0.468584 
    0.588984     0.520007     0.650823 
    0.458233     0.685705     0.512923 
    0.366346     0.641528     0.464757 
    0.352255     0.547095     0.394859 
    0.290231     0.560131     0.502156 
    0.568250     0.693329     0.488256 
    0.415626     0.460084     0.351059 
    0.290884     0.490989     0.600148 
    0.364255     0.410566     0.617006 
    0.535792     0.654668     0.605390 
    0.638342     0.529168     0.377947 
    0.637860     0.628428     0.431584 
    0.676117     0.436917     0.426191 
    0.666526     0.531681     0.509867 
    0.641514     0.634387     0.565575 
    0.435926     0.345101     0.396274 
    0.534773     0.307138     0.420037 
    0.625809     0.342557     0.475826 
    0.667742     0.423885     0.552528 
    0.582027     0.369037     0.599891 
    0.479912     0.402569     0.629360 
    0.424785     0.347936     0.531129 
EA14777 13.577 15.003 13.930 90.00 90.00 90.00 Sym.group:    0
1.0
   13.576892     0.000000     0.000000
    0.000000    15.003494     0.000000
    0.000000     0.000000    13.930419
   W   B
   5  21
Direct
    0.555956     0.663602     0.551722 
    0.714800     0.426404     0.570960 
    0.565736     0.501279     0.342844 
    0.575013     0.516774     0.649716 
    0.453071     0.526408     0.500523 
    0.665495     0.400555     0.425570 
    0.537564     0.638893     0.395646 
    0.648098     0.601994     0.431074 
    0.613441     0.331922     0.506808 
    0.547113     0.370293     0.413936 
    0.683848     0.562551     0.542717 
    0.702661     0.503226     0.437856 
    0.576758     0.374152     0.611128 
    0.376588     0.386642     0.520453 
    0.394632     0.500583     0.656382 
    0.321885     0.441851     0.431700 
    0.295418     0.482327     0.541911 
    0.320601     0.574697     0.591693 
    0.431599     0.607933     0.645269 
    0.429004     0.672488     0.442810 
    0.384715     0.663933     0.550753 
    0.432433     0.597101     0.351903 
    0.392474     0.494527     0.348308 
    0.431096     0.398730     0.399335 
    0.458844     0.414041     0.617992 
    0.491157     0.347096     0.520992 
EA15134 14.644 15.164 13.299 90.00 90.00 90.00 Sym.group:    0
1.0
   14.643804     0.000000     0.000000
    0.000000    15.164003     0.000000
    0.000000     0.000000    13.298874
   W   B
   5  21
Direct
    0.525022     0.597902     0.376132 
    0.661877     0.387291     0.454142 
    0.587534     0.540169     0.586741 
    0.469802     0.461985     0.471230 
    0.420542     0.539060     0.652321 
    0.579379     0.669604     0.507679 
    0.659645     0.608944     0.457218 
    0.651437     0.515898     0.388233 
    0.718141     0.516220     0.493356 
    0.472055     0.697722     0.486060 
    0.569391     0.444925     0.347868 
    0.707827     0.451269     0.591955 
    0.619903     0.388948     0.613242 
    0.499478     0.655660     0.603092 
    0.365549     0.552950     0.382383 
    0.388633     0.648355     0.433315 
    0.312324     0.472095     0.434042 
    0.342908     0.562848     0.514505 
    0.390489     0.656680     0.566473 
    0.526764     0.337969     0.397446 
    0.422805     0.321864     0.425859 
    0.343105     0.373595     0.485633 
    0.321009     0.461021     0.560400 
    0.395727     0.392596     0.607226 
    0.504459     0.404389     0.631160 
    0.544196     0.340040     0.532291 
EA15418 15.304 14.371 14.227 90.00 90.00 90.00 Sym.group:    0
1.0
   15.304378     0.000000     0.000000
    0.000000    14.371224     0.000000
    0.000000     0.000000    14.226966
   W   B
   5  22
Direct
    0.500096     0.330606     0.428351 
    0.710521     0.455807     0.552379 
    0.553032     0.574682     0.373217 
    0.458433     0.516302     0.516086 
    0.566197     0.363615     0.584475 
    0.668023     0.578074     0.476985 
    0.388227     0.662104     0.521500 
    0.486788     0.446915     0.330718 
    0.590167     0.421898     0.352707 
    0.412641     0.632541     0.403339 
    0.653021     0.586715     0.591669 
    0.574296     0.633392     0.517820 
    0.410682     0.533037     0.351012 
    0.640023     0.373107     0.449110 
    0.665097     0.483242     0.412476 
    0.389062     0.421312     0.380755 
    0.488726     0.680762     0.467891 
    0.364084     0.368063     0.476215 
    0.426936     0.326669     0.563552 
    0.327210     0.582953     0.471847 
    0.342901     0.409898     0.585429 
    0.310041     0.474733     0.500807 
    0.477587     0.669296     0.586229 
    0.541507     0.591707     0.636097 
    0.507311     0.481848     0.667291 
    0.433193     0.404251     0.650783 
    0.614194     0.496476     0.651261 
EA15866 13.367 13.794 13.609 90.00 90.00 90.00 Sym.group:    0
1.0
   13.367303     0.000000     0.000000
    0.000000    13.794093     0.000000
    0.000000     0.000000    13.608690
   W   B
   1  24
Direct
    0.500023     0.499872     0.499816 
    0.561667     0.565593     0.347148 
    0.561468     0.662125     0.489735 
    0.560625     0.602304     0.629285 
    0.560285     0.428663     0.650731 
    0.561431     0.338676     0.518175 
    0.562111     0.403233     0.367228 
    0.438583     0.337996     0.511440 
    0.438356     0.433389     0.652413 
    0.437930     0.597781     0.632013 
    0.438577     0.661420     0.483061 
    0.439651     0.570318     0.348875 
    0.439405     0.398632     0.370055 
    0.650210     0.487945     0.379837 
    0.648780     0.598170     0.428367 
    0.653510     0.605552     0.548533 
    0.646200     0.512687     0.624349 
    0.651033     0.404525     0.571598 
    0.651493     0.391751     0.451583 
    0.346867     0.393979     0.451299 
    0.350748     0.402162     0.571388 
    0.350282     0.512137     0.620625 
    0.348013     0.607829     0.548204 
    0.349440     0.595885     0.428135 
    0.353309     0.487375     0.376106 
EA16039 14.586 14.446 13.193 90.00 90.00 90.00 Sym.group:    0
1.0
   14.586019     0.000000     0.000000
    0.000000    14.446266     0.000000
    0.000000     0.000000    13.192805
   W   B
   4  25
Direct
    0.485439     0.491380     0.589779 
    0.691825     0.395037     0.484262 
    0.482149     0.509657     0.409443 
    0.634320     0.656817     0.510967 
    0.377372     0.403242     0.488752 
    0.481678     0.317740     0.564614 
    0.343400     0.557331     0.625801 
    0.378886     0.617125     0.514642 
    0.332061     0.512618     0.502271 
    0.423649     0.630071     0.644150 
    0.332304     0.444100     0.611934 
    0.534008     0.641400     0.641145 
    0.487534     0.662323     0.517273 
    0.389737     0.352992     0.614420 
    0.418280     0.658484     0.395717 
    0.331234     0.470464     0.373436 
    0.338475     0.582160     0.392471 
    0.385443     0.377390     0.358898 
    0.616193     0.593993     0.364078 
    0.699766     0.542916     0.435014 
    0.633315     0.475131     0.359630 
    0.587047     0.362810     0.592480 
    0.570245     0.304146     0.481915 
    0.577761     0.382162     0.385981 
    0.470433     0.337492     0.420075 
    0.641112     0.453950     0.627215 
    0.703583     0.532054     0.561093 
    0.622859     0.570201     0.644384 
    0.529894     0.664814     0.388165 
EA16384 14.057 15.013 14.479 90.00 90.00 90.00 Sym.group:    0
1.0
   14.056678     0.000000     0.000000
    0.000000    15.013370     0.000000
    0.000000     0.000000    14.479025
   W   B
   3  25
Direct
    0.417718     0.366542     0.486666 
    0.556368     0.488374     0.489495 
    0.486995     0.630957     0.591505 
    0.445791     0.412025     0.632116 
    0.460778     0.435154     0.354556 
    0.336805     0.437948     0.603523 
    0.290656     0.458860     0.502736 
    0.375398     0.486273     0.413857 
    0.287655     0.559111     0.461940 
    0.405833     0.517051     0.657803 
    0.334098     0.556241     0.575285 
    0.540525     0.363895     0.591177 
    0.523468     0.504652     0.647390 
    0.542163     0.367058     0.382716 
    0.658055     0.381534     0.429173 
    0.568171     0.324538     0.484466 
    0.656953     0.367273     0.548062 
    0.460169     0.551192     0.344249 
    0.364472     0.601422     0.391624 
    0.566040     0.596281     0.366461 
    0.469750     0.628334     0.443427 
    0.363304     0.642743     0.503801 
    0.695675     0.479348     0.406126 
    0.670807     0.583081     0.424867 
    0.585169     0.653573     0.463513 
    0.652429     0.616291     0.546398 
    0.652921     0.442244     0.625730 
    0.631835     0.548006     0.631338 
EA16726 14.782 14.518 13.034 90.00 90.00 90.00 Sym.group:    0
1.0
   14.782090     0.000000     0.000000
    0.000000    14.517796     0.000000
    0.000000     0.000000    13.033792
   W   B
   4  25
Direct
    0.486747     0.498841     0.591860 
    0.689753     0.395757     0.490503 
    0.481181     0.503412     0.408902 
    0.631989     0.656239     0.499183 
    0.385366     0.400569     0.501154 
    0.478412     0.326413     0.570693 
    0.345338     0.565852     0.625088 
    0.379366     0.617428     0.507567 
    0.338948     0.510055     0.504938 
    0.424496     0.640845     0.634964 
    0.336988     0.453015     0.625370 
    0.533957     0.650684     0.631714 
    0.487002     0.660631     0.504969 
    0.393295     0.362216     0.632188 
    0.418264     0.648883     0.382332 
    0.331469     0.461072     0.377676 
    0.339212     0.572853     0.388884 
    0.385978     0.369189     0.368205 
    0.613278     0.584825     0.354991 
    0.696295     0.538578     0.429770 
    0.630723     0.466850     0.358505 
    0.583889     0.371672     0.598726 
    0.570029     0.303554     0.493265 
    0.577225     0.375462     0.390413 
    0.472632     0.331342     0.425830 
    0.638892     0.462076     0.630288 
    0.700451     0.536037     0.557769 
    0.621215     0.579524     0.640167 
    0.527612     0.656125     0.374084 
EA17377 13.923 13.887 12.847 90.00 90.00 90.00 Sym.group:    0
1.0
   13.922849     0.000000     0.000000
    0.000000    13.887238     0.000000
    0.000000     0.000000    12.846510
   W   B
   1  21
Direct
    0.500131     0.500064     0.507861 
    0.491718     0.671829     0.459854 
    0.597958     0.627052     0.444596 
    0.640217     0.595002     0.581203 
    0.546552     0.659158     0.593029 
    0.504229     0.490341     0.320945 
    0.604390     0.518338     0.365012 
    0.611368     0.383040     0.599613 
    0.643769     0.424020     0.454674 
    0.672026     0.538241     0.467416 
    0.666041     0.482424     0.587370 
    0.434282     0.658333     0.583834 
    0.357923     0.404883     0.463450 
    0.396986     0.371306     0.591058 
    0.349480     0.579911     0.579868 
    0.332637     0.466401     0.581503 
    0.335940     0.522231     0.453364 
    0.452527     0.336117     0.470678 
    0.401372     0.465035     0.361381 
    0.386750     0.628380     0.458231 
    0.507232     0.338970     0.599918 
    0.566476     0.338925     0.475143 
EA17678 13.803 14.037 13.429 90.00 90.00 90.00 Sym.group:    0
1.0
   13.802893     0.000000     0.000000
    0.000000    14.037359     0.000000
    0.000000     0.000000    13.429492
   W   B
   1  22
Direct
    0.499307     0.498433     0.485096 
    0.660165     0.535086     0.463503 
    0.406303     0.381756     0.564071 
    0.535086     0.370106     0.590990 
    0.650475     0.432960     0.541808 
    0.482388     0.456601     0.656823 
    0.645382     0.536641     0.592028 
    0.642563     0.421848     0.407865 
    0.621748     0.512644     0.340897 
    0.398159     0.371424     0.415699 
    0.478979     0.319630     0.486611 
    0.594968     0.342774     0.483422 
    0.534345     0.567097     0.642935 
    0.473948     0.643054     0.570744 
    0.599880     0.626076     0.529084 
    0.361934     0.463234     0.361455 
    0.337562     0.461316     0.489751 
    0.366040     0.480581     0.614233 
    0.401866     0.653842     0.467409 
    0.354815     0.574363     0.546832 
    0.346556     0.563450     0.413730 
    0.590128     0.611929     0.382567 
    0.517402     0.675159     0.452445 
EA17907 13.522 13.575 13.674 90.00 90.00 90.00 Sym.group:    0
1.0
   13.522377     0.000000     0.000000
    0.000000    13.575102     0.000000
    0.000000     0.000000    13.673773
   W   B
   1  24
Direct
    0.500039     0.500790     0.498810 
    0.559823     0.531034     0.335518 
    0.560388     0.666342     0.480454 
    0.560871     0.626607     0.607525 
    0.560731     0.435391     0.651627 
    0.560257     0.344141     0.555807 
    0.559884     0.396888     0.368667 
    0.440496     0.337956     0.530561 
    0.441355     0.460445     0.658870 
    0.440639     0.606995     0.623291 
    0.440525     0.661014     0.459208 
    0.440469     0.555174     0.341623 
    0.440573     0.377413     0.388128 
    0.652034     0.474962     0.393376 
    0.637911     0.593357     0.412791 
    0.654178     0.605020     0.530731 
    0.640938     0.529664     0.623789 
    0.655883     0.420667     0.574467 
    0.640291     0.377445     0.463726 
    0.348319     0.388559     0.467414 
    0.354185     0.409455     0.585425 
    0.348253     0.526710     0.614646 
    0.353215     0.617754     0.535117 
    0.351275     0.585515     0.418836 
    0.357469     0.470699     0.379594 
EA18358 13.854 14.087 13.247 90.00 90.00 90.00 Sym.group:    0
1.0
   13.854020     0.000000     0.000000
    0.000000    14.087325     0.000000
    0.000000     0.000000    13.247252
   W   B
   1  22
Direct
    0.499736     0.499733     0.483806 
    0.334383     0.483618     0.478378 
    0.611476     0.608555     0.548523 
    0.487964     0.638704     0.581169 
    0.363970     0.588952     0.545500 
    0.533721     0.551553     0.651578 
    0.358521     0.490351     0.606290 
    0.360897     0.587811     0.409872 
    0.362260     0.490544     0.349946 
    0.613018     0.607361     0.396821 
    0.543697     0.673332     0.467892 
    0.425989     0.665310     0.472898 
    0.467962     0.449033     0.652232 
    0.512871     0.361517     0.581747 
    0.388906     0.391526     0.550439 
    0.636346     0.508981     0.348311 
    0.665190     0.516313     0.476346 
    0.642762     0.510139     0.604559 
    0.573770     0.334685     0.472827 
    0.636534     0.411265     0.544385 
    0.638169     0.411885     0.408620 
    0.385890     0.392209     0.398638 
    0.455969     0.326624     0.469221 
EA18525 15.067 13.958 13.888 90.00 90.00 90.00 Sym.group:    0
1.0
   15.066996     0.000000     0.000000
    0.000000    13.958450     0.000000
    0.000000     0.000000    13.887898
   W   B
   5  21
Direct
    0.458775     0.335014     0.592484 
    0.694372     0.495362     0.603235 
    0.567307     0.437741     0.364959 
    0.530825     0.494357     0.661243 
    0.450174     0.490073     0.494912 
    0.681759     0.507340     0.446453 
    0.473193     0.328366     0.432821 
    0.570512     0.333932     0.485572 
    0.670481     0.613558     0.502002 
    0.611948     0.586201     0.400101 
    0.606246     0.374324     0.596182 
    0.661192     0.399907     0.486758 
    0.606674     0.614099     0.600318 
    0.462044     0.661927     0.463008 
    0.401050     0.579121     0.626300 
    0.395487     0.606132     0.388493 
    0.357892     0.617120     0.506354 
    0.315148     0.527139     0.563509 
    0.380100     0.459705     0.645803 
    0.367296     0.351626     0.460538 
    0.324742     0.407374     0.553426 
    0.415112     0.396095     0.357265 
    0.425090     0.508343     0.328784 
    0.506210     0.585876     0.368112 
    0.495837     0.624340     0.580637 
    0.570532     0.664927     0.490732 
EA18801 15.716 13.963 14.103 90.00 90.00 90.00 Sym.group:    0
1.0
   15.716356     0.000000     0.000000
    0.000000    13.962618     0.000000
    0.000000     0.000000    14.102518
   W   B
   3  24
Direct
    0.624785     0.525891     0.427520 
    0.586229     0.388782     0.556994 
    0.457028     0.495092     0.500311 
    0.697501     0.392247     0.451628 
    0.727490     0.476031     0.522350 
    0.710992     0.597301     0.527361 
    0.651465     0.524279     0.592330 
    0.620206     0.637825     0.563986 
    0.515333     0.658158     0.555819 
    0.552982     0.556044     0.626195 
    0.512346     0.639597     0.436390 
    0.421514     0.659981     0.506681 
    0.495695     0.474975     0.673570 
    0.413912     0.603159     0.388906 
    0.425719     0.493794     0.326473 
    0.338074     0.589392     0.486707 
    0.339302     0.509502     0.386821 
    0.306381     0.466231     0.483780 
    0.391096     0.470153     0.659062 
    0.357091     0.392854     0.565888 
    0.327470     0.518652     0.587169 
    0.511328     0.563685     0.346490 
    0.439214     0.327906     0.518094 
    0.517819     0.439006     0.349295 
    0.502218     0.348160     0.432165 
    0.603605     0.373431     0.402823 
    0.453202     0.377875     0.625193 
EA19138 15.942 13.838 13.602 90.00 90.00 90.00 Sym.group:    0
1.0
   15.941767     0.000000     0.000000
    0.000000    13.838004     0.000000
    0.000000     0.000000    13.601558
   W   B
   3  24
Direct
    0.617204     0.565638     0.472816 
    0.585466     0.379214     0.469467 
    0.455043     0.497092     0.496259 
    0.692239     0.460129     0.385718 
    0.726580     0.468518     0.495416 
    0.712193     0.553027     0.586488 
    0.661108     0.448519     0.590511 
    0.627822     0.547761     0.652291 
    0.526140     0.582101     0.641856 
    0.561446     0.449111     0.629943 
    0.507911     0.656306     0.544840 
    0.426446     0.612945     0.616946 
    0.497934     0.362827     0.609762 
    0.411517     0.653548     0.489320 
    0.420425     0.614398     0.363815 
    0.340002     0.574776     0.557508 
    0.336727     0.586200     0.424280 
    0.305851     0.486215     0.468058 
    0.394626     0.368505     0.599110 
    0.357975     0.376020     0.475366 
    0.329919     0.452614     0.581785 
    0.505668     0.651188     0.425110 
    0.436304     0.361651     0.391607 
    0.512381     0.558911     0.342334 
    0.499921     0.434738     0.342033 
    0.598414     0.474462     0.339874 
    0.452736     0.323586     0.507487 
EA19599 13.434 13.513 13.781 90.00 90.00 90.00 Sym.group:    0
1.0
   13.433660     0.000000     0.000000
    0.000000    13.512574     0.000000
    0.000000     0.000000    13.780548
   W   B
   1  24
Direct
    0.499919     0.500274     0.499870 
    0.524031     0.443011     0.663788 
    0.559188     0.331432     0.505529 
    0.585005     0.390853     0.388529 
    0.587663     0.590571     0.376017 
    0.564518     0.665713     0.484472 
    0.526592     0.578648     0.654786 
    0.441007     0.668689     0.494759 
    0.475740     0.556902     0.335928 
    0.473422     0.421061     0.345079 
    0.435524     0.334217     0.515865 
    0.411891     0.409414     0.623766 
    0.415135     0.608919     0.611596 
    0.626406     0.507052     0.634220 
    0.620017     0.392132     0.597742 
    0.658678     0.403626     0.485847 
    0.662565     0.490800     0.403519 
    0.662108     0.588499     0.473802 
    0.624425     0.616222     0.583250 
    0.341138     0.597331     0.514490 
    0.379906     0.607813     0.402547 
    0.373594     0.492734     0.366248 
    0.376020     0.383503     0.416779 
    0.337796     0.411414     0.525837 
    0.337713     0.509167     0.595736 
EA20102 13.920 13.877 12.781 90.00 90.00 90.00 Sym.group:    0
1.0
   13.920035     0.000000     0.000000
    0.000000    13.876646     0.000000
    0.000000     0.000000    12.781231
   W   B
   1  21
Direct
    0.500168     0.500167     0.491934 
    0.586897     0.356412     0.407812 
    0.475920     0.339565     0.399307 
    0.531997     0.329678     0.531173 
    0.421110     0.359515     0.550458 
    0.397293     0.464662     0.634081 
    0.335503     0.436962     0.528546 
    0.375295     0.391767     0.410330 
    0.628805     0.390729     0.537952 
    0.670791     0.500500     0.540965 
    0.598331     0.526312     0.640792 
    0.496948     0.493589     0.679158 
    0.346399     0.553451     0.547830 
    0.332777     0.499477     0.412182 
    0.372657     0.606375     0.407159 
    0.469082     0.666275     0.411012 
    0.523804     0.670433     0.537694 
    0.412302     0.649137     0.534787 
    0.582167     0.646469     0.415278 
    0.623657     0.610196     0.546778 
    0.659164     0.561787     0.419623 
    0.658937     0.446539     0.415149 
EA20267 13.712 13.482 13.961 90.00 90.00 90.00 Sym.group:    0
1.0
   13.712013     0.000000     0.000000
    0.000000    13.482200     0.000000
    0.000000     0.000000    13.961118
   W   B
   1  24
Direct
    0.500958     0.499029     0.497860 
    0.652920     0.578637     0.453753 
    0.583605     0.528435     0.351090 
    0.528228     0.418211     0.658597 
    0.418230     0.340053     0.505992 
    0.623898     0.372236     0.490359 
    0.566703     0.401722     0.371668 
    0.519552     0.321686     0.451313 
    0.440726     0.382994     0.383479 
    0.531058     0.334241     0.569138 
    0.614849     0.505654     0.639231 
    0.675634     0.480780     0.536504 
    0.660899     0.465425     0.418979 
    0.580478     0.661487     0.503915 
    0.476270     0.585165     0.349342 
    0.382873     0.490124     0.371155 
    0.348303     0.425696     0.555693 
    0.417770     0.475688     0.655558 
    0.557000     0.616336     0.624395 
    0.472336     0.673683     0.555870 
    0.473594     0.674045     0.438175 
    0.377445     0.604928     0.418358 
    0.317961     0.516455     0.473388 
    0.345722     0.545125     0.584380 
    0.432985     0.602163     0.641810 
EA20525 14.908 14.258 13.434 90.00 90.00 90.00 Sym.group:    0
1.0
   14.908404     0.000000     0.000000
    0.000000    14.257638     0.000000
    0.000000     0.000000    13.434116
   W   B
   2  25
Direct
    0.591948     0.405420     0.378304 
    0.461170     0.500140     0.506249 
    0.457855     0.624874     0.389433 
    0.453038     0.443989     0.333125 
    0.371820     0.633960     0.472086 
    0.321007     0.536142     0.442028 
    0.352815     0.434776     0.398679 
    0.441723     0.357830     0.410515 
    0.474645     0.673261     0.499954 
    0.676853     0.402284     0.513991 
    0.575420     0.361565     0.526635 
    0.697253     0.505949     0.569658 
    0.618151     0.547763     0.385021 
    0.672670     0.596153     0.493153 
    0.515513     0.540434     0.334265 
    0.698991     0.492425     0.441565 
    0.581165     0.651991     0.509615 
    0.402336     0.386694     0.622531 
    0.515031     0.386322     0.634037 
    0.407117     0.633777     0.599631 
    0.319793     0.572293     0.563245 
    0.335493     0.471204     0.610141 
    0.365923     0.367459     0.501905 
    0.467997     0.331932     0.533449 
    0.601787     0.564674     0.597809 
    0.512726     0.633489     0.614866 
    0.609757     0.443202     0.618111 
EA20934 15.498 14.109 13.252 90.00 90.00 90.00 Sym.group:    0
1.0
   15.498174     0.000000     0.000000
    0.000000    14.109231     0.000000
    0.000000     0.000000    13.252250
   W   B
   1  25
Direct
    0.467210     0.502680     0.510640 
    0.584089     0.457372     0.647180 
    0.491208     0.403388     0.656384 
    0.593199     0.577841     0.634127 
    0.671794     0.562813     0.545048 
    0.472193     0.334093     0.542638 
    0.559438     0.372765     0.487434 
    0.643076     0.423682     0.417962 
    0.717289     0.487171     0.469988 
    0.651400     0.429236     0.549355 
    0.542578     0.419463     0.363837 
    0.639945     0.559186     0.421546 
    0.456419     0.367917     0.411457 
    0.404695     0.641372     0.578021 
    0.483400     0.668449     0.481211 
    0.579316     0.623227     0.511458 
    0.503872     0.637479     0.612357 
    0.329794     0.566270     0.528490 
    0.383250     0.640407     0.450968 
    0.550393     0.539716     0.351935 
    0.460679     0.602906     0.368436 
    0.363103     0.546277     0.385684 
    0.358307     0.434213     0.408080 
    0.394059     0.391426     0.621094 
    0.375087     0.358908     0.496398 
    0.324208     0.451746     0.548271 
EA21257 15.498 14.109 13.252 90.00 90.00 90.00 Sym.group:    0
1.0
   15.498174     0.000000     0.000000
    0.000000    14.109231     0.000000
    0.000000     0.000000    13.252250
   W   B
   1  25
Direct
    0.467210     0.502680     0.510640 
    0.584089     0.457372     0.647180 
    0.491208     0.403388     0.656384 
    0.593199     0.577841     0.634127 
    0.671794     0.562813     0.545048 
    0.472193     0.334093     0.542638 
    0.559438     0.372765     0.487434 
    0.643076     0.423682     0.417962 
    0.717289     0.487171     0.469988 
    0.651400     0.429236     0.549355 
    0.542578     0.419463     0.363837 
    0.639945     0.559186     0.421546 
    0.456419     0.367917     0.411457 
    0.404695     0.641372     0.578021 
    0.483400     0.668449     0.481211 
    0.579316     0.623227     0.511458 
    0.503872     0.637479     0.612357 
    0.329794     0.566270     0.528490 
    0.383250     0.640407     0.450968 
    0.550393     0.539716     0.351935 
    0.460679     0.602906     0.368436 
    0.363103     0.546277     0.385684 
    0.358307     0.434213     0.408080 
    0.394059     0.391426     0.621094 
    0.375087     0.358908     0.496398 
    0.324208     0.451746     0.548271 
EA21804 13.884 13.650 12.969 90.00 90.00 90.00 Sym.group:    0
1.0
   13.883722     0.000000     0.000000
    0.000000    13.650457     0.000000
    0.000000     0.000000    12.969361
   W   B
   1  21
Direct
    0.500391     0.498364     0.509304 
    0.642787     0.398333     0.577324 
    0.597187     0.372831     0.439400 
    0.548823     0.332582     0.574485 
    0.434080     0.335140     0.573186 
    0.489694     0.330033     0.447885 
    0.349988     0.414409     0.579884 
    0.382946     0.371156     0.455121 
    0.666458     0.513533     0.587773 
    0.671694     0.462247     0.464896 
    0.563565     0.661819     0.481973 
    0.600437     0.483869     0.367331 
    0.503615     0.532014     0.331548 
    0.456160     0.649766     0.432469 
    0.336121     0.481183     0.455247 
    0.334143     0.530342     0.588083 
    0.356991     0.599773     0.479756 
    0.397710     0.626177     0.603955 
    0.399863     0.554258     0.368519 
    0.612433     0.617196     0.599761 
    0.507974     0.656417     0.615189 
    0.646940     0.578561     0.466911 
EA21938 15.280 13.907 13.155 90.00 90.00 90.00 Sym.group:    0
1.0
   15.280445     0.000000     0.000000
    0.000000    13.906967     0.000000
    0.000000     0.000000    13.155326
   W   B
   1  25
Direct
    0.532875     0.500871     0.510944 
    0.412104     0.444863     0.641080 
    0.507037     0.391402     0.649336 
    0.401447     0.567508     0.639095 
    0.323453     0.557372     0.546805 
    0.529935     0.329625     0.529619 
    0.441404     0.371200     0.475232 
    0.359038     0.430037     0.405983 
    0.280222     0.486260     0.462683 
    0.346340     0.422367     0.538441 
    0.462149     0.427024     0.355234 
    0.358392     0.564341     0.423595 
    0.549083     0.372990     0.400967 
    0.592963     0.638342     0.592024 
    0.514323     0.671312     0.495544 
    0.417088     0.622755     0.520584 
    0.492344     0.629419     0.624661 
    0.671091     0.567518     0.537346 
    0.616765     0.647453     0.465391 
    0.450598     0.548876     0.354604 
    0.540318     0.614107     0.377125 
    0.639964     0.557776     0.392000 
    0.647323     0.442952     0.407142 
    0.606465     0.383324     0.615970 
    0.629257     0.359673     0.488559 
    0.678022     0.450632     0.550038 
EA22215 16.005 13.869 13.471 90.00 90.00 90.00 Sym.group:    0
1.0
   16.004625     0.000000     0.000000
    0.000000    13.868671     0.000000
    0.000000     0.000000    13.470511
   W   B
   3  24
Direct
    0.386607     0.573020     0.525403 
    0.414255     0.384124     0.546307 
    0.545623     0.496304     0.500799 
    0.315348     0.478078     0.631090 
    0.273262     0.479486     0.523998 
    0.283730     0.551769     0.422973 
    0.332740     0.445500     0.426193 
    0.364785     0.538106     0.352331 
    0.466317     0.571429     0.357974 
    0.429570     0.440245     0.380155 
    0.493499     0.654601     0.445103 
    0.568360     0.604004     0.370414 
    0.493250     0.355011     0.400595 
    0.591509     0.651107     0.493584 
    0.589349     0.617993     0.623158 
    0.656868     0.565235     0.423587 
    0.668575     0.586624     0.556209 
    0.695548     0.483673     0.516525 
    0.596624     0.358905     0.402160 
    0.640688     0.374400     0.523184 
    0.664235     0.440800     0.408473 
    0.501513     0.655155     0.566545 
    0.568119     0.367517     0.614860 
    0.497747     0.568962     0.654909 
    0.507448     0.445417     0.662741 
    0.410896     0.490166     0.668149 
    0.543535     0.322369     0.502581 
EA22546 16.005 13.869 13.471 90.00 90.00 90.00 Sym.group:    0
1.0
   16.004625     0.000000     0.000000
    0.000000    13.868671     0.000000
    0.000000     0.000000    13.470511
   W   B
   3  24
Direct
    0.386607     0.573020     0.525403 
    0.414255     0.384124     0.546307 
    0.545623     0.496304     0.500799 
    0.315348     0.478078     0.631090 
    0.273262     0.479486     0.523998 
    0.283730     0.551769     0.422973 
    0.332740     0.445500     0.426193 
    0.364785     0.538106     0.352331 
    0.466317     0.571429     0.357974 
    0.429570     0.440245     0.380155 
    0.493499     0.654601     0.445103 
    0.568360     0.604004     0.370414 
    0.493250     0.355011     0.400595 
    0.591509     0.651107     0.493584 
    0.589349     0.617993     0.623158 
    0.656868     0.565235     0.423587 
    0.668575     0.586624     0.556209 
    0.695548     0.483673     0.516525 
    0.596624     0.358905     0.402160 
    0.640688     0.374400     0.523184 
    0.664235     0.440800     0.408473 
    0.501513     0.655155     0.566545 
    0.568119     0.367517     0.614860 
    0.497747     0.568962     0.654909 
    0.507448     0.445417     0.662741 
    0.410896     0.490166     0.668149 
    0.543535     0.322369     0.502581 
EA22846 15.232 14.489 14.456 90.00 90.00 90.00 Sym.group:    0
1.0
   15.232021     0.000000     0.000000
    0.000000    14.488872     0.000000
    0.000000     0.000000    14.456436
   W   B
   4  24
Direct
    0.594796     0.553344     0.461488 
    0.498161     0.536810     0.312571 
    0.437544     0.474851     0.506050 
    0.483713     0.597078     0.628851 
    0.423563     0.648452     0.500778 
    0.683484     0.427974     0.436538 
    0.530218     0.684272     0.513755 
    0.704217     0.584118     0.570036 
    0.724648     0.493937     0.514787 
    0.579766     0.376150     0.441805 
    0.365862     0.521235     0.365724 
    0.614741     0.444033     0.352031 
    0.517745     0.388304     0.340445 
    0.403796     0.630551     0.372506 
    0.415595     0.421700     0.354936 
    0.507912     0.658407     0.404337 
    0.440095     0.458059     0.674957 
    0.338422     0.590902     0.562517 
    0.542726     0.359024     0.545639 
    0.332132     0.595442     0.452341 
    0.477076     0.360250     0.631406 
    0.546410     0.455643     0.629282 
    0.462073     0.337865     0.430795 
    0.367443     0.388631     0.610766 
    0.614790     0.648048     0.584879 
    0.422828     0.320702     0.536743 
    0.620659     0.541274     0.631201 
    0.349585     0.502941     0.632836 
EA23451 14.176 13.856 13.022 90.00 90.00 90.00 Sym.group:    0
1.0
   14.176254     0.000000     0.000000
    0.000000    13.856375     0.000000
    0.000000     0.000000    13.022054
   W   B
   1  22
Direct
    0.500456     0.499669     0.499287 
    0.401662     0.622164     0.593212 
    0.367906     0.513164     0.622264 
    0.335493     0.566865     0.502984 
    0.384391     0.386918     0.418194 
    0.392459     0.398740     0.607622 
    0.357983     0.498792     0.390204 
    0.395035     0.609725     0.399699 
    0.329772     0.449457     0.512076 
    0.483471     0.330461     0.438581 
    0.489944     0.340053     0.585251 
    0.581343     0.382581     0.388329 
    0.581431     0.337884     0.506494 
    0.592129     0.395153     0.617606 
    0.651332     0.432551     0.496835 
    0.592039     0.597110     0.374443 
    0.502895     0.669682     0.561792 
    0.611604     0.503717     0.643142 
    0.599874     0.609379     0.602988 
    0.656268     0.553178     0.489507 
    0.594726     0.654477     0.485536 
    0.600368     0.487203     0.347734 
    0.497423     0.661079     0.416219 
EA23737 14.568 14.495 12.543 90.00 90.00 90.00 Sym.group:    0
1.0
   14.568413     0.000000     0.000000
    0.000000    14.494696     0.000000
    0.000000     0.000000    12.542804
   W   B
   2  22
Direct
    0.508711     0.547247     0.550988 
    0.501434     0.486705     0.379670 
    0.526033     0.325061     0.390716 
    0.536420     0.371861     0.523839 
    0.528883     0.647078     0.394713 
    0.662797     0.605353     0.546641 
    0.623708     0.592984     0.411065 
    0.662811     0.503365     0.598997 
    0.648674     0.494846     0.458397 
    0.663317     0.400578     0.536076 
    0.622633     0.355345     0.427842 
    0.587281     0.424968     0.638240 
    0.590026     0.683437     0.508290 
    0.386553     0.462167     0.635762 
    0.344471     0.560542     0.590960 
    0.382395     0.654240     0.537584 
    0.479256     0.702295     0.504956 
    0.479095     0.400289     0.642651 
    0.309058     0.463671     0.529588 
    0.336887     0.409837     0.421171 
    0.416532     0.393299     0.523689 
    0.418515     0.345722     0.390229 
    0.363424     0.541755     0.451087 
    0.421088     0.627357     0.406847 
EA24121 13.871 14.247 13.248 90.00 90.00 90.00 Sym.group:    0
1.0
   13.870569     0.000000     0.000000
    0.000000    14.247194     0.000000
    0.000000     0.000000    13.248039
   W   B
   1  22
Direct
    0.495704     0.500180     0.487623 
    0.661449     0.526179     0.479451 
    0.528779     0.348651     0.561641 
    0.630004     0.415194     0.536654 
    0.641224     0.427826     0.394532 
    0.644087     0.529335     0.350745 
    0.377179     0.392020     0.397134 
    0.461090     0.332953     0.454878 
    0.577624     0.344696     0.444398 
    0.366821     0.490784     0.345068 
    0.601723     0.623489     0.394229 
    0.550195     0.440718     0.642049 
    0.534584     0.677753     0.474301 
    0.530790     0.559725     0.647642 
    0.419330     0.655347     0.491890 
    0.438325     0.397194     0.619212 
    0.420028     0.587041     0.619133 
    0.634567     0.517296     0.601734 
    0.605777     0.617768     0.551915 
    0.339433     0.576619     0.534580 
    0.359605     0.585693     0.408311 
    0.324421     0.477716     0.469027 
    0.357264     0.475818     0.593856 
EA24493 13.908 13.917 13.711 90.00 90.00 90.00 Sym.group:    0
1.0
   13.908120     0.000000     0.000000
    0.000000    13.917183     0.000000
    0.000000     0.000000    13.710726
   W   B
   1  21
Direct
    0.501006     0.504636     0.498763 
    0.469236     0.379847     0.389179 
    0.664924     0.501903     0.464862 
    0.647219     0.467127     0.586987 
    0.633485     0.387659     0.500938 
    0.534915     0.332524     0.477344 
    0.549889     0.388495     0.601217 
    0.447706     0.432991     0.647210 
    0.435128     0.359180     0.543137 
    0.649116     0.579106     0.567188 
    0.363579     0.412101     0.448399 
    0.382251     0.631295     0.483670 
    0.448369     0.640017     0.594829 
    0.487990     0.675986     0.478985 
    0.406662     0.541366     0.640655 
    0.337727     0.528240     0.453801 
    0.355302     0.451214     0.562258 
    0.401420     0.475927     0.354498 
    0.511354     0.488009     0.323321 
    0.601445     0.626521     0.449594 
    0.606084     0.540114     0.364848 
    0.565193     0.655743     0.568315 
EA24851 14.131 14.124 13.050 90.00 90.00 90.00 Sym.group:    0
1.0
   14.131077     0.000000     0.000000
    0.000000    14.124380     0.000000
    0.000000     0.000000    13.049811
   W   B
   1  21
Direct
    0.500918     0.501639     0.492999 
    0.378783     0.601440     0.560766 
    0.430652     0.656916     0.432528 
    0.351711     0.576697     0.426335 
    0.325509     0.503392     0.529446 
    0.340879     0.467207     0.404203 
    0.413702     0.383907     0.380253 
    0.462875     0.329935     0.491558 
    0.524093     0.360154     0.374403 
    0.391209     0.473106     0.628491 
    0.372876     0.397617     0.520527 
    0.623720     0.408698     0.397108 
    0.574291     0.344548     0.499531 
    0.492872     0.469269     0.676421 
    0.597755     0.469281     0.637930 
    0.651967     0.425821     0.531024 
    0.586353     0.634643     0.569129 
    0.636234     0.613379     0.448086 
    0.671299     0.508603     0.427196 
    0.539840     0.671641     0.446409 
    0.654853     0.541566     0.559607 
    0.477611     0.660542     0.566050 
EA25184 14.010 13.888 14.966 90.00 90.00 90.00 Sym.group:    0
1.0
   14.009783     0.000000     0.000000
    0.000000    13.888229     0.000000
    0.000000     0.000000    14.966082
   W   B
   1  21
Direct
    0.499332     0.500541     0.491440 
    0.482801     0.672112     0.439275 
    0.434206     0.646744     0.553730 
    0.379685     0.625786     0.435351 
    0.347249     0.569977     0.542084 
    0.407446     0.365646     0.536205 
    0.448173     0.347212     0.412514 
    0.357159     0.413372     0.423320 
    0.336096     0.457156     0.535814 
    0.329944     0.523986     0.432410 
    0.548677     0.667837     0.536952 
    0.591819     0.640348     0.432970 
    0.644401     0.435936     0.414416 
    0.656798     0.547589     0.420094 
    0.668646     0.479610     0.523533 
    0.627989     0.583355     0.553124 
    0.562519     0.355666     0.410303 
    0.511914     0.321121     0.509860 
    0.611754     0.377961     0.524380 
    0.522363     0.595771     0.621218 
    0.522367     0.486926     0.647368 
    0.508660     0.385349     0.603640 
EA25336 13.734 14.030 14.142 90.00 90.00 90.00 Sym.group:    0
1.0
   13.733856     0.000000     0.000000
    0.000000    14.029790     0.000000
    0.000000     0.000000    14.141797
   W   B
   1  24
Direct
    0.503314     0.500983     0.500732 
    0.427775     0.586881     0.641379 
    0.450843     0.404457     0.644739 
    0.369182     0.487212     0.623398 
    0.350567     0.576885     0.542091 
    0.375258     0.391677     0.547183 
    0.361714     0.415049     0.434597 
    0.404643     0.482244     0.346881 
    0.441378     0.592406     0.359700 
    0.343607     0.540496     0.429841 
    0.447197     0.658982     0.544648 
    0.496402     0.660877     0.434857 
    0.571528     0.666704     0.526786 
    0.639542     0.580517     0.576099 
    0.537055     0.624518     0.630919 
    0.631041     0.514421     0.377860 
    0.629962     0.610695     0.445919 
    0.522355     0.497756     0.325919 
    0.651546     0.422718     0.449289 
    0.654820     0.463050     0.579980 
    0.544580     0.339472     0.443261 
    0.614711     0.360651     0.536730 
    0.493994     0.335557     0.552636 
    0.566993     0.397984     0.637304 
    0.469994     0.387810     0.367251 
EA25837 13.949 13.940 12.480 90.00 90.00 90.00 Sym.group:    0
1.0
   13.949182     0.000000     0.000000
    0.000000    13.939784     0.000000
    0.000000     0.000000    12.480379
   W   B
   1  22
Direct
    0.497566     0.499795     0.500852 
    0.412151     0.367336     0.400926 
    0.607577     0.359832     0.502201 
    0.524550     0.339659     0.409257 
    0.627036     0.527862     0.635465 
    0.525520     0.344410     0.598709 
    0.660379     0.468314     0.498689 
    0.615694     0.416169     0.622066 
    0.570298     0.620550     0.376029 
    0.637586     0.589093     0.496273 
    0.622612     0.522345     0.360244 
    0.612664     0.411604     0.379705 
    0.370203     0.584624     0.397346 
    0.360033     0.469792     0.379729 
    0.460944     0.656017     0.412160 
    0.550409     0.672324     0.495557 
    0.573090     0.624923     0.617136 
    0.413532     0.371991     0.607452 
    0.462173     0.657623     0.581961 
    0.370013     0.588969     0.600596 
    0.360000     0.474465     0.623798 
    0.320940     0.523992     0.500484 
    0.345034     0.408307     0.503365 
EA25977 15.133 13.914 14.089 90.00 90.00 90.00 Sym.group:    0
1.0
   15.133291     0.000000     0.000000
    0.000000    13.914314     0.000000
    0.000000     0.000000    14.089150
   W   B
   1  25
Direct
    0.526685     0.504342     0.491376 
    0.668823     0.422345     0.493018 
    0.570036     0.465436     0.659046 
    0.614391     0.388526     0.590960 
    0.660585     0.502528     0.584922 
    0.552785     0.464532     0.325082 
    0.383620     0.367042     0.545474 
    0.517256     0.363907     0.391366 
    0.415925     0.389173     0.414016 
    0.475023     0.330972     0.498879 
    0.582510     0.340311     0.488590 
    0.624364     0.409457     0.390039 
    0.657183     0.615427     0.556818 
    0.575128     0.585685     0.628159 
    0.465330     0.622916     0.592684 
    0.360224     0.590585     0.475429 
    0.533919     0.658969     0.398604 
    0.617391     0.658655     0.464420 
    0.430713     0.617685     0.386242 
    0.458352     0.667677     0.488039 
    0.506092     0.567256     0.322998 
    0.479390     0.527595     0.658063 
    0.391586     0.510981     0.585736 
    0.301251     0.431820     0.574424 
    0.346196     0.460835     0.462169 
    0.285243     0.535345     0.533447 
