EA36737 13.312 13.195 13.110 90.00 90.00 90.00 Sym.group:    0
1.0
   13.312168     0.000000     0.000000
    0.000000    13.194684     0.000000
    0.000000     0.000000    13.109829
   W   B
   6   6
Direct
    0.492993     0.560986     0.339849 
    0.344184     0.535514     0.446637 
    0.380876     0.401197     0.569897 
    0.552640     0.343298     0.540075 
    0.622268     0.441656     0.397872 
    0.441093     0.381499     0.387303 
    0.617935     0.493202     0.554208 
    0.546527     0.594367     0.589611 
    0.591924     0.586797     0.468157 
    0.471909     0.627223     0.489316 
    0.423637     0.558486     0.588509 
    0.514016     0.475774     0.628565 
EA17351 13.496 13.338 12.785 90.00 90.00 90.00 Sym.group:    0
1.0
   13.496110     0.000000     0.000000
    0.000000    13.338018     0.000000
    0.000000     0.000000    12.785495
   W   B
   6   7
Direct
    0.632441     0.597746     0.564536 
    0.536856     0.638434     0.410515 
    0.526122     0.359767     0.410624 
    0.356572     0.505147     0.579447 
    0.623961     0.393306     0.564775 
    0.517617     0.499104     0.677391 
    0.532324     0.499003     0.339689 
    0.394553     0.618231     0.476245 
    0.468008     0.380984     0.572547 
    0.385516     0.389279     0.475995 
    0.477983     0.620626     0.572382 
    0.427131     0.502417     0.421803 
    0.620915     0.495957     0.434053 
EA36658 13.869 13.324 12.702 90.00 90.00 90.00 Sym.group:    0
1.0
   13.869336     0.000000     0.000000
    0.000000    13.323621     0.000000
    0.000000     0.000000    12.701941
   W   B
   6   8
Direct
    0.693358     0.529758     0.489821 
    0.488663     0.338355     0.538634 
    0.564596     0.565910     0.362149 
    0.387749     0.445952     0.639149 
    0.554609     0.499908     0.655960 
    0.581891     0.650414     0.542241 
    0.593297     0.417988     0.421990 
    0.627173     0.398829     0.548988 
    0.477741     0.424270     0.390309 
    0.447123     0.626376     0.457779 
    0.381153     0.431111     0.470074 
    0.437943     0.594267     0.588697 
    0.410637     0.528726     0.388137 
    0.354068     0.548138     0.506074 
EA24431 14.398 13.304 12.811 90.00 90.00 90.00 Sym.group:    0
1.0
   14.398191     0.000000     0.000000
    0.000000    13.304491     0.000000
    0.000000     0.000000    12.811370
   W   B
   6   9
Direct
    0.556435     0.652080     0.563113 
    0.401677     0.630715     0.458765 
    0.629126     0.521579     0.425869 
    0.314042     0.507750     0.591091 
    0.509862     0.474363     0.588106 
    0.367233     0.454568     0.421287 
    0.424086     0.607730     0.629564 
    0.490694     0.536308     0.348004 
    0.535780     0.642897     0.393017 
    0.656233     0.539732     0.596631 
    0.384062     0.372757     0.569128 
    0.468450     0.346985     0.484709 
    0.587344     0.370120     0.481338 
    0.657014     0.424366     0.562128 
    0.517962     0.418051     0.387251 
EA36507 13.720 14.318 13.046 90.00 90.00 90.00 Sym.group:    0
1.0
   13.719577     0.000000     0.000000
    0.000000    14.318340     0.000000
    0.000000     0.000000    13.046274
   W   B
   6  10
Direct
    0.509006     0.508380     0.425902 
    0.525020     0.370684     0.567816 
    0.491282     0.697611     0.472014 
    0.381069     0.579484     0.563035 
    0.654529     0.491820     0.579288 
    0.313383     0.495328     0.410953 
    0.530252     0.353676     0.400357 
    0.415971     0.376745     0.425419 
    0.631912     0.404832     0.429939 
    0.668448     0.515580     0.421393 
    0.521594     0.503748     0.664172 
    0.393147     0.616583     0.392920 
    0.417929     0.451315     0.654279 
    0.379161     0.424602     0.539728 
    0.545177     0.595848     0.578510 
    0.622118     0.613766     0.474276 
EA18014 13.631 13.105 13.105 90.00 90.00 90.00 Sym.group:    0
1.0
   13.631045     0.000000     0.000000
    0.000000    13.105133     0.000000
    0.000000     0.000000    13.105236
   W   B
   7   6
Direct
    0.376896     0.590872     0.435344 
    0.642366     0.601834     0.545406 
    0.542183     0.348390     0.422802 
    0.456104     0.370540     0.585871 
    0.536249     0.516302     0.670090 
    0.652331     0.409142     0.565094 
    0.647000     0.500363     0.394256 
    0.404737     0.533030     0.587960 
    0.327559     0.461258     0.520855 
    0.409495     0.428676     0.432700 
    0.531917     0.612707     0.425366 
    0.489380     0.501263     0.364496 
    0.483783     0.625622     0.549760 
EA36659 13.978 13.110 12.646 90.00 90.00 90.00 Sym.group:    0
1.0
   13.978159     0.000000     0.000000
    0.000000    13.109639     0.000000
    0.000000     0.000000    12.646355
   W   B
   7   7
Direct
    0.596688     0.496907     0.382013 
    0.528323     0.412667     0.632673 
    0.318340     0.498626     0.440785 
    0.386242     0.353424     0.526880 
    0.368795     0.505714     0.647479 
    0.386183     0.648687     0.516612 
    0.528307     0.595448     0.628201 
    0.635581     0.388720     0.501767 
    0.450949     0.430946     0.384508 
    0.528276     0.365421     0.460287 
    0.451393     0.561525     0.380733 
    0.636102     0.609966     0.495822 
    0.656216     0.500490     0.549020 
    0.528605     0.631459     0.453222 
EA26081 13.726 14.086 12.785 90.00 90.00 90.00 Sym.group:    0
1.0
   13.726035     0.000000     0.000000
    0.000000    14.086351     0.000000
    0.000000     0.000000    12.784751
   W   B
   7   8
Direct
    0.407960     0.628944     0.447921 
    0.437769     0.373859     0.431517 
    0.517692     0.492083     0.580088 
    0.585130     0.605201     0.413181 
    0.332775     0.493882     0.552858 
    0.700326     0.482340     0.483791 
    0.535157     0.691475     0.581181 
    0.415119     0.608662     0.621075 
    0.471252     0.509805     0.347103 
    0.355957     0.496723     0.384948 
    0.410414     0.371904     0.602422 
    0.601652     0.371156     0.499366 
    0.515419     0.332489     0.576415 
    0.567519     0.450288     0.397830 
    0.645856     0.591189     0.580302 
EA36508 14.603 13.307 12.680 90.00 90.00 90.00 Sym.group:    0
1.0
   14.602629     0.000000     0.000000
    0.000000    13.307462     0.000000
    0.000000     0.000000    12.679998
   W   B
   7   9
Direct
    0.528287     0.485890     0.379661 
    0.684368     0.402160     0.451329 
    0.562519     0.649771     0.486389 
    0.341337     0.504637     0.415326 
    0.536068     0.334861     0.507309 
    0.474045     0.501175     0.587373 
    0.634000     0.421368     0.640611 
    0.659419     0.556834     0.411822 
    0.442095     0.618668     0.388277 
    0.602953     0.575342     0.627760 
    0.680877     0.546525     0.538538 
    0.399957     0.637969     0.505670 
    0.330843     0.570580     0.573158 
    0.323262     0.452402     0.578193 
    0.421226     0.372225     0.394835 
    0.378746     0.369595     0.513748 
EA33054 14.316 13.602 12.960 90.00 90.00 90.00 Sym.group:    0
1.0
   14.316160     0.000000     0.000000
    0.000000    13.601632     0.000000
    0.000000     0.000000    12.960216
   W   B
   7  10
Direct
    0.497761     0.496269     0.456017 
    0.311301     0.491264     0.470723 
    0.406137     0.635627     0.580422 
    0.633099     0.639132     0.399423 
    0.630113     0.365467     0.481481 
    0.406262     0.469473     0.639690 
    0.667876     0.547554     0.551466 
    0.490108     0.665319     0.434844 
    0.386665     0.611464     0.416512 
    0.552547     0.654916     0.545231 
    0.536190     0.560290     0.630167 
    0.390969     0.365422     0.509320 
    0.494842     0.353829     0.563852 
    0.391483     0.388877     0.383555 
    0.652785     0.488180     0.390122 
    0.564503     0.437507     0.615553 
    0.487358     0.329412     0.431621 
EA12489 13.746 12.820 12.892 90.00 90.00 90.00 Sym.group:    0
1.0
   13.745917     0.000000     0.000000
    0.000000    12.820361     0.000000
    0.000000     0.000000    12.891963
   W   B
   8   6
Direct
    0.653017     0.540409     0.394950 
    0.509636     0.513463     0.665313 
    0.491039     0.469882     0.336782 
    0.364015     0.602826     0.409313 
    0.620434     0.640016     0.560069 
    0.676006     0.468601     0.573506 
    0.342759     0.547861     0.591629 
    0.330653     0.426054     0.439091 
    0.520616     0.618427     0.422778 
    0.472926     0.361061     0.462116 
    0.542762     0.380059     0.572158 
    0.420526     0.402044     0.578030 
    0.590992     0.395714     0.448568 
    0.464619     0.633582     0.545698 
EA35904 14.031 13.183 12.567 90.00 90.00 90.00 Sym.group:    0
1.0
   14.031348     0.000000     0.000000
    0.000000    13.183013     0.000000
    0.000000     0.000000    12.566798
   W   B
   8   7
Direct
    0.599871     0.361194     0.408130 
    0.330802     0.395286     0.509636 
    0.441290     0.428603     0.349859 
    0.608859     0.404755     0.598582 
    0.588089     0.650511     0.476852 
    0.317412     0.554905     0.433178 
    0.530382     0.570312     0.646203 
    0.354223     0.552169     0.626212 
    0.479297     0.356492     0.507293 
    0.566808     0.521744     0.375853 
    0.657518     0.500843     0.460733 
    0.435532     0.637622     0.515935 
    0.672661     0.554234     0.579629 
    0.452235     0.425300     0.620231 
    0.465021     0.586027     0.391677 
EA36510 14.205 13.162 12.818 90.00 90.00 90.00 Sym.group:    0
1.0
   14.204547     0.000000     0.000000
    0.000000    13.161517     0.000000
    0.000000     0.000000    12.817661
   W   B
   8   8
Direct
    0.332602     0.553473     0.586917 
    0.437600     0.415760     0.648721 
    0.596014     0.646508     0.550655 
    0.593300     0.344049     0.578858 
    0.694274     0.494085     0.533425 
    0.600686     0.388852     0.399362 
    0.329761     0.400036     0.488650 
    0.368260     0.564719     0.393185 
    0.513126     0.631487     0.410918 
    0.443738     0.641793     0.517029 
    0.572850     0.502538     0.633815 
    0.612744     0.556066     0.410059 
    0.477573     0.578235     0.632052 
    0.512636     0.517647     0.351471 
    0.444705     0.421305     0.378723 
    0.470132     0.343446     0.486160 
EA34066 14.889 14.889 12.802 90.00 90.00 90.00 Sym.group:    0
1.0
   14.888935     0.000000     0.000000
    0.000000    14.888526     0.000000
    0.000000     0.000000    12.801897
   W   B
   8   9
Direct
    0.412921     0.457954     0.366323 
    0.464057     0.586354     0.637114 
    0.579494     0.537214     0.356581 
    0.541574     0.419988     0.640119 
    0.373755     0.440400     0.547451 
    0.439239     0.626524     0.457357 
    0.627500     0.560259     0.533353 
    0.559806     0.371843     0.461372 
    0.313959     0.545676     0.443740 
    0.549091     0.685319     0.554975 
    0.683003     0.451242     0.434229 
    0.454832     0.316418     0.567393 
    0.329417     0.582337     0.565014 
    0.579592     0.671539     0.430871 
    0.673888     0.420806     0.559516 
    0.417950     0.326452     0.445200 
    0.499923     0.499672     0.499392 
EA36413 13.637 14.172 14.172 90.00 90.00 90.00 Sym.group:    0
1.0
   13.636968     0.000000     0.000000
    0.000000    14.171634     0.000000
    0.000000     0.000000    14.171634
   W   B
   8  10
Direct
    0.353196     0.633697     0.558659 
    0.641899     0.557350     0.372178 
    0.353307     0.366179     0.441377 
    0.641543     0.442529     0.627909 
    0.445858     0.465918     0.587006 
    0.565793     0.614640     0.544000 
    0.445769     0.534524     0.412691 
    0.565666     0.385125     0.456140 
    0.447364     0.311635     0.539338 
    0.550558     0.544100     0.681888 
    0.447329     0.688399     0.460701 
    0.550736     0.455985     0.318210 
    0.455286     0.392860     0.338495 
    0.542854     0.333984     0.600038 
    0.455294     0.607100     0.661467 
    0.542986     0.665997     0.399936 
    0.686187     0.500033     0.500048 
    0.308372     0.499946     0.499919 
EA36584 14.014 12.793 13.260 90.00 90.00 90.00 Sym.group:    0
1.0
   14.013669     0.000000     0.000000
    0.000000    12.792532     0.000000
    0.000000     0.000000    13.259553
   W   B
   9   6
Direct
    0.443689     0.364301     0.599494 
    0.665857     0.564668     0.588540 
    0.349328     0.634790     0.480761 
    0.637632     0.616375     0.416148 
    0.541943     0.454602     0.336798 
    0.307517     0.446991     0.510436 
    0.376574     0.553849     0.643385 
    0.512050     0.662942     0.557678 
    0.682643     0.434845     0.447551 
    0.597159     0.410886     0.581433 
    0.545856     0.362773     0.473623 
    0.524307     0.507434     0.628284 
    0.396283     0.503442     0.388412 
    0.484674     0.595216     0.408096 
    0.434490     0.386886     0.439358 
EA17148 14.331 13.989 13.407 90.00 90.00 90.00 Sym.group:    0
1.0
   14.330522     0.000000     0.000000
    0.000000    13.989046     0.000000
    0.000000     0.000000    13.407064
   W   B
   9   7
Direct
    0.653276     0.533356     0.379091 
    0.516663     0.650496     0.414028 
    0.410438     0.390058     0.398784 
    0.308113     0.490077     0.524745 
    0.417626     0.525882     0.658574 
    0.651076     0.618301     0.529525 
    0.653760     0.434486     0.543669 
    0.530534     0.311300     0.515146 
    0.371894     0.557025     0.365329 
    0.565023     0.411926     0.408001 
    0.416180     0.394095     0.571230 
    0.507748     0.501064     0.345317 
    0.519325     0.419594     0.626268 
    0.568466     0.530468     0.629073 
    0.506016     0.624469     0.574974 
    0.403859     0.607403     0.516248 
EA35088 14.825 13.676 13.695 90.00 90.00 90.00 Sym.group:    0
1.0
   14.824859     0.000000     0.000000
    0.000000    13.676245     0.000000
    0.000000     0.000000    13.694975
   W   B
   9   8
Direct
    0.542733     0.417197     0.406618 
    0.487737     0.627349     0.446253 
    0.359980     0.591550     0.581913 
    0.693215     0.397738     0.510393 
    0.690319     0.546720     0.618198 
    0.661337     0.561618     0.443824 
    0.425198     0.324139     0.527747 
    0.379862     0.433941     0.655619 
    0.529597     0.491296     0.581700 
    0.393147     0.417633     0.407058 
    0.551715     0.553047     0.327985 
    0.331668     0.449303     0.507495 
    0.362642     0.541604     0.433344 
    0.487872     0.655032     0.604907 
    0.567832     0.328706     0.537319 
    0.593673     0.649388     0.561266 
    0.441473     0.513738     0.348363 
EA36417 15.109 15.092 14.310 90.00 90.00 90.00 Sym.group:    0
1.0
   15.108987     0.000000     0.000000
    0.000000    15.091567     0.000000
    0.000000     0.000000    14.309879
   W   B
   9   9
Direct
    0.572040     0.616432     0.367116 
    0.398625     0.561589     0.659381 
    0.401695     0.408817     0.350568 
    0.609085     0.394492     0.615358 
    0.563745     0.576683     0.570210 
    0.430037     0.563720     0.459440 
    0.442527     0.417340     0.543753 
    0.574410     0.442184     0.424589 
    0.545409     0.718241     0.499709 
    0.321804     0.504549     0.558220 
    0.483777     0.325074     0.424890 
    0.676846     0.483285     0.531951 
    0.552987     0.319978     0.511310 
    0.666714     0.558352     0.453317 
    0.444730     0.666350     0.578564 
    0.322496     0.455357     0.456947 
    0.486097     0.512600     0.320246 
    0.506975     0.474955     0.674433 
EA27246 14.976 14.041 13.067 90.00 90.00 90.00 Sym.group:    0
1.0
   14.975574     0.000000     0.000000
    0.000000    14.040673     0.000000
    0.000000     0.000000    13.067159
   W   B
   9  10
Direct
    0.510148     0.500484     0.477823 
    0.692139     0.572263     0.559755 
    0.542032     0.331694     0.579296 
    0.393464     0.435104     0.639563 
    0.366571     0.564583     0.378628 
    0.559917     0.490460     0.661685 
    0.557638     0.673612     0.560290 
    0.629143     0.633946     0.401327 
    0.305908     0.564707     0.551485 
    0.607408     0.379565     0.429685 
    0.662696     0.484369     0.422898 
    0.343310     0.437266     0.479234 
    0.420055     0.648703     0.511644 
    0.503213     0.351227     0.410228 
    0.483891     0.655583     0.403904 
    0.411268     0.416561     0.377422 
    0.418591     0.353076     0.496505 
    0.441234     0.583180     0.619549 
    0.651373     0.423613     0.539080 
EA36512 14.324 14.396 12.887 90.00 90.00 90.00 Sym.group:    0
1.0
   14.323509     0.000000     0.000000
    0.000000    14.396342     0.000000
    0.000000     0.000000    12.886565
   W   B
  10   6
Direct
    0.542182     0.645978     0.521943 
    0.491803     0.405220     0.623784 
    0.646312     0.408070     0.548630 
    0.335589     0.481133     0.581355 
    0.374859     0.617998     0.418306 
    0.488173     0.478801     0.428539 
    0.650254     0.537886     0.395187 
    0.357484     0.345046     0.479885 
    0.524836     0.646298     0.334649 
    0.530764     0.296313     0.468105 
    0.667133     0.560725     0.554663 
    0.469483     0.554936     0.639407 
    0.332105     0.473765     0.410728 
    0.606619     0.392502     0.381666 
    0.398660     0.626997     0.574741 
    0.583742     0.528331     0.638413 
EA36444 14.639 14.126 13.804 90.00 90.00 90.00 Sym.group:    0
1.0
   14.639495     0.000000     0.000000
    0.000000    14.125614     0.000000
    0.000000     0.000000    13.803513
   W   B
  10   7
Direct
    0.552865     0.535805     0.662131 
    0.487042     0.647646     0.413294 
    0.328273     0.438245     0.527129 
    0.356984     0.529463     0.361818 
    0.336654     0.617572     0.503007 
    0.594905     0.383507     0.583230 
    0.672533     0.440592     0.416441 
    0.528490     0.493263     0.332085 
    0.694530     0.526732     0.563863 
    0.442334     0.309520     0.530620 
    0.473865     0.626870     0.566214 
    0.583428     0.624924     0.535412 
    0.406437     0.536509     0.613357 
    0.539135     0.378178     0.433858 
    0.429184     0.403089     0.408193 
    0.622610     0.579774     0.430271 
    0.450732     0.428311     0.619078 
EA14679 15.958 14.611 14.272 90.00 90.00 90.00 Sym.group:    0
1.0
   15.957598     0.000000     0.000000
    0.000000    14.610658     0.000000
    0.000000     0.000000    14.272359
   W   B
  10   8
Direct
    0.417733     0.579507     0.350641 
    0.584236     0.368970     0.384233 
    0.591667     0.608789     0.629302 
    0.427775     0.576708     0.542610 
    0.425092     0.428727     0.436802 
    0.559325     0.437617     0.560536 
    0.587315     0.559287     0.437817 
    0.290745     0.564992     0.461831 
    0.705485     0.454883     0.438814 
    0.314239     0.430457     0.548012 
    0.443710     0.350151     0.571352 
    0.536200     0.681724     0.526066 
    0.678793     0.526388     0.557967 
    0.482456     0.670708     0.431717 
    0.508467     0.312149     0.488895 
    0.515606     0.483016     0.323965 
    0.497724     0.522652     0.673686 
    0.433435     0.443276     0.635757 
EA16711 14.780 14.524 13.249 90.00 90.00 90.00 Sym.group:    0
1.0
   14.780447     0.000000     0.000000
    0.000000    14.523620     0.000000
    0.000000     0.000000    13.248624
   W   B
  10   9
Direct
    0.506952     0.494904     0.476768 
    0.590586     0.660297     0.542276 
    0.642582     0.386169     0.549701 
    0.490778     0.419102     0.660559 
    0.297777     0.472165     0.457709 
    0.389514     0.568339     0.356397 
    0.420672     0.378327     0.375808 
    0.461375     0.601308     0.644206 
    0.591707     0.338089     0.390092 
    0.340444     0.477166     0.641702 
    0.525348     0.634276     0.392062 
    0.452110     0.656213     0.485287 
    0.649527     0.470647     0.403588 
    0.625279     0.582619     0.406649 
    0.663849     0.532566     0.515089 
    0.595742     0.527113     0.624047 
    0.394682     0.372624     0.538726 
    0.360127     0.595036     0.520720 
    0.500948     0.333039     0.518613 
EA36411 14.131 14.103 14.106 90.00 90.00 90.00 Sym.group:    0
1.0
   14.130719     0.000000     0.000000
    0.000000    14.102796     0.000000
    0.000000     0.000000    14.105771
   W   B
  10  10
Direct
    0.546773     0.330563     0.425908 
    0.471028     0.467751     0.319766 
    0.425516     0.303135     0.548443 
    0.333339     0.614480     0.526110 
    0.313414     0.434970     0.554172 
    0.619232     0.621306     0.515357 
    0.400976     0.544112     0.667596 
    0.636998     0.478430     0.643362 
    0.490017     0.492290     0.509817 
    0.642898     0.478766     0.381577 
    0.344893     0.497046     0.414337 
    0.391292     0.381775     0.421679 
    0.410971     0.593778     0.388348 
    0.545942     0.597023     0.649484 
    0.472999     0.654746     0.579699 
    0.474682     0.662800     0.461594 
    0.567190     0.361507     0.579847 
    0.662092     0.392104     0.512566 
    0.714597     0.498841     0.518958 
    0.535152     0.594578     0.381381 
