EA1    14.403 14.403 11.312 90.00 90.00 90.00 Sym.group:    0
1.0
   14.402585     0.000000     0.000000
    0.000000    14.402585     0.000000
    0.000000     0.000000    11.311672
   W   B
  10  10
Direct
    0.642593     0.498288     0.632768 
    0.508687     0.609206     0.616115 
    0.363971     0.490464     0.614793 
    0.510008     0.390438     0.609162 
    0.562053     0.622378     0.362507 
    0.597689     0.451372     0.405698 
    0.431692     0.404147     0.400749 
    0.389091     0.571893     0.368765 
    0.325614     0.329637     0.565327 
    0.671906     0.332978     0.558119 
    0.641348     0.645391     0.528398 
    0.357852     0.639578     0.534470 
    0.290462     0.453973     0.448561 
    0.448014     0.692336     0.466094 
    0.698878     0.558589     0.462230 
    0.550245     0.304876     0.448041 
    0.443835     0.271481     0.491013 
    0.734276     0.450368     0.488809 
    0.555793     0.718315     0.502493 
    0.275994     0.564291     0.495888 
EA512  14.668 13.852 13.432 90.00 90.00 90.00 Sym.group:    0
1.0
   14.667944     0.000000     0.000000
    0.000000    13.852275     0.000000
    0.000000     0.000000    13.431998
   W   B
  10   6
Direct
    0.522931     0.434903     0.416353 
    0.482542     0.546578     0.585948 
    0.377226     0.392214     0.562472 
    0.480471     0.274549     0.491750 
    0.416492     0.673406     0.468983 
    0.355069     0.514649     0.401642 
    0.622575     0.587063     0.462322 
    0.597957     0.397707     0.588782 
    0.693147     0.420005     0.429348 
    0.638535     0.561371     0.661452 
    0.327486     0.552262     0.547797 
    0.385307     0.361473     0.407120 
    0.357737     0.512046     0.659409 
    0.490014     0.585164     0.364357 
    0.716777     0.494044     0.557073 
    0.535732     0.692564     0.395193 
EA863  13.639 13.511 13.587 90.00 90.00 90.00 Sym.group:    0
1.0
   13.639354     0.000000     0.000000
    0.000000    13.511212     0.000000
    0.000000     0.000000    13.587381
   W   B
   6  10
Direct
    0.510816     0.489478     0.542605 
    0.582563     0.313260     0.450792 
    0.679130     0.403280     0.553237 
    0.566254     0.686566     0.526488 
    0.625244     0.520619     0.393555 
    0.381583     0.618760     0.472737 
    0.371930     0.551332     0.615092 
    0.414685     0.366974     0.588376 
    0.386529     0.457646     0.426287 
    0.531494     0.335982     0.597369 
    0.495186     0.418272     0.383528 
    0.343078     0.455239     0.542260 
    0.524091     0.644120     0.385256 
    0.663412     0.566586     0.536081 
    0.455841     0.634908     0.614767 
    0.468164     0.536975     0.371568 
EA1103 15.095 14.614 13.266 90.00 90.00 90.00 Sym.group:    0
1.0
   15.095094     0.000000     0.000000
    0.000000    14.614281     0.000000
    0.000000     0.000000    13.265975
   W   B
  10   9
Direct
    0.496847     0.493065     0.465367 
    0.539925     0.542076     0.644261 
    0.701224     0.456781     0.473842 
    0.322774     0.538977     0.536585 
    0.642055     0.622236     0.513291 
    0.414675     0.424796     0.640226 
    0.598660     0.381180     0.610175 
    0.459786     0.670921     0.550160 
    0.475796     0.306349     0.522661 
    0.533902     0.666015     0.386146 
    0.400997     0.613884     0.424192 
    0.615634     0.548551     0.372710 
    0.354906     0.385284     0.496043 
    0.586271     0.363356     0.444737 
    0.307435     0.437440     0.404911 
    0.681207     0.510425     0.617685 
    0.401193     0.574468     0.667778 
    0.609303     0.437538     0.356406 
    0.357412     0.526657     0.372823 
EA1471 14.212 14.335 14.659 90.00 90.00 90.00 Sym.group:    0
1.0
   14.211961     0.000000     0.000000
    0.000000    14.335199     0.000000
    0.000000     0.000000    14.658919
   W   B
  10   7
Direct
    0.465718     0.418609     0.329181 
    0.315581     0.466717     0.386052 
    0.323191     0.456474     0.555101 
    0.493507     0.665148     0.477657 
    0.606811     0.431565     0.601779 
    0.562043     0.348397     0.456414 
    0.589952     0.522965     0.418298 
    0.579811     0.596760     0.610807 
    0.450953     0.474250     0.679130 
    0.393548     0.616981     0.612774 
    0.443253     0.558274     0.384497 
    0.364102     0.578426     0.472112 
    0.457568     0.384568     0.561079 
    0.651665     0.641075     0.487870 
    0.695222     0.429102     0.484993 
    0.700152     0.540063     0.524126 
    0.406924     0.370627     0.458128 
EA1885 15.502 14.101 13.529 90.00 90.00 90.00 Sym.group:    0
1.0
   15.502223     0.000000     0.000000
    0.000000    14.100609     0.000000
    0.000000     0.000000    13.529341
   W   B
  10   6
Direct
    0.363195     0.597431     0.604771 
    0.393347     0.400199     0.434172 
    0.361637     0.425518     0.624318 
    0.499183     0.328577     0.562195 
    0.424136     0.581535     0.415641 
    0.688153     0.512521     0.561944 
    0.603544     0.529135     0.393798 
    0.509991     0.505502     0.565446 
    0.278045     0.510621     0.490061 
    0.482314     0.467374     0.289740 
    0.486594     0.661430     0.549686 
    0.613032     0.405524     0.491504 
    0.615724     0.401824     0.616623 
    0.543189     0.657744     0.447636 
    0.536785     0.387989     0.407257 
    0.601130     0.627077     0.545208 
EA2229 14.535 13.918 13.136 90.00 90.00 90.00 Sym.group:    0
1.0
   14.535074     0.000000     0.000000
    0.000000    13.917726     0.000000
    0.000000     0.000000    13.136188
   W   B
   8   8
Direct
    0.598040     0.369604     0.399646 
    0.528311     0.358283     0.577947 
    0.676241     0.522390     0.436766 
    0.607153     0.506572     0.617024 
    0.488203     0.504690     0.443231 
    0.368725     0.445637     0.569652 
    0.458271     0.612418     0.617256 
    0.466528     0.705252     0.454475 
    0.439543     0.338501     0.448291 
    0.674980     0.386938     0.533415 
    0.360385     0.599397     0.488528 
    0.582208     0.637225     0.393720 
    0.329143     0.509466     0.418806 
    0.473487     0.465188     0.686349 
    0.368248     0.407711     0.392801 
    0.580531     0.630730     0.522095 
EA2545 15.043 14.082 13.244 90.00 90.00 90.00 Sym.group:    0
1.0
   15.043373     0.000000     0.000000
    0.000000    14.082471     0.000000
    0.000000     0.000000    13.244252
   W   B
  10   6
Direct
    0.625113     0.601781     0.530984 
    0.600128     0.355868     0.438909 
    0.588555     0.433907     0.611301 
    0.648482     0.524249     0.367018 
    0.491166     0.491823     0.440442 
    0.318879     0.571328     0.445589 
    0.442447     0.309005     0.403988 
    0.432906     0.636254     0.555837 
    0.441767     0.345413     0.573266 
    0.729286     0.459075     0.499413 
    0.529080     0.653439     0.425213 
    0.540784     0.572734     0.659051 
    0.429735     0.634499     0.385603 
    0.353843     0.422547     0.455185 
    0.456274     0.501094     0.643598 
    0.371558     0.486983     0.564602 
EA3050 14.261 12.689 13.705 90.00 90.00 90.00 Sym.group:    0
1.0
   14.261431     0.000000     0.000000
    0.000000    12.688614     0.000000
    0.000000     0.000000    13.705180
   W   B
   8   6
Direct
    0.524596     0.319454     0.509242 
    0.564876     0.667785     0.524150 
    0.517101     0.491471     0.586572 
    0.616897     0.479755     0.413132 
    0.333767     0.523959     0.615840 
    0.366598     0.430226     0.454011 
    0.683717     0.385920     0.550288 
    0.391068     0.612202     0.463951 
    0.442261     0.642091     0.616271 
    0.404345     0.375067     0.604146 
    0.525587     0.620454     0.383052 
    0.496292     0.389934     0.370491 
    0.664964     0.547803     0.557359 
    0.467929     0.513879     0.351494 
EA3154 14.947 14.117 12.438 90.00 90.00 90.00 Sym.group:    0
1.0
   14.946886     0.000000     0.000000
    0.000000    14.117433     0.000000
    0.000000     0.000000    12.437609
   W   B
  10   7
Direct
    0.491357     0.495234     0.539776 
    0.429696     0.686563     0.487041 
    0.581433     0.642431     0.601617 
    0.439690     0.552343     0.349256 
    0.687948     0.577132     0.479769 
    0.652369     0.404649     0.455366 
    0.505782     0.375848     0.369914 
    0.323573     0.450214     0.594770 
    0.389741     0.612082     0.644415 
    0.332726     0.427220     0.412653 
    0.531057     0.333944     0.540255 
    0.640742     0.496428     0.613836 
    0.598517     0.392768     0.616250 
    0.556107     0.620885     0.426895 
    0.582574     0.515030     0.366453 
    0.421887     0.344454     0.517216 
    0.334801     0.572775     0.484520 
EA3523 14.052 13.748 13.525 90.00 90.00 90.00 Sym.group:    0
1.0
   14.051643     0.000000     0.000000
    0.000000    13.747761     0.000000
    0.000000     0.000000    13.525163
   W   B
   7   9
Direct
    0.630481     0.532194     0.394624 
    0.554705     0.403477     0.641184 
    0.581424     0.368361     0.461682 
    0.363341     0.632108     0.470452 
    0.540942     0.659046     0.501103 
    0.439264     0.576538     0.624329 
    0.321220     0.466882     0.511741 
    0.502524     0.460941     0.351063 
    0.427571     0.394664     0.418688 
    0.671241     0.595490     0.533719 
    0.441656     0.362311     0.535284 
    0.651937     0.478932     0.547382 
    0.405132     0.423680     0.635627 
    0.481679     0.583409     0.369176 
    0.389873     0.503464     0.375717 
    0.597008     0.558500     0.628229 
EA3899 14.233 14.133 12.653 90.00 90.00 90.00 Sym.group:    0
1.0
   14.233405     0.000000     0.000000
    0.000000    14.133352     0.000000
    0.000000     0.000000    12.652522
   W   B
   6  10
Direct
    0.334550     0.504664     0.438424 
    0.508368     0.509954     0.564037 
    0.506994     0.310977     0.554835 
    0.585318     0.388716     0.412913 
    0.688348     0.526750     0.491077 
    0.442145     0.627868     0.390064 
    0.388399     0.404278     0.564029 
    0.351780     0.510661     0.604861 
    0.622590     0.397502     0.586169 
    0.582591     0.631711     0.476781 
    0.387193     0.612543     0.559717 
    0.487965     0.668603     0.542811 
    0.566508     0.543862     0.383043 
    0.470348     0.475205     0.356755 
    0.646359     0.500612     0.639201 
    0.430543     0.386097     0.435283 
EA4274 15.201 14.186 13.141 90.00 90.00 90.00 Sym.group:    0
1.0
   15.200820     0.000000     0.000000
    0.000000    14.185800     0.000000
    0.000000     0.000000    13.140876
   W   B
  10   6
Direct
    0.634046     0.503637     0.652757 
    0.574033     0.602487     0.383451 
    0.459630     0.669970     0.539215 
    0.361780     0.417700     0.611556 
    0.373143     0.413300     0.431480 
    0.497507     0.500460     0.546490 
    0.408120     0.603216     0.379546 
    0.694581     0.529150     0.491437 
    0.304071     0.558875     0.511446 
    0.620530     0.366204     0.540841 
    0.495098     0.476577     0.358214 
    0.390141     0.569426     0.639641 
    0.514900     0.375279     0.423935 
    0.473813     0.336924     0.539018 
    0.598631     0.628360     0.549146 
    0.599977     0.448436     0.401826 
EA4751 14.124 13.998 12.593 90.00 90.00 90.00 Sym.group:    0
1.0
   14.123684     0.000000     0.000000
    0.000000    13.997998     0.000000
    0.000000     0.000000    12.593036
   W   B
   8   6
Direct
    0.535814     0.555472     0.388153 
    0.549363     0.541849     0.612355 
    0.429785     0.398095     0.397414 
    0.442346     0.386139     0.597461 
    0.299371     0.472796     0.514115 
    0.410710     0.641167     0.517641 
    0.362281     0.557798     0.356557 
    0.382142     0.540112     0.670592 
    0.561324     0.675016     0.507842 
    0.587848     0.410456     0.415091 
    0.596525     0.402225     0.555691 
    0.540396     0.318731     0.483611 
    0.650744     0.608010     0.496307 
    0.651350     0.492137     0.487170 
EA4916 13.761 14.078 12.639 90.00 90.00 90.00 Sym.group:    0
1.0
   13.761062     0.000000     0.000000
    0.000000    14.078106     0.000000
    0.000000     0.000000    12.639440
   W   B
   6  10
Direct
    0.502804     0.499207     0.449462 
    0.393958     0.379074     0.580454 
    0.353010     0.609904     0.409220 
    0.660789     0.506411     0.583095 
    0.478233     0.503574     0.661236 
    0.666772     0.383520     0.459527 
    0.350266     0.525398     0.549713 
    0.416391     0.367318     0.410164 
    0.349479     0.461761     0.404133 
    0.518784     0.335270     0.465107 
    0.428929     0.619791     0.557784 
    0.494435     0.659634     0.448028 
    0.615296     0.617312     0.458247 
    0.550912     0.626144     0.568952 
    0.552545     0.382670     0.586945 
    0.667396     0.523012     0.407929 
EA5179 14.650 13.866 13.402 90.00 90.00 90.00 Sym.group:    0
1.0
   14.650460     0.000000     0.000000
    0.000000    13.865624     0.000000
    0.000000     0.000000    13.401999
   W   B
   9   9
Direct
    0.624602     0.452625     0.331917 
    0.355240     0.603883     0.396418 
    0.377716     0.616802     0.571537 
    0.505473     0.508390     0.473701 
    0.701081     0.476362     0.477972 
    0.623345     0.627416     0.426405 
    0.397772     0.341195     0.498294 
    0.583379     0.336290     0.485069 
    0.493665     0.361342     0.640739 
    0.386170     0.454233     0.377422 
    0.525924     0.647288     0.569737 
    0.477775     0.670415     0.454266 
    0.618820     0.577130     0.580527 
    0.484720     0.382568     0.369435 
    0.394319     0.468328     0.605480 
    0.602985     0.457813     0.609588 
    0.509436     0.534819     0.638676 
    0.337578     0.483099     0.492819 
EA5573 13.873 12.769 13.857 90.00 90.00 90.00 Sym.group:    0
1.0
   13.873426     0.000000     0.000000
    0.000000    12.769071     0.000000
    0.000000     0.000000    13.856844
   W   B
   6  10
Direct
    0.582872     0.351108     0.562961 
    0.409229     0.366385     0.571704 
    0.500266     0.506462     0.657336 
    0.499479     0.499636     0.454686 
    0.348419     0.644762     0.453747 
    0.510647     0.702792     0.434973 
    0.631194     0.510314     0.565212 
    0.571038     0.625746     0.564768 
    0.451854     0.650128     0.571352 
    0.376599     0.538340     0.569584 
    0.602045     0.365139     0.406815 
    0.387978     0.370930     0.415537 
    0.494792     0.324914     0.406361 
    0.637793     0.597032     0.463079 
    0.337550     0.479585     0.449359 
    0.658246     0.466727     0.452529 
EA5947 13.720 14.318 13.046 90.00 90.00 90.00 Sym.group:    0
1.0
   13.719577     0.000000     0.000000
    0.000000    14.318340     0.000000
    0.000000     0.000000    13.046274
   W   B
   6  10
Direct
    0.509006     0.508380     0.425902 
    0.525020     0.370684     0.567816 
    0.491282     0.697611     0.472014 
    0.381069     0.579484     0.563035 
    0.654529     0.491820     0.579288 
    0.313383     0.495328     0.410953 
    0.530252     0.353676     0.400357 
    0.415971     0.376745     0.425419 
    0.631912     0.404832     0.429939 
    0.668448     0.515580     0.421393 
    0.521594     0.503748     0.664172 
    0.393147     0.616583     0.392920 
    0.417929     0.451315     0.654279 
    0.379161     0.424602     0.539728 
    0.545177     0.595848     0.578510 
    0.622118     0.613766     0.474276 
EA6268 14.248 14.096 12.463 90.00 90.00 90.00 Sym.group:    0
1.0
   14.247592     0.000000     0.000000
    0.000000    14.095908     0.000000
    0.000000     0.000000    12.463181
   W   B
   8   8
Direct
    0.414324     0.672008     0.440782 
    0.502497     0.489242     0.445773 
    0.442419     0.317545     0.492958 
    0.601633     0.409781     0.613212 
    0.374410     0.577850     0.593302 
    0.695794     0.435342     0.445081 
    0.650048     0.569561     0.572426 
    0.370299     0.400106     0.350986 
    0.581661     0.344252     0.449603 
    0.562650     0.642809     0.440775 
    0.640408     0.563428     0.395517 
    0.350192     0.443161     0.515857 
    0.511600     0.634836     0.564253 
    0.443675     0.430651     0.611711 
    0.509611     0.533332     0.646396 
    0.348778     0.536094     0.421366 
EA6844 13.406 12.582 12.595 90.00 90.00 90.00 Sym.group:    0
1.0
   13.406401     0.000000     0.000000
    0.000000    12.581767     0.000000
    0.000000     0.000000    12.595006
   W   B
   6   7
Direct
    0.641197     0.487342     0.405899 
    0.495268     0.427007     0.638959 
    0.509645     0.352983     0.429099 
    0.490578     0.611523     0.611240 
    0.328622     0.521669     0.587109 
    0.373796     0.626680     0.434410 
    0.631168     0.507856     0.581727 
    0.626305     0.383600     0.539179 
    0.377762     0.459783     0.426654 
    0.382766     0.373649     0.527702 
    0.484233     0.509698     0.371671 
    0.629485     0.617000     0.510446 
    0.529175     0.621207     0.435906 
EA6887 15.109 15.092 14.310 90.00 90.00 90.00 Sym.group:    0
1.0
   15.108987     0.000000     0.000000
    0.000000    15.091567     0.000000
    0.000000     0.000000    14.309879
   W   B
   9   9
Direct
    0.572040     0.616432     0.367116 
    0.398625     0.561589     0.659381 
    0.401695     0.408817     0.350568 
    0.609085     0.394492     0.615358 
    0.563745     0.576683     0.570210 
    0.430037     0.563720     0.459440 
    0.442527     0.417340     0.543753 
    0.574410     0.442184     0.424589 
    0.545409     0.718241     0.499709 
    0.321804     0.504549     0.558220 
    0.483777     0.325074     0.424890 
    0.676846     0.483285     0.531951 
    0.552987     0.319978     0.511310 
    0.666714     0.558352     0.453317 
    0.444730     0.666350     0.578564 
    0.322496     0.455357     0.456947 
    0.486097     0.512600     0.320246 
    0.506975     0.474955     0.674433 
EA7218 14.604 15.250 14.308 90.00 90.00 90.00 Sym.group:    0
1.0
   14.604317     0.000000     0.000000
    0.000000    15.250416     0.000000
    0.000000     0.000000    14.308374
   W   B
  10   8
Direct
    0.604278     0.569893     0.352319 
    0.353456     0.451965     0.378240 
    0.466804     0.600365     0.664810 
    0.608208     0.524030     0.544372 
    0.539564     0.427570     0.415012 
    0.413654     0.455954     0.557551 
    0.436581     0.598561     0.470026 
    0.732189     0.480100     0.436663 
    0.274236     0.561097     0.475085 
    0.660770     0.355455     0.498743 
    0.494262     0.331247     0.525910 
    0.544940     0.660730     0.567319 
    0.340711     0.584774     0.597337 
    0.586716     0.650452     0.464152 
    0.410873     0.346181     0.450074 
    0.464610     0.533445     0.329570 
    0.519822     0.476564     0.669571 
    0.548325     0.391617     0.603247 
EA7823 13.932 13.555 11.742 90.00 90.00 90.00 Sym.group:    0
1.0
   13.932008     0.000000     0.000000
    0.000000    13.554704     0.000000
    0.000000     0.000000    11.742254
   W   B
   7   6
Direct
    0.656462     0.441224     0.588709 
    0.455561     0.423965     0.634070 
    0.306003     0.440676     0.474929 
    0.497850     0.498591     0.423996 
    0.549896     0.575646     0.622727 
    0.691591     0.560653     0.450152 
    0.351017     0.561704     0.605190 
    0.636780     0.419225     0.407520 
    0.430331     0.356142     0.466288 
    0.566623     0.642608     0.448772 
    0.358325     0.579756     0.420859 
    0.449038     0.644654     0.479420 
    0.550524     0.355158     0.477368 
EA8049 14.014 12.793 13.260 90.00 90.00 90.00 Sym.group:    0
1.0
   14.013669     0.000000     0.000000
    0.000000    12.792532     0.000000
    0.000000     0.000000    13.259553
   W   B
   9   6
Direct
    0.443689     0.364301     0.599494 
    0.665857     0.564668     0.588540 
    0.349328     0.634790     0.480761 
    0.637632     0.616375     0.416148 
    0.541943     0.454602     0.336798 
    0.307517     0.446991     0.510436 
    0.376574     0.553849     0.643385 
    0.512050     0.662942     0.557678 
    0.682643     0.434845     0.447551 
    0.597159     0.410886     0.581433 
    0.545856     0.362773     0.473623 
    0.524307     0.507434     0.628284 
    0.396283     0.503442     0.388412 
    0.484674     0.595216     0.408096 
    0.434490     0.386886     0.439358 
EA8323 13.777 13.711 12.935 90.00 90.00 90.00 Sym.group:    0
1.0
   13.776902     0.000000     0.000000
    0.000000    13.710792     0.000000
    0.000000     0.000000    12.934542
   W   B
   7   9
Direct
    0.505624     0.484629     0.436321 
    0.414377     0.621810     0.547472 
    0.593110     0.313262     0.485222 
    0.661409     0.479705     0.563367 
    0.343794     0.451843     0.566783 
    0.675292     0.582851     0.410421 
    0.508324     0.396246     0.633525 
    0.420769     0.618329     0.379812 
    0.532995     0.648339     0.411091 
    0.347309     0.530990     0.412721 
    0.366284     0.410858     0.410902 
    0.429043     0.524053     0.681333 
    0.538251     0.555010     0.642783 
    0.569864     0.613724     0.534240 
    0.436904     0.339691     0.484713 
    0.656652     0.428661     0.399292 
EA8789 14.456 13.351 12.528 90.00 90.00 90.00 Sym.group:    0
1.0
   14.455965     0.000000     0.000000
    0.000000    13.351031     0.000000
    0.000000     0.000000    12.528147
   W   B
   8   6
Direct
    0.677690     0.453569     0.500981 
    0.644937     0.621282     0.486566 
    0.525283     0.357665     0.436308 
    0.477021     0.642371     0.565453 
    0.365286     0.597498     0.420097 
    0.335245     0.524880     0.586045 
    0.416224     0.354655     0.587389 
    0.355019     0.402407     0.420558 
    0.516081     0.607694     0.399513 
    0.470974     0.491888     0.363925 
    0.590624     0.534948     0.614032 
    0.562266     0.411144     0.600625 
    0.478567     0.497539     0.634283 
    0.584783     0.502462     0.384228 
EA9186 14.006 13.427 12.661 90.00 90.00 90.00 Sym.group:    0
1.0
   14.005870     0.000000     0.000000
    0.000000    13.426592     0.000000
    0.000000     0.000000    12.660518
   W   B
   6   7
Direct
    0.571011     0.390842     0.574021 
    0.518972     0.551222     0.646409 
    0.332724     0.435499     0.448162 
    0.435234     0.577709     0.388678 
    0.678386     0.429566     0.424228 
    0.502788     0.409768     0.382968 
    0.592156     0.552892     0.391586 
    0.431062     0.344297     0.521233 
    0.379370     0.551520     0.554043 
    0.450703     0.647386     0.538484 
    0.417020     0.440883     0.605522 
    0.556230     0.629287     0.492698 
    0.634343     0.539130     0.531970 
EA9299 15.166 13.946 12.783 90.00 90.00 90.00 Sym.group:    0
1.0
   15.166231     0.000000     0.000000
    0.000000    13.946328     0.000000
    0.000000     0.000000    12.782683
   W   B
  10   7
Direct
    0.525147     0.488884     0.628847 
    0.558099     0.529785     0.430899 
    0.491663     0.381401     0.334959 
    0.376092     0.359697     0.458231 
    0.386385     0.524546     0.349856 
    0.494596     0.671240     0.570000 
    0.465674     0.675911     0.387156 
    0.719176     0.560560     0.442117 
    0.688128     0.459288     0.582975 
    0.558623     0.343635     0.503300 
    0.628485     0.600780     0.569015 
    0.337751     0.503094     0.505102 
    0.382829     0.446380     0.608136 
    0.373308     0.617266     0.492743 
    0.669133     0.416476     0.421905 
    0.447708     0.353960     0.605435 
    0.397205     0.567098     0.609325 
EA9617 15.558 13.459 13.001 90.00 90.00 90.00 Sym.group:    0
1.0
   15.557566     0.000000     0.000000
    0.000000    13.459455     0.000000
    0.000000     0.000000    13.000728
   W   B
   9   8
Direct
    0.423997     0.637658     0.392568 
    0.294399     0.577720     0.468349 
    0.378743     0.471241     0.344222 
    0.453932     0.425953     0.614229 
    0.426732     0.613865     0.585209 
    0.524372     0.494982     0.441658 
    0.699552     0.492913     0.416173 
    0.634041     0.412430     0.596510 
    0.684756     0.577614     0.572977 
    0.555593     0.644619     0.524706 
    0.339220     0.421514     0.499901 
    0.428190     0.366155     0.463041 
    0.622486     0.366256     0.440955 
    0.528555     0.335499     0.494531 
    0.623005     0.621031     0.425894 
    0.552982     0.545038     0.617501 
    0.329443     0.495514     0.601576 
EA10207 13.590 13.217 12.766 90.00 90.00 90.00 Sym.group:    0
1.0
   13.589786     0.000000     0.000000
    0.000000    13.216643     0.000000
    0.000000     0.000000    12.765952
   W   B
   6   7
Direct
    0.602957     0.643039     0.507747 
    0.635293     0.496625     0.619530 
    0.471751     0.599219     0.628906 
    0.419806     0.341116     0.489085 
    0.381912     0.484557     0.388024 
    0.669921     0.475835     0.434015 
    0.535327     0.543695     0.382445 
    0.571764     0.382260     0.520168 
    0.377107     0.475191     0.561784 
    0.355371     0.588603     0.509595 
    0.459543     0.621214     0.452976 
    0.529665     0.411329     0.393880 
    0.489582     0.437314     0.611845 
EA10548 13.590 13.217 12.766 90.00 90.00 90.00 Sym.group:    0
1.0
   13.589786     0.000000     0.000000
    0.000000    13.216643     0.000000
    0.000000     0.000000    12.765952
   W   B
   6   7
Direct
    0.602957     0.643039     0.507747 
    0.635293     0.496625     0.619530 
    0.471751     0.599219     0.628906 
    0.419806     0.341116     0.489085 
    0.381912     0.484557     0.388024 
    0.669921     0.475835     0.434015 
    0.535327     0.543695     0.382445 
    0.571764     0.382260     0.520168 
    0.377107     0.475191     0.561784 
    0.355371     0.588603     0.509595 
    0.459543     0.621214     0.452976 
    0.529665     0.411329     0.393880 
    0.489582     0.437314     0.611845 
EA10604 15.365 13.595 14.933 90.00 90.00 90.00 Sym.group:    0
1.0
   15.365233     0.000000     0.000000
    0.000000    13.594887     0.000000
    0.000000     0.000000    14.932832
   W   B
   9  10
Direct
    0.473503     0.423392     0.596774 
    0.509854     0.569171     0.485945 
    0.379472     0.542702     0.362027 
    0.307543     0.431384     0.582923 
    0.373461     0.586001     0.609994 
    0.379729     0.678529     0.467139 
    0.607624     0.395005     0.440806 
    0.657318     0.491002     0.589237 
    0.441371     0.381837     0.438586 
    0.531886     0.568107     0.633878 
    0.307140     0.444156     0.440531 
    0.300519     0.553741     0.487490 
    0.523528     0.489700     0.352752 
    0.620669     0.540861     0.383931 
    0.604221     0.345803     0.581694 
    0.651872     0.613510     0.487321 
    0.526711     0.294514     0.522934 
    0.701078     0.512895     0.454979 
    0.602500     0.637692     0.581060 
EA11204 13.341 13.289 12.849 90.00 90.00 90.00 Sym.group:    0
1.0
   13.340998     0.000000     0.000000
    0.000000    13.289412     0.000000
    0.000000     0.000000    12.849375
   W   B
   7   6
Direct
    0.610518     0.589964     0.409220 
    0.331336     0.569454     0.495743 
    0.501599     0.327712     0.485261 
    0.559022     0.425863     0.633107 
    0.437011     0.564739     0.651628 
    0.360413     0.401687     0.589966 
    0.368550     0.424973     0.395014 
    0.574812     0.584391     0.574094 
    0.676185     0.518898     0.542387 
    0.614684     0.436841     0.468461 
    0.454289     0.565365     0.383934 
    0.528654     0.456235     0.372876 
    0.482924     0.633877     0.498311 
EA11556 13.691 13.320 12.963 90.00 90.00 90.00 Sym.group:    0
1.0
   13.691046     0.000000     0.000000
    0.000000    13.319608     0.000000
    0.000000     0.000000    12.962825
   W   B
   7   6
Direct
    0.376465     0.580851     0.425067 
    0.641919     0.604466     0.529373 
    0.541497     0.342678     0.441953 
    0.458433     0.384525     0.603884 
    0.538862     0.536479     0.668430 
    0.653063     0.419344     0.574421 
    0.644299     0.487496     0.391957 
    0.406914     0.543815     0.585650 
    0.328787     0.465827     0.529203 
    0.408403     0.421613     0.443912 
    0.530191     0.600347     0.408969 
    0.486603     0.483439     0.364186 
    0.484562     0.629117     0.532994 
EA11904 13.585 13.232 12.430 90.00 90.00 90.00 Sym.group:    0
1.0
   13.584845     0.000000     0.000000
    0.000000    13.231893     0.000000
    0.000000     0.000000    12.430444
   W   B
   6   7
Direct
    0.604883     0.626146     0.431396 
    0.634150     0.557598     0.608515 
    0.468656     0.647595     0.562668 
    0.420112     0.357417     0.573842 
    0.380377     0.431986     0.408716 
    0.670182     0.447498     0.453881 
    0.536413     0.480564     0.370079 
    0.572803     0.409044     0.580177 
    0.376125     0.508209     0.569138 
    0.356390     0.580875     0.461318 
    0.460707     0.580681     0.394866 
    0.529926     0.372922     0.452357 
    0.489277     0.499466     0.633050 
EA12281 13.511 12.708 13.226 90.00 90.00 90.00 Sym.group:    0
1.0
   13.511328     0.000000     0.000000
    0.000000    12.708128     0.000000
    0.000000     0.000000    13.225682
   W   B
   6   6
Direct
    0.338875     0.496649     0.444296 
    0.547776     0.667132     0.546081 
    0.556154     0.352320     0.579390 
    0.658734     0.510112     0.544305 
    0.600420     0.392730     0.404966 
    0.522688     0.526439     0.669053 
    0.413762     0.577770     0.560724 
    0.451174     0.381322     0.458955 
    0.571971     0.562687     0.415296 
    0.448977     0.609036     0.434143 
    0.472864     0.483544     0.369339 
    0.416605     0.440259     0.573451 
EA12337 14.167 14.392 13.499 90.00 90.00 90.00 Sym.group:    0
1.0
   14.166697     0.000000     0.000000
    0.000000    14.391522     0.000000
    0.000000     0.000000    13.499281
   W   B
  10   7
Direct
    0.564909     0.656101     0.388764 
    0.662785     0.514820     0.391911 
    0.509255     0.456198     0.328685 
    0.455316     0.313573     0.510012 
    0.610721     0.350988     0.443154 
    0.438688     0.665707     0.526200 
    0.633558     0.614768     0.547467 
    0.311603     0.543553     0.452996 
    0.491266     0.492218     0.508200 
    0.345413     0.551767     0.624960 
    0.656117     0.458938     0.551015 
    0.378078     0.408656     0.419591 
    0.431614     0.590485     0.376830 
    0.504807     0.582484     0.644997 
    0.572079     0.383143     0.597080 
    0.350462     0.422480     0.543866 
    0.583329     0.494122     0.644274 
EA12643 13.788 14.180 13.889 90.00 90.00 90.00 Sym.group:    0
1.0
   13.788327     0.000000     0.000000
    0.000000    14.180043     0.000000
    0.000000     0.000000    13.888643
   W   B
  10   8
Direct
    0.518882     0.535085     0.324141 
    0.593517     0.663793     0.429307 
    0.669888     0.595314     0.575068 
    0.496475     0.661409     0.587646 
    0.322654     0.606454     0.524551 
    0.596757     0.475192     0.670185 
    0.432120     0.377898     0.641242 
    0.587551     0.381122     0.396831 
    0.321711     0.427763     0.504774 
    0.497517     0.507472     0.513550 
    0.650662     0.520660     0.429781 
    0.435964     0.633313     0.421205 
    0.376248     0.529573     0.394359 
    0.567961     0.363219     0.556667 
    0.461244     0.346649     0.486340 
    0.380965     0.518227     0.631522 
    0.658585     0.441309     0.526252 
    0.431300     0.415547     0.386576 
EA12976 14.131 14.103 14.106 90.00 90.00 90.00 Sym.group:    0
1.0
   14.130719     0.000000     0.000000
    0.000000    14.102796     0.000000
    0.000000     0.000000    14.105771
   W   B
  10  10
Direct
    0.546773     0.330563     0.425908 
    0.471028     0.467751     0.319766 
    0.425516     0.303135     0.548443 
    0.333339     0.614480     0.526110 
    0.313414     0.434970     0.554172 
    0.619232     0.621306     0.515357 
    0.400976     0.544112     0.667596 
    0.636998     0.478430     0.643362 
    0.490017     0.492290     0.509817 
    0.642898     0.478766     0.381577 
    0.344893     0.497046     0.414337 
    0.391292     0.381775     0.421679 
    0.410971     0.593778     0.388348 
    0.545942     0.597023     0.649484 
    0.472999     0.654746     0.579699 
    0.474682     0.662800     0.461594 
    0.567190     0.361507     0.579847 
    0.662092     0.392104     0.512566 
    0.714597     0.498841     0.518958 
    0.535152     0.594578     0.381381 
EA13587 13.249 13.075 12.908 90.00 90.00 90.00 Sym.group:    0
1.0
   13.249014     0.000000     0.000000
    0.000000    13.075387     0.000000
    0.000000     0.000000    12.907922
   W   B
   6   7
Direct
    0.564605     0.443568     0.639703 
    0.604806     0.561639     0.370927 
    0.509174     0.408620     0.364108 
    0.640172     0.585780     0.560154 
    0.340174     0.449508     0.443412 
    0.351895     0.614162     0.517177 
    0.505953     0.639745     0.480752 
    0.565211     0.336454     0.506189 
    0.451108     0.379334     0.535233 
    0.442664     0.567189     0.389583 
    0.485796     0.590864     0.609567 
    0.408352     0.482582     0.600728 
    0.630093     0.440556     0.482466 
EA13718 15.120 13.553 13.195 90.00 90.00 90.00 Sym.group:    0
1.0
   15.119720     0.000000     0.000000
    0.000000    13.552818     0.000000
    0.000000     0.000000    13.194996
   W   B
  10   6
Direct
    0.690388     0.547502     0.492635 
    0.457387     0.579851     0.638573 
    0.562214     0.587552     0.374050 
    0.319631     0.596917     0.502142 
    0.487812     0.428218     0.345511 
    0.501651     0.401675     0.635531 
    0.341654     0.451314     0.605347 
    0.456526     0.688682     0.477160 
    0.330775     0.438106     0.407897 
    0.660584     0.396604     0.574856 
    0.596019     0.526625     0.623434 
    0.416920     0.562470     0.384418 
    0.436176     0.374640     0.493704 
    0.620669     0.435360     0.418219 
    0.547673     0.362382     0.481693 
    0.573921     0.622100     0.544832 
EA14329 13.074 12.647 13.136 90.00 90.00 90.00 Sym.group:    0
1.0
   13.073627     0.000000     0.000000
    0.000000    12.646625     0.000000
    0.000000     0.000000    13.135510
   W   B
   6   6
Direct
    0.374715     0.465958     0.409269 
    0.403783     0.472370     0.622944 
    0.670238     0.451275     0.477844 
    0.544141     0.511792     0.342581 
    0.622814     0.630337     0.479435 
    0.583779     0.523297     0.638772 
    0.525441     0.374699     0.434261 
    0.365721     0.587813     0.515600 
    0.426790     0.355105     0.514452 
    0.478310     0.626258     0.565498 
    0.543452     0.379762     0.564356 
    0.460815     0.621332     0.434987 
EA14354 14.248 13.643 13.666 90.00 90.00 90.00 Sym.group:    0
1.0
   14.247677     0.000000     0.000000
    0.000000    13.643338     0.000000
    0.000000     0.000000    13.666375
   W   B
   7  10
Direct
    0.578813     0.353913     0.558436 
    0.412805     0.462023     0.352805 
    0.314513     0.399786     0.488456 
    0.433240     0.643034     0.571315 
    0.569071     0.546793     0.343318 
    0.508028     0.504240     0.667092 
    0.672117     0.489506     0.607476 
    0.641020     0.455677     0.454882 
    0.545772     0.401398     0.405544 
    0.453004     0.354828     0.466233 
    0.432596     0.391196     0.588200 
    0.373655     0.501175     0.589306 
    0.354056     0.549670     0.474013 
    0.444440     0.605132     0.414935 
    0.582395     0.613829     0.578210 
    0.640807     0.578330     0.474718 
    0.543666     0.649472     0.465063 
EA14721 14.183 13.508 13.866 90.00 90.00 90.00 Sym.group:    0
1.0
   14.183102     0.000000     0.000000
    0.000000    13.507984     0.000000
    0.000000     0.000000    13.865728
   W   B
   8   8
Direct
    0.622854     0.547031     0.356014 
    0.496208     0.655517     0.421745 
    0.401305     0.378376     0.416736 
    0.378447     0.635021     0.560739 
    0.310466     0.463175     0.543831 
    0.442115     0.513480     0.663759 
    0.655403     0.623832     0.505655 
    0.662148     0.434816     0.495543 
    0.526579     0.347077     0.495506 
    0.550161     0.411788     0.393315 
    0.383730     0.539769     0.430474 
    0.433652     0.379041     0.570920 
    0.474024     0.507915     0.357953 
    0.544402     0.413246     0.596868 
    0.592888     0.521900     0.607474 
    0.525619     0.628018     0.583467 
EA15281 13.496 13.338 12.785 90.00 90.00 90.00 Sym.group:    0
1.0
   13.496110     0.000000     0.000000
    0.000000    13.338018     0.000000
    0.000000     0.000000    12.785495
   W   B
   6   7
Direct
    0.632441     0.597746     0.564536 
    0.536856     0.638434     0.410515 
    0.526122     0.359767     0.410624 
    0.356572     0.505147     0.579447 
    0.623961     0.393306     0.564775 
    0.517617     0.499104     0.677391 
    0.532324     0.499003     0.339689 
    0.394553     0.618231     0.476245 
    0.468008     0.380984     0.572547 
    0.385516     0.389279     0.475995 
    0.477983     0.620626     0.572382 
    0.427131     0.502417     0.421803 
    0.620915     0.495957     0.434053 
EA15439 13.822 13.652 13.304 90.00 90.00 90.00 Sym.group:    0
1.0
   13.821565     0.000000     0.000000
    0.000000    13.652074     0.000000
    0.000000     0.000000    13.303510
   W   B
   9   7
Direct
    0.691801     0.495702     0.561932 
    0.584143     0.342812     0.525684 
    0.420119     0.542350     0.658810 
    0.416236     0.325017     0.465993 
    0.378293     0.487073     0.371143 
    0.667064     0.456446     0.393673 
    0.612190     0.631043     0.456439 
    0.446418     0.653121     0.383156 
    0.327689     0.602050     0.516198 
    0.476609     0.642932     0.543870 
    0.564270     0.580932     0.604066 
    0.451723     0.398511     0.602851 
    0.555665     0.457493     0.633504 
    0.530377     0.527104     0.354364 
    0.518435     0.406724     0.387937 
    0.358970     0.450691     0.540379 
EA15693 14.773 14.455 13.263 90.00 90.00 90.00 Sym.group:    0
1.0
   14.773362     0.000000     0.000000
    0.000000    14.455178     0.000000
    0.000000     0.000000    13.263058
   W   B
   9  10
Direct
    0.500906     0.495752     0.482676 
    0.600713     0.648976     0.549785 
    0.636182     0.371337     0.533919 
    0.474538     0.408327     0.655800 
    0.494870     0.296355     0.498054 
    0.315106     0.488441     0.429879 
    0.421814     0.376571     0.357546 
    0.463642     0.586312     0.668288 
    0.610053     0.510521     0.665026 
    0.516168     0.635032     0.402231 
    0.459614     0.658390     0.510737 
    0.639944     0.466817     0.399355 
    0.615818     0.578692     0.401850 
    0.665404     0.524475     0.504961 
    0.380686     0.389774     0.524705 
    0.370864     0.592135     0.533846 
    0.360640     0.489395     0.591969 
    0.567119     0.380476     0.383946 
    0.405919     0.602220     0.405430 
EA16350 12.162 12.294 11.771 90.00 90.00 90.00 Sym.group:    0
1.0
   12.161557     0.000000     0.000000
    0.000000    12.293988     0.000000
    0.000000     0.000000    11.770631
   W   B
   6   6
Direct
    0.471669     0.665610     0.588193 
    0.376553     0.610610     0.413907 
    0.334357     0.515775     0.586641 
    0.367728     0.400819     0.412969 
    0.454378     0.341642     0.585931 
    0.563925     0.344474     0.412284 
    0.607713     0.429789     0.561632 
    0.633180     0.499692     0.435673 
    0.612961     0.569649     0.564478 
    0.553769     0.615407     0.438413 
    0.511998     0.503421     0.359074 
    0.511770     0.503111     0.640807 
EA16436 14.366 13.955 12.841 90.00 90.00 90.00 Sym.group:    0
1.0
   14.365666     0.000000     0.000000
    0.000000    13.955495     0.000000
    0.000000     0.000000    12.841254
   W   B
  10   6
Direct
    0.497257     0.502260     0.546638 
    0.491589     0.323081     0.579971 
    0.349304     0.423015     0.621415 
    0.425908     0.495807     0.348688 
    0.632948     0.632992     0.582670 
    0.560082     0.630856     0.411354 
    0.649386     0.448859     0.631858 
    0.299500     0.510808     0.476989 
    0.650595     0.366721     0.478983 
    0.710158     0.537477     0.456230 
    0.503465     0.380790     0.421561 
    0.375000     0.605566     0.583710 
    0.474490     0.663895     0.556252 
    0.389942     0.381893     0.464024 
    0.579746     0.475490     0.383987 
    0.410630     0.620493     0.455670 
EA16717 14.868 14.486 12.853 90.00 90.00 90.00 Sym.group:    0
1.0
   14.867633     0.000000     0.000000
    0.000000    14.485774     0.000000
    0.000000     0.000000    12.853471
   W   B
   9  10
Direct
    0.493320     0.506403     0.476606 
    0.377346     0.672854     0.521730 
    0.369986     0.397280     0.578966 
    0.537783     0.400502     0.661887 
    0.659917     0.463291     0.402637 
    0.424920     0.541905     0.654864 
    0.541496     0.678392     0.540681 
    0.475119     0.670479     0.370682 
    0.687509     0.445922     0.590343 
    0.354171     0.458411     0.412835 
    0.364270     0.572104     0.393346 
    0.598730     0.359135     0.510604 
    0.639656     0.571069     0.519825 
    0.428513     0.374845     0.413418 
    0.605575     0.604064     0.398189 
    0.542602     0.373505     0.396034 
    0.490445     0.335900     0.514632 
    0.575864     0.544611     0.628385 
    0.332778     0.529325     0.514334 
EA17137 14.205 13.162 12.818 90.00 90.00 90.00 Sym.group:    0
1.0
   14.204547     0.000000     0.000000
    0.000000    13.161517     0.000000
    0.000000     0.000000    12.817661
   W   B
   8   8
Direct
    0.332602     0.553473     0.586917 
    0.437600     0.415760     0.648721 
    0.596014     0.646508     0.550655 
    0.593300     0.344049     0.578858 
    0.694274     0.494085     0.533425 
    0.600686     0.388852     0.399362 
    0.329761     0.400036     0.488650 
    0.368260     0.564719     0.393185 
    0.513126     0.631487     0.410918 
    0.443738     0.641793     0.517029 
    0.572850     0.502538     0.633815 
    0.612744     0.556066     0.410059 
    0.477573     0.578235     0.632052 
    0.512636     0.517647     0.351471 
    0.444705     0.421305     0.378723 
    0.470132     0.343446     0.486160 
EA17399 14.976 14.041 13.067 90.00 90.00 90.00 Sym.group:    0
1.0
   14.975574     0.000000     0.000000
    0.000000    14.040673     0.000000
    0.000000     0.000000    13.067159
   W   B
   9  10
Direct
    0.510148     0.500484     0.477823 
    0.692139     0.572263     0.559755 
    0.542032     0.331694     0.579296 
    0.393464     0.435104     0.639563 
    0.366571     0.564583     0.378628 
    0.559917     0.490460     0.661685 
    0.557638     0.673612     0.560290 
    0.629143     0.633946     0.401327 
    0.305908     0.564707     0.551485 
    0.607408     0.379565     0.429685 
    0.662696     0.484369     0.422898 
    0.343310     0.437266     0.479234 
    0.420055     0.648703     0.511644 
    0.503213     0.351227     0.410228 
    0.483891     0.655583     0.403904 
    0.411268     0.416561     0.377422 
    0.418591     0.353076     0.496505 
    0.441234     0.583180     0.619549 
    0.651373     0.423613     0.539080 
EA18048 13.712 12.664 13.081 90.00 90.00 90.00 Sym.group:    0
1.0
   13.712144     0.000000     0.000000
    0.000000    12.663745     0.000000
    0.000000     0.000000    13.081148
   W   B
   6   6
Direct
    0.336860     0.505079     0.515471 
    0.440740     0.659467     0.540405 
    0.602360     0.598160     0.594739 
    0.597662     0.405567     0.602304 
    0.433586     0.347530     0.552001 
    0.452220     0.508424     0.667555 
    0.548282     0.387024     0.446180 
    0.538403     0.493198     0.367193 
    0.435872     0.430595     0.408488 
    0.439166     0.565097     0.403448 
    0.553695     0.605008     0.437699 
    0.621156     0.494853     0.464518 
EA18194 15.143 14.048 12.888 90.00 90.00 90.00 Sym.group:    0
1.0
   15.143221     0.000000     0.000000
    0.000000    14.048066     0.000000
    0.000000     0.000000    12.887585
   W   B
  10   6
Direct
    0.496522     0.498091     0.547023 
    0.491975     0.676094     0.577179 
    0.356447     0.578648     0.617239 
    0.432641     0.504325     0.347632 
    0.623342     0.367247     0.587428 
    0.558285     0.369308     0.413598 
    0.640075     0.550931     0.635612 
    0.310642     0.490798     0.472654 
    0.643742     0.631490     0.482351 
    0.699184     0.460519     0.463516 
    0.505217     0.618091     0.421227 
    0.378384     0.394687     0.579096 
    0.473369     0.337269     0.555240 
    0.396693     0.617822     0.460790 
    0.577913     0.523628     0.386113 
    0.415570     0.381052     0.453300 
EA18485 14.729 14.205 12.409 90.00 90.00 90.00 Sym.group:    0
1.0
   14.728610     0.000000     0.000000
    0.000000    14.204585     0.000000
    0.000000     0.000000    12.409042
   W   B
  10   6
Direct
    0.505363     0.490687     0.450704 
    0.477118     0.654947     0.573834 
    0.483141     0.373691     0.619012 
    0.574768     0.667578     0.410917 
    0.324540     0.425804     0.543958 
    0.649872     0.437637     0.579310 
    0.400126     0.350669     0.405893 
    0.691382     0.541799     0.429407 
    0.556834     0.301383     0.467224 
    0.415118     0.642806     0.375979 
    0.355007     0.505994     0.393915 
    0.632005     0.410299     0.402540 
    0.609730     0.587687     0.565709 
    0.421789     0.518565     0.625264 
    0.366906     0.568405     0.514868 
    0.536302     0.522047     0.641467 
EA19087 13.310 13.174 12.999 90.00 90.00 90.00 Sym.group:    0
1.0
   13.310017     0.000000     0.000000
    0.000000    13.173855     0.000000
    0.000000     0.000000    12.999288
   W   B
   6   6
Direct
    0.590608     0.499878     0.644884 
    0.627755     0.389381     0.499097 
    0.564527     0.470823     0.343312 
    0.489167     0.633319     0.393096 
    0.505953     0.650624     0.580102 
    0.652403     0.578982     0.477236 
    0.387980     0.565902     0.504152 
    0.378910     0.437323     0.517293 
    0.431508     0.507989     0.612846 
    0.484512     0.395069     0.578007 
    0.473265     0.382421     0.447915 
    0.413412     0.488289     0.402060 
EA19139 14.605 14.101 13.413 90.00 90.00 90.00 Sym.group:    0
1.0
   14.604572     0.000000     0.000000
    0.000000    14.100793     0.000000
    0.000000     0.000000    13.412776
   W   B
  10   7
Direct
    0.533755     0.638903     0.629727 
    0.304105     0.510279     0.540392 
    0.396686     0.657171     0.510170 
    0.574279     0.359134     0.416300 
    0.398345     0.371921     0.440685 
    0.508513     0.314253     0.573859 
    0.502321     0.502965     0.521897 
    0.629514     0.634377     0.469814 
    0.489219     0.630649     0.358209 
    0.388220     0.544548     0.680998 
    0.386142     0.525783     0.399198 
    0.395973     0.404681     0.608790 
    0.624367     0.409791     0.568952 
    0.480955     0.472146     0.346572 
    0.655622     0.482714     0.470933 
    0.587706     0.514161     0.372824 
    0.644276     0.526526     0.590679 
EA19555 14.807 13.823 13.784 90.00 90.00 90.00 Sym.group:    0
1.0
   14.806999     0.000000     0.000000
    0.000000    13.823048     0.000000
    0.000000     0.000000    13.783632
   W   B
  10   6
Direct
    0.513489     0.513011     0.463753 
    0.545195     0.376242     0.593516 
    0.413216     0.629479     0.585624 
    0.629385     0.641821     0.518447 
    0.325935     0.510220     0.508545 
    0.402151     0.462888     0.684888 
    0.685382     0.525092     0.399071 
    0.394057     0.356200     0.536856 
    0.543952     0.548691     0.656995 
    0.699032     0.469454     0.552367 
    0.617134     0.390008     0.447019 
    0.422035     0.408742     0.381411 
    0.408668     0.620827     0.415957 
    0.392063     0.519501     0.361538 
    0.510403     0.350635     0.429945 
    0.497907     0.677188     0.464065 
EA19864 14.643 14.442 12.534 90.00 90.00 90.00 Sym.group:    0
1.0
   14.643080     0.000000     0.000000
    0.000000    14.441653     0.000000
    0.000000     0.000000    12.534449
   W   B
  10   6
Direct
    0.497670     0.491479     0.451186 
    0.491230     0.651083     0.585156 
    0.478785     0.371884     0.609458 
    0.579132     0.663244     0.428307 
    0.320184     0.433901     0.537733 
    0.650812     0.427110     0.572249 
    0.388404     0.353776     0.400559 
    0.692987     0.536059     0.428875 
    0.549981     0.306340     0.458037 
    0.338332     0.528346     0.368038 
    0.624514     0.414547     0.394151 
    0.618567     0.575552     0.569091 
    0.423401     0.515993     0.620598 
    0.372334     0.581521     0.519971 
    0.541478     0.513670     0.640172 
    0.432189     0.635493     0.416421 
EA20238 14.324 14.396 12.887 90.00 90.00 90.00 Sym.group:    0
1.0
   14.323509     0.000000     0.000000
    0.000000    14.396342     0.000000
    0.000000     0.000000    12.886565
   W   B
  10   6
Direct
    0.542182     0.645978     0.521943 
    0.491803     0.405220     0.623784 
    0.646312     0.408070     0.548630 
    0.335589     0.481133     0.581355 
    0.374859     0.617998     0.418306 
    0.488173     0.478801     0.428539 
    0.650254     0.537886     0.395187 
    0.357484     0.345046     0.479885 
    0.524836     0.646298     0.334649 
    0.530764     0.296313     0.468105 
    0.667133     0.560725     0.554663 
    0.469483     0.554936     0.639407 
    0.332105     0.473765     0.410728 
    0.606619     0.392502     0.381666 
    0.398660     0.626997     0.574741 
    0.583742     0.528331     0.638413 
EA20683 14.596 13.766 12.631 90.00 90.00 90.00 Sym.group:    0
1.0
   14.596109     0.000000     0.000000
    0.000000    13.766317     0.000000
    0.000000     0.000000    12.630900
   W   B
   7   8
Direct
    0.499062     0.502982     0.451968 
    0.321069     0.466737     0.565562 
    0.474415     0.527563     0.646560 
    0.605449     0.398064     0.584156 
    0.687348     0.485412     0.450924 
    0.328682     0.512543     0.388609 
    0.382655     0.638214     0.509925 
    0.532558     0.648037     0.553768 
    0.392887     0.377090     0.450479 
    0.449511     0.381288     0.571741 
    0.599506     0.374925     0.412204 
    0.608157     0.619568     0.448983 
    0.610107     0.562614     0.574562 
    0.504607     0.335078     0.465949 
    0.503988     0.669886     0.424609 
EA20902 15.238 13.603 13.117 90.00 90.00 90.00 Sym.group:    0
1.0
   15.237985     0.000000     0.000000
    0.000000    13.602899     0.000000
    0.000000     0.000000    13.116989
   W   B
  10   6
Direct
    0.496177     0.514789     0.438435 
    0.281575     0.452172     0.526788 
    0.352914     0.449715     0.362356 
    0.340325     0.601865     0.452444 
    0.652736     0.475716     0.358976 
    0.611183     0.366870     0.529637 
    0.426414     0.349509     0.506375 
    0.416722     0.509911     0.624919 
    0.670201     0.534856     0.527024 
    0.545605     0.335375     0.369028 
    0.450060     0.653246     0.548863 
    0.542108     0.669537     0.484355 
    0.537538     0.598243     0.595173 
    0.607840     0.618496     0.400009 
    0.505406     0.382884     0.641741 
    0.563200     0.486818     0.633878 
EA21265 15.181 13.923 13.169 90.00 90.00 90.00 Sym.group:    0
1.0
   15.180888     0.000000     0.000000
    0.000000    13.922676     0.000000
    0.000000     0.000000    13.168564
   W   B
  10   6
Direct
    0.498510     0.508905     0.435011 
    0.723471     0.471594     0.512096 
    0.639610     0.445830     0.355345 
    0.650854     0.603225     0.424025 
    0.338529     0.452041     0.378986 
    0.401420     0.367422     0.553176 
    0.584286     0.360704     0.515738 
    0.590365     0.528962     0.613873 
    0.332514     0.530397     0.538094 
    0.459792     0.324428     0.392629 
    0.542343     0.653173     0.522274 
    0.438073     0.655571     0.477266 
    0.462604     0.602645     0.590334 
    0.376812     0.597807     0.395635 
    0.512864     0.401073     0.652399 
    0.447953     0.496225     0.643123 
EA21571 13.609 13.509 11.818 90.00 90.00 90.00 Sym.group:    0
1.0
   13.609333     0.000000     0.000000
    0.000000    13.508994     0.000000
    0.000000     0.000000    11.817731
   W   B
   9   7
Direct
    0.501453     0.500882     0.395893 
    0.389539     0.503230     0.579007 
    0.562937     0.399999     0.579909 
    0.555915     0.602538     0.588104 
    0.385281     0.345908     0.424016 
    0.430883     0.676460     0.425463 
    0.684620     0.468581     0.427097 
    0.318617     0.549813     0.381911 
    0.559407     0.319229     0.382066 
    0.617735     0.616556     0.419713 
    0.411445     0.343763     0.606127 
    0.407975     0.662393     0.607319 
    0.684494     0.506104     0.604011 
    0.477510     0.265792     0.530333 
    0.704079     0.600347     0.517117 
    0.308114     0.638403     0.531912 
EA21938 13.853 14.053 12.925 90.00 90.00 90.00 Sym.group:    0
1.0
   13.853287     0.000000     0.000000
    0.000000    14.052634     0.000000
    0.000000     0.000000    12.924818
   W   B
  10   6
Direct
    0.586048     0.334562     0.500711 
    0.495297     0.665409     0.590734 
    0.659243     0.584702     0.607172 
    0.502549     0.495434     0.530015 
    0.381231     0.365807     0.433111 
    0.425988     0.523112     0.342984 
    0.635243     0.608287     0.428603 
    0.592609     0.446202     0.348093 
    0.731640     0.457050     0.460075 
    0.326379     0.408890     0.600145 
    0.457242     0.339609     0.585158 
    0.382894     0.613117     0.477708 
    0.361367     0.561304     0.594082 
    0.647671     0.436074     0.597820 
    0.330525     0.508293     0.475530 
    0.484073     0.652148     0.428063 
EA22334 13.025 13.261 14.078 90.00 90.00 90.00 Sym.group:    0
1.0
   13.024569     0.000000     0.000000
    0.000000    13.261295     0.000000
    0.000000     0.000000    14.078336
   W   B
   7   8
Direct
    0.430978     0.388594     0.388362 
    0.356336     0.564082     0.370447 
    0.525957     0.532090     0.321747 
    0.646440     0.575576     0.472653 
    0.425722     0.522562     0.645048 
    0.522876     0.666284     0.584929 
    0.625671     0.534385     0.647212 
    0.357187     0.478847     0.500854 
    0.386768     0.604733     0.515639 
    0.489569     0.636923     0.435251 
    0.635228     0.425546     0.534312 
    0.430806     0.392030     0.547820 
    0.591543     0.427066     0.421004 
    0.536151     0.404600     0.614097 
    0.538767     0.346683     0.500625 
EA22707 14.272 13.590 12.487 90.00 90.00 90.00 Sym.group:    0
1.0
   14.272075     0.000000     0.000000
    0.000000    13.590137     0.000000
    0.000000     0.000000    12.487100
   W   B
   6   9
Direct
    0.497055     0.664990     0.553252 
    0.348291     0.559308     0.470193 
    0.597171     0.580574     0.410948 
    0.336046     0.422384     0.610271 
    0.528212     0.485144     0.586703 
    0.394944     0.385339     0.434692 
    0.400915     0.566210     0.633039 
    0.459392     0.521446     0.351638 
    0.454333     0.637947     0.388158 
    0.636896     0.613239     0.581905 
    0.456248     0.339469     0.588537 
    0.535437     0.350543     0.491916 
    0.634064     0.427799     0.468803 
    0.680445     0.511910     0.541828 
    0.540552     0.433698     0.388118 
EA23054 14.398 13.304 12.811 90.00 90.00 90.00 Sym.group:    0
1.0
   14.398191     0.000000     0.000000
    0.000000    13.304491     0.000000
    0.000000     0.000000    12.811370
   W   B
   6   9
Direct
    0.556435     0.652080     0.563113 
    0.401677     0.630715     0.458765 
    0.629126     0.521579     0.425869 
    0.314042     0.507750     0.591091 
    0.509862     0.474363     0.588106 
    0.367233     0.454568     0.421287 
    0.424086     0.607730     0.629564 
    0.490694     0.536308     0.348004 
    0.535780     0.642897     0.393017 
    0.656233     0.539732     0.596631 
    0.384062     0.372757     0.569128 
    0.468450     0.346985     0.484709 
    0.587344     0.370120     0.481338 
    0.657014     0.424366     0.562128 
    0.517962     0.418051     0.387251 
EA23376 14.155 13.664 12.754 90.00 90.00 90.00 Sym.group:    0
1.0
   14.155285     0.000000     0.000000
    0.000000    13.663878     0.000000
    0.000000     0.000000    12.753883
   W   B
   7   8
Direct
    0.557159     0.345997     0.562788 
    0.399870     0.372931     0.462654 
    0.634052     0.473346     0.429841 
    0.311242     0.481714     0.593892 
    0.506270     0.525149     0.579881 
    0.371268     0.545440     0.413707 
    0.458882     0.694278     0.470844 
    0.426696     0.394693     0.633304 
    0.492857     0.458428     0.349071 
    0.538028     0.354444     0.394849 
    0.652383     0.460266     0.602081 
    0.373901     0.616801     0.578202 
    0.594217     0.633648     0.479811 
    0.659125     0.570612     0.562111 
    0.524048     0.572253     0.386965 
EA23557 13.716 13.912 13.929 90.00 90.00 90.00 Sym.group:    0
1.0
   13.716091     0.000000     0.000000
    0.000000    13.911546     0.000000
    0.000000     0.000000    13.929395
   W   B
  10   7
Direct
    0.393146     0.630680     0.457851 
    0.444308     0.414275     0.640693 
    0.660895     0.587532     0.554288 
    0.625726     0.420936     0.646495 
    0.564235     0.679136     0.437494 
    0.547847     0.560921     0.696785 
    0.482414     0.547219     0.327787 
    0.437362     0.355990     0.355790 
    0.535156     0.330461     0.504497 
    0.321572     0.476234     0.382380 
    0.415144     0.564467     0.605853 
    0.352302     0.494401     0.535862 
    0.508257     0.642548     0.573378 
    0.619768     0.537027     0.409780 
    0.571463     0.427609     0.386037 
    0.637822     0.446207     0.490392 
    0.382582     0.384356     0.494635 
EA23908 13.716 13.912 13.929 90.00 90.00 90.00 Sym.group:    0
1.0
   13.716091     0.000000     0.000000
    0.000000    13.911546     0.000000
    0.000000     0.000000    13.929395
   W   B
  10   7
Direct
    0.393146     0.630680     0.457851 
    0.444308     0.414275     0.640693 
    0.660895     0.587532     0.554288 
    0.625726     0.420936     0.646495 
    0.564235     0.679136     0.437494 
    0.547847     0.560921     0.696785 
    0.482414     0.547219     0.327787 
    0.437362     0.355990     0.355790 
    0.535156     0.330461     0.504497 
    0.321572     0.476234     0.382380 
    0.415144     0.564467     0.605853 
    0.352302     0.494401     0.535862 
    0.508257     0.642548     0.573378 
    0.619768     0.537027     0.409780 
    0.571463     0.427609     0.386037 
    0.637822     0.446207     0.490392 
    0.382582     0.384356     0.494635 
EA24257 14.720 14.068 13.168 90.00 90.00 90.00 Sym.group:    0
1.0
   14.720139     0.000000     0.000000
    0.000000    14.068314     0.000000
    0.000000     0.000000    13.167801
   W   B
  10   7
Direct
    0.525086     0.380655     0.627998 
    0.473748     0.655284     0.568792 
    0.342389     0.450684     0.413251 
    0.374746     0.636389     0.413972 
    0.428755     0.313190     0.490680 
    0.318804     0.563710     0.559440 
    0.602355     0.363723     0.468893 
    0.691510     0.535475     0.441921 
    0.554090     0.633556     0.401882 
    0.680196     0.468143     0.604306 
    0.445528     0.517776     0.636503 
    0.554701     0.538308     0.641477 
    0.382958     0.428346     0.576700 
    0.480876     0.405876     0.377244 
    0.569268     0.482717     0.370040 
    0.460004     0.523001     0.350397 
    0.614988     0.603169     0.556502 
EA24577 14.726 14.053 13.073 90.00 90.00 90.00 Sym.group:    0
1.0
   14.726297     0.000000     0.000000
    0.000000    14.052691     0.000000
    0.000000     0.000000    13.072886
   W   B
  10   7
Direct
    0.542579     0.374022     0.381658 
    0.484539     0.645798     0.405728 
    0.330816     0.453727     0.558548 
    0.363742     0.640300     0.550568 
    0.330368     0.557576     0.400974 
    0.596331     0.369073     0.563850 
    0.678622     0.540429     0.583825 
    0.538212     0.641004     0.586805 
    0.688313     0.451602     0.429496 
    0.450620     0.384508     0.670162 
    0.464294     0.503524     0.350390 
    0.574756     0.525269     0.357648 
    0.398124     0.421043     0.415787 
    0.547935     0.497224     0.643652 
    0.439444     0.535425     0.640250 
    0.622941     0.594325     0.447722 
    0.448361     0.365150     0.512937 
EA24935 14.639 14.126 13.804 90.00 90.00 90.00 Sym.group:    0
1.0
   14.639495     0.000000     0.000000
    0.000000    14.125614     0.000000
    0.000000     0.000000    13.803513
   W   B
  10   7
Direct
    0.552865     0.535805     0.662131 
    0.487042     0.647646     0.413294 
    0.328273     0.438245     0.527129 
    0.356984     0.529463     0.361818 
    0.336654     0.617572     0.503007 
    0.594905     0.383507     0.583230 
    0.672533     0.440592     0.416441 
    0.528490     0.493263     0.332085 
    0.694530     0.526732     0.563863 
    0.442334     0.309520     0.530620 
    0.473865     0.626870     0.566214 
    0.583428     0.624924     0.535412 
    0.406437     0.536509     0.613357 
    0.539135     0.378178     0.433858 
    0.429184     0.403089     0.408193 
    0.622610     0.579774     0.430271 
    0.450732     0.428311     0.619078 
EA25266 14.639 14.126 13.804 90.00 90.00 90.00 Sym.group:    0
1.0
   14.639495     0.000000     0.000000
    0.000000    14.125614     0.000000
    0.000000     0.000000    13.803513
   W   B
  10   7
Direct
    0.552865     0.535805     0.662131 
    0.487042     0.647646     0.413294 
    0.328273     0.438245     0.527129 
    0.356984     0.529463     0.361818 
    0.336654     0.617572     0.503007 
    0.594905     0.383507     0.583230 
    0.672533     0.440592     0.416441 
    0.528490     0.493263     0.332085 
    0.694530     0.526732     0.563863 
    0.442334     0.309520     0.530620 
    0.473865     0.626870     0.566214 
    0.583428     0.624924     0.535412 
    0.406437     0.536509     0.613357 
    0.539135     0.378178     0.433858 
    0.429184     0.403089     0.408193 
    0.622610     0.579774     0.430271 
    0.450732     0.428311     0.619078 
EA25760 13.726 14.086 12.785 90.00 90.00 90.00 Sym.group:    0
1.0
   13.726035     0.000000     0.000000
    0.000000    14.086351     0.000000
    0.000000     0.000000    12.784751
   W   B
   7   8
Direct
    0.407960     0.628944     0.447921 
    0.437769     0.373859     0.431517 
    0.517692     0.492083     0.580088 
    0.585130     0.605201     0.413181 
    0.332775     0.493882     0.552858 
    0.700326     0.482340     0.483791 
    0.535157     0.691475     0.581181 
    0.415119     0.608662     0.621075 
    0.471252     0.509805     0.347103 
    0.355957     0.496723     0.384948 
    0.410414     0.371904     0.602422 
    0.601652     0.371156     0.499366 
    0.515419     0.332489     0.576415 
    0.567519     0.450288     0.397830 
    0.645856     0.591189     0.580302 
EA26176 13.593 12.831 13.783 90.00 90.00 90.00 Sym.group:    0
1.0
   13.592930     0.000000     0.000000
    0.000000    12.830716     0.000000
    0.000000     0.000000    13.783263
   W   B
   6   8
Direct
    0.662140     0.514013     0.437509 
    0.597817     0.567807     0.603829 
    0.377080     0.391968     0.528000 
    0.658516     0.393376     0.561424 
    0.530577     0.379244     0.398576 
    0.377009     0.469627     0.372395 
    0.553320     0.633545     0.465188 
    0.519055     0.549514     0.373408 
    0.369034     0.555734     0.507625 
    0.429581     0.623611     0.423983 
    0.517188     0.329847     0.548243 
    0.435289     0.528172     0.606475 
    0.511365     0.428956     0.629861 
    0.462030     0.634588     0.543482 
EA26475 13.976 12.997 13.496 90.00 90.00 90.00 Sym.group:    0
1.0
   13.976406     0.000000     0.000000
    0.000000    12.997362     0.000000
    0.000000     0.000000    13.495580
   W   B
   8   6
Direct
    0.609907     0.601659     0.618446 
    0.341009     0.476711     0.592979 
    0.674462     0.455427     0.543257 
    0.639973     0.607221     0.433650 
    0.480858     0.564107     0.353821 
    0.515853     0.426744     0.641084 
    0.358563     0.620612     0.471375 
    0.409303     0.328816     0.524035 
    0.459219     0.578824     0.598493 
    0.480060     0.407496     0.396187 
    0.594307     0.454107     0.402647 
    0.507080     0.647467     0.499852 
    0.375382     0.462060     0.432721 
    0.554024     0.368747     0.491454 
EA26716 13.804 13.437 12.889 90.00 90.00 90.00 Sym.group:    0
1.0
   13.804056     0.000000     0.000000
    0.000000    13.436777     0.000000
    0.000000     0.000000    12.888884
   W   B
   7   8
Direct
    0.442608     0.620502     0.607937 
    0.400901     0.642272     0.431708 
    0.528421     0.545791     0.337453 
    0.354984     0.361330     0.489842 
    0.519263     0.341343     0.559118 
    0.633436     0.411734     0.411758 
    0.674620     0.448777     0.585396 
    0.478187     0.396175     0.398028 
    0.391212     0.487373     0.390304 
    0.547340     0.637185     0.478616 
    0.642433     0.560139     0.467543 
    0.530535     0.484723     0.633026 
    0.416947     0.458091     0.602410 
    0.595749     0.586551     0.590700 
    0.343364     0.518015     0.516159 
EA27162 13.978 13.110 12.646 90.00 90.00 90.00 Sym.group:    0
1.0
   13.978159     0.000000     0.000000
    0.000000    13.109639     0.000000
    0.000000     0.000000    12.646355
   W   B
   7   7
Direct
    0.596688     0.496907     0.382013 
    0.528323     0.412667     0.632673 
    0.318340     0.498626     0.440785 
    0.386242     0.353424     0.526880 
    0.368795     0.505714     0.647479 
    0.386183     0.648687     0.516612 
    0.528307     0.595448     0.628201 
    0.635581     0.388720     0.501767 
    0.450949     0.430946     0.384508 
    0.528276     0.365421     0.460287 
    0.451393     0.561525     0.380733 
    0.636102     0.609966     0.495822 
    0.656216     0.500490     0.549020 
    0.528605     0.631459     0.453222 
EA27267 13.637 14.172 14.172 90.00 90.00 90.00 Sym.group:    0
1.0
   13.636968     0.000000     0.000000
    0.000000    14.171634     0.000000
    0.000000     0.000000    14.171634
   W   B
   8  10
Direct
    0.353196     0.633697     0.558659 
    0.641899     0.557350     0.372178 
    0.353307     0.366179     0.441377 
    0.641543     0.442529     0.627909 
    0.445858     0.465918     0.587006 
    0.565793     0.614640     0.544000 
    0.445769     0.534524     0.412691 
    0.565666     0.385125     0.456140 
    0.447364     0.311635     0.539338 
    0.550558     0.544100     0.681888 
    0.447329     0.688399     0.460701 
    0.550736     0.455985     0.318210 
    0.455286     0.392860     0.338495 
    0.542854     0.333984     0.600038 
    0.455294     0.607100     0.661467 
    0.542986     0.665997     0.399936 
    0.686187     0.500033     0.500048 
    0.308372     0.499946     0.499919 
EA27739 13.823 12.857 13.387 90.00 90.00 90.00 Sym.group:    0
1.0
   13.822822     0.000000     0.000000
    0.000000    12.857403     0.000000
    0.000000     0.000000    13.387341
   W   B
   6   9
Direct
    0.568536     0.339047     0.513147 
    0.434488     0.564237     0.354698 
    0.639360     0.462301     0.625058 
    0.507848     0.600085     0.633323 
    0.363751     0.632716     0.514184 
    0.314371     0.467116     0.447057 
    0.586641     0.573427     0.401118 
    0.622894     0.593912     0.522878 
    0.556901     0.448641     0.385953 
    0.515890     0.643746     0.476846 
    0.419047     0.375132     0.533123 
    0.385341     0.491656     0.594044 
    0.490424     0.432639     0.622661 
    0.644878     0.475744     0.467157 
    0.449630     0.399603     0.408753 
EA28081 14.206 13.958 12.522 90.00 90.00 90.00 Sym.group:    0
1.0
   14.205883     0.000000     0.000000
    0.000000    13.957804     0.000000
    0.000000     0.000000    12.521803
   W   B
   7   8
Direct
    0.518418     0.679327     0.478398 
    0.383438     0.651787     0.592749 
    0.354346     0.600692     0.410512 
    0.505407     0.533032     0.352447 
    0.372951     0.420215     0.413679 
    0.501016     0.509195     0.562251 
    0.679068     0.479725     0.590815 
    0.636074     0.563244     0.454409 
    0.624997     0.618068     0.577869 
    0.523010     0.379113     0.417129 
    0.382326     0.400892     0.583212 
    0.588900     0.367635     0.539175 
    0.471752     0.345555     0.532054 
    0.620679     0.445184     0.437455 
    0.337618     0.506335     0.557845 
EA28399 14.161 13.133 12.998 90.00 90.00 90.00 Sym.group:    0
1.0
   14.161363     0.000000     0.000000
    0.000000    13.133388     0.000000
    0.000000     0.000000    12.998241
   W   B
   6   9
Direct
    0.530020     0.607600     0.634526 
    0.452896     0.651459     0.472647 
    0.354883     0.565942     0.609071 
    0.523971     0.336220     0.516296 
    0.658294     0.445229     0.456254 
    0.313373     0.514712     0.444979 
    0.660608     0.549454     0.577692 
    0.586298     0.454537     0.604820 
    0.605692     0.603021     0.478943 
    0.470314     0.452664     0.627709 
    0.560837     0.553848     0.374287 
    0.530432     0.428624     0.380457 
    0.444816     0.521558     0.362644 
    0.421398     0.402274     0.416662 
    0.386167     0.412859     0.543013 
EA28687 14.919 13.649 12.785 90.00 90.00 90.00 Sym.group:    0
1.0
   14.919388     0.000000     0.000000
    0.000000    13.648914     0.000000
    0.000000     0.000000    12.784587
   W   B
   6  10
Direct
    0.273244     0.490736     0.548718 
    0.493577     0.361584     0.508938 
    0.493383     0.500890     0.370261 
    0.661189     0.371380     0.528022 
    0.431778     0.517140     0.580268 
    0.590340     0.638564     0.450790 
    0.356499     0.555573     0.431218 
    0.370441     0.432553     0.439405 
    0.597969     0.388883     0.384262 
    0.348731     0.368596     0.551858 
    0.640633     0.496628     0.416031 
    0.570957     0.586766     0.609930 
    0.657693     0.531000     0.543247 
    0.495654     0.665187     0.565677 
    0.441854     0.635425     0.456304 
    0.576057     0.459097     0.615074 
EA29021 14.797 13.636 12.987 90.00 90.00 90.00 Sym.group:    0
1.0
   14.797001     0.000000     0.000000
    0.000000    13.636366     0.000000
    0.000000     0.000000    12.987305
   W   B
  10   6
Direct
    0.637248     0.387595     0.558981 
    0.585602     0.436241     0.379569 
    0.411566     0.359817     0.427864 
    0.316838     0.512771     0.456621 
    0.499532     0.509856     0.547294 
    0.433154     0.682789     0.555720 
    0.567516     0.631923     0.402227 
    0.701770     0.532215     0.464496 
    0.471322     0.320793     0.596377 
    0.597868     0.680266     0.572958 
    0.543178     0.305421     0.457777 
    0.366753     0.429761     0.582436 
    0.452103     0.505988     0.368126 
    0.418060     0.613572     0.409489 
    0.360367     0.555986     0.604149 
    0.637124     0.535006     0.615915 
EA29527 14.564 13.291 13.086 90.00 90.00 90.00 Sym.group:    0
1.0
   14.563961     0.000000     0.000000
    0.000000    13.291010     0.000000
    0.000000     0.000000    13.085550
   W   B
   7   7
Direct
    0.672945     0.433181     0.515810 
    0.432249     0.513577     0.610632 
    0.598381     0.524154     0.649205 
    0.605080     0.483015     0.352043 
    0.542314     0.335685     0.420615 
    0.428597     0.482016     0.395417 
    0.297393     0.433381     0.508404 
    0.530674     0.606988     0.418649 
    0.625892     0.583131     0.489281 
    0.432561     0.626526     0.485850 
    0.329431     0.578730     0.492738 
    0.434470     0.375422     0.527291 
    0.538076     0.392912     0.583189 
    0.531939     0.631284     0.550876 
EA29862 14.538 13.863 12.621 90.00 90.00 90.00 Sym.group:    0
1.0
   14.537907     0.000000     0.000000
    0.000000    13.862546     0.000000
    0.000000     0.000000    12.621295
   W   B
   7   7
Direct
    0.542802     0.443679     0.644345 
    0.587605     0.601610     0.570598 
    0.475804     0.332976     0.495391 
    0.417934     0.594201     0.645786 
    0.372008     0.428040     0.612309 
    0.446087     0.675669     0.483684 
    0.521722     0.432643     0.346988 
    0.630539     0.504381     0.434623 
    0.390681     0.443451     0.435268 
    0.429610     0.548942     0.383585 
    0.542693     0.578510     0.408406 
    0.671304     0.474191     0.554319 
    0.361660     0.547958     0.494777 
    0.609549     0.393749     0.489925 
EA30049 15.049 14.114 12.762 90.00 90.00 90.00 Sym.group:    0
1.0
   15.049454     0.000000     0.000000
    0.000000    14.114183     0.000000
    0.000000     0.000000    12.761726
   W   B
   9   7
Direct
    0.606578     0.373828     0.426110 
    0.441920     0.328922     0.449891 
    0.314493     0.501136     0.552098 
    0.437017     0.393448     0.625462 
    0.466514     0.577915     0.641696 
    0.699631     0.513995     0.488161 
    0.487343     0.508234     0.453697 
    0.601361     0.441439     0.615745 
    0.367948     0.658893     0.516392 
    0.545093     0.302032     0.560024 
    0.356618     0.444052     0.398025 
    0.353815     0.558235     0.399671 
    0.594068     0.619583     0.431515 
    0.597823     0.593879     0.568460 
    0.612967     0.521079     0.361386 
    0.516813     0.663329     0.511665 
EA30380 15.025 14.431 12.618 90.00 90.00 90.00 Sym.group:    0
1.0
   15.024870     0.000000     0.000000
    0.000000    14.430617     0.000000
    0.000000     0.000000    12.618332
   W   B
   9   7
Direct
    0.332039     0.440966     0.542203 
    0.443287     0.564084     0.631061 
    0.479573     0.516256     0.425948 
    0.311546     0.511020     0.371882 
    0.490936     0.343297     0.500002 
    0.579881     0.657584     0.596537 
    0.586618     0.472538     0.600508 
    0.441593     0.692415     0.492721 
    0.664305     0.564702     0.456882 
    0.452802     0.409764     0.638421 
    0.337688     0.587779     0.511848 
    0.386683     0.391528     0.393691 
    0.631614     0.342276     0.507622 
    0.701995     0.424288     0.489036 
    0.555652     0.652523     0.422415 
    0.603787     0.428981     0.419226 
EA30864 13.597 13.151 13.266 90.00 90.00 90.00 Sym.group:    0
1.0
   13.596505     0.000000     0.000000
    0.000000    13.150775     0.000000
    0.000000     0.000000    13.265526
   W   B
   6   8
Direct
    0.450936     0.533776     0.647269 
    0.597792     0.640154     0.579881 
    0.620074     0.469580     0.641815 
    0.463018     0.369104     0.408888 
    0.431746     0.641930     0.484892 
    0.462845     0.537478     0.331170 
    0.356963     0.496195     0.436471 
    0.589401     0.465779     0.392156 
    0.324813     0.536814     0.548469 
    0.652609     0.511372     0.492728 
    0.378581     0.419723     0.539324 
    0.493862     0.393369     0.573221 
    0.596840     0.392386     0.498299 
    0.580519     0.592339     0.425416 
EA31224 14.339 13.531 12.535 90.00 90.00 90.00 Sym.group:    0
1.0
   14.339056     0.000000     0.000000
    0.000000    13.530831     0.000000
    0.000000     0.000000    12.535102
   W   B
   7   7
Direct
    0.528091     0.655572     0.515462 
    0.571904     0.400396     0.405517 
    0.414188     0.337580     0.478009 
    0.542735     0.382589     0.601544 
    0.310624     0.479791     0.474378 
    0.678062     0.568112     0.446410 
    0.541269     0.573296     0.339319 
    0.412751     0.586761     0.430891 
    0.430728     0.467785     0.374722 
    0.668036     0.447103     0.541313 
    0.406735     0.452459     0.600583 
    0.492994     0.533379     0.628337 
    0.603556     0.538563     0.597175 
    0.398328     0.576612     0.566341 
EA31453 14.154 12.891 13.263 90.00 90.00 90.00 Sym.group:    0
1.0
   14.154384     0.000000     0.000000
    0.000000    12.890556     0.000000
    0.000000     0.000000    13.263398
   W   B
   9   6
Direct
    0.537933     0.676510     0.517094 
    0.346715     0.613748     0.540819 
    0.681978     0.586989     0.498033 
    0.665774     0.409995     0.572700 
    0.363959     0.440254     0.596896 
    0.512000     0.331905     0.508428 
    0.470233     0.440790     0.345290 
    0.421994     0.617854     0.375887 
    0.639002     0.404351     0.396479 
    0.471508     0.565912     0.620652 
    0.518312     0.443157     0.625775 
    0.588761     0.550830     0.617131 
    0.569325     0.563099     0.394595 
    0.339672     0.487120     0.436877 
    0.372834     0.367485     0.453344 
EA31885 13.583 13.202 13.206 90.00 90.00 90.00 Sym.group:    0
1.0
   13.582718     0.000000     0.000000
    0.000000    13.202225     0.000000
    0.000000     0.000000    13.206303
   W   B
   6   8
Direct
    0.501350     0.592595     0.629841 
    0.652227     0.393759     0.463536 
    0.501566     0.410858     0.367410 
    0.340110     0.510241     0.409413 
    0.572156     0.672813     0.489234 
    0.334773     0.524310     0.584233 
    0.573761     0.447772     0.600181 
    0.452555     0.426937     0.615226 
    0.644404     0.539290     0.534451 
    0.516066     0.357690     0.525648 
    0.603190     0.532639     0.409027 
    0.486679     0.571968     0.385230 
    0.421339     0.627651     0.485848 
    0.399824     0.391477     0.500722 
EA32067 13.496 13.393 13.767 90.00 90.00 90.00 Sym.group:    0
1.0
   13.496010     0.000000     0.000000
    0.000000    13.392555     0.000000
    0.000000     0.000000    13.766650
   W   B
   8   8
Direct
    0.622249     0.600994     0.559835 
    0.538128     0.333539     0.484723 
    0.363707     0.476605     0.661176 
    0.507506     0.560865     0.304971 
    0.298050     0.503844     0.504288 
    0.419495     0.421897     0.379445 
    0.429189     0.633315     0.579148 
    0.538096     0.689393     0.435639 
    0.648328     0.457393     0.482232 
    0.600695     0.439768     0.589967 
    0.402204     0.389297     0.537848 
    0.517205     0.516345     0.651642 
    0.491352     0.390084     0.623176 
    0.586109     0.439705     0.373457 
    0.405299     0.591202     0.422909 
    0.632387     0.555753     0.409543 
EA32573 13.788 13.609 12.394 90.00 90.00 90.00 Sym.group:    0
1.0
   13.787763     0.000000     0.000000
    0.000000    13.608611     0.000000
    0.000000     0.000000    12.393734
   W   B
   6   8
Direct
    0.572570     0.322718     0.508089 
    0.497870     0.437441     0.364245 
    0.393625     0.325473     0.503581 
    0.582370     0.602664     0.404268 
    0.498313     0.487770     0.564923 
    0.326838     0.462550     0.416634 
    0.653268     0.550002     0.559844 
    0.655957     0.430875     0.583826 
    0.466179     0.647601     0.528250 
    0.426112     0.585271     0.416188 
    0.577766     0.642404     0.568496 
    0.365231     0.577313     0.540725 
    0.641767     0.466946     0.452733 
    0.342135     0.460972     0.588198 
EA32923 13.518 13.307 13.489 90.00 90.00 90.00 Sym.group:    0
1.0
   13.517664     0.000000     0.000000
    0.000000    13.306731     0.000000
    0.000000     0.000000    13.488656
   W   B
   6   8
Direct
    0.423445     0.631828     0.546208 
    0.421916     0.397710     0.436132 
    0.609158     0.626899     0.575204 
    0.611160     0.378568     0.416830 
    0.500445     0.509789     0.656091 
    0.678479     0.538896     0.429225 
    0.626409     0.462339     0.563360 
    0.352084     0.478020     0.569770 
    0.329431     0.530469     0.463159 
    0.534124     0.621201     0.428183 
    0.534012     0.377358     0.558516 
    0.426959     0.560512     0.400117 
    0.418874     0.379113     0.592575 
    0.533506     0.507296     0.364629 
EA33273 14.441 13.177 13.018 90.00 90.00 90.00 Sym.group:    0
1.0
   14.441276     0.000000     0.000000
    0.000000    13.176555     0.000000
    0.000000     0.000000    13.017510
   W   B
   7   7
Direct
    0.329729     0.546559     0.519700 
    0.532691     0.356300     0.582925 
    0.398495     0.475097     0.371642 
    0.439603     0.483716     0.664729 
    0.596233     0.559494     0.625844 
    0.683249     0.429193     0.535293 
    0.581433     0.412772     0.388110 
    0.457174     0.340903     0.440136 
    0.436929     0.623893     0.443036 
    0.544868     0.639143     0.492355 
    0.458086     0.615997     0.571815 
    0.624441     0.556565     0.456147 
    0.525738     0.559240     0.384923 
    0.391330     0.401126     0.523343 
EA33605 14.020 12.932 12.845 90.00 90.00 90.00 Sym.group:    0
1.0
   14.019511     0.000000     0.000000
    0.000000    12.931829     0.000000
    0.000000     0.000000    12.844558
   W   B
   6   8
Direct
    0.438911     0.382586     0.590413 
    0.434266     0.536949     0.377008 
    0.594561     0.457324     0.653940 
    0.606356     0.602040     0.389664 
    0.454598     0.562396     0.644496 
    0.688400     0.488739     0.492132 
    0.589855     0.601844     0.565094 
    0.339294     0.505400     0.519662 
    0.362100     0.404859     0.446072 
    0.572249     0.371766     0.504763 
    0.492883     0.644268     0.498005 
    0.474305     0.378181     0.425444 
    0.378885     0.622674     0.505572 
    0.573334     0.440975     0.387734 
EA33931 14.103 13.946 12.970 90.00 90.00 90.00 Sym.group:    0
1.0
   14.102760     0.000000     0.000000
    0.000000    13.946347     0.000000
    0.000000     0.000000    12.970154
   W   B
   8   6
Direct
    0.540963     0.603734     0.381090 
    0.357909     0.591543     0.425198 
    0.457311     0.649165     0.567188 
    0.328939     0.423329     0.464862 
    0.520876     0.513014     0.665221 
    0.347295     0.518665     0.619274 
    0.605430     0.424359     0.397551 
    0.459240     0.469574     0.319233 
    0.603188     0.599634     0.549266 
    0.669067     0.550712     0.457626 
    0.439809     0.403274     0.582200 
    0.474081     0.371063     0.460346 
    0.640046     0.481982     0.556458 
    0.555846     0.399956     0.554488 
EA34210 14.087 13.583 12.576 90.00 90.00 90.00 Sym.group:    0
1.0
   14.086777     0.000000     0.000000
    0.000000    13.583034     0.000000
    0.000000     0.000000    12.576108
   W   B
   7   8
Direct
    0.582155     0.355128     0.425288 
    0.457121     0.413814     0.589887 
    0.308034     0.429403     0.452815 
    0.465583     0.591653     0.589777 
    0.315704     0.603172     0.480041 
    0.461679     0.498731     0.389088 
    0.598480     0.638256     0.429869 
    0.331595     0.502097     0.609507 
    0.614569     0.388313     0.580111 
    0.433847     0.341787     0.432645 
    0.627538     0.597356     0.582522 
    0.453456     0.657401     0.423938 
    0.587179     0.495061     0.639491 
    0.641756     0.491938     0.504207 
    0.621306     0.495888     0.370813 
EA34670 13.771 12.988 12.954 90.00 90.00 90.00 Sym.group:    0
1.0
   13.770974     0.000000     0.000000
    0.000000    12.988407     0.000000
    0.000000     0.000000    12.954113
   W   B
   6   7
Direct
    0.604465     0.618955     0.544113 
    0.371215     0.388906     0.438976 
    0.349234     0.484637     0.600430 
    0.482599     0.346335     0.584227 
    0.510063     0.523664     0.675091 
    0.560870     0.370601     0.419746 
    0.382840     0.552944     0.454492 
    0.488176     0.620077     0.435494 
    0.574923     0.540916     0.395790 
    0.665740     0.495457     0.462323 
    0.440973     0.611136     0.555521 
    0.465005     0.498444     0.370341 
    0.603896     0.447927     0.563454 
EA34767 14.825 13.676 13.695 90.00 90.00 90.00 Sym.group:    0
1.0
   14.824859     0.000000     0.000000
    0.000000    13.676245     0.000000
    0.000000     0.000000    13.694975
   W   B
   9   8
Direct
    0.542733     0.417197     0.406618 
    0.487737     0.627349     0.446253 
    0.359980     0.591550     0.581913 
    0.693215     0.397738     0.510393 
    0.690319     0.546720     0.618198 
    0.661337     0.561618     0.443824 
    0.425198     0.324139     0.527747 
    0.379862     0.433941     0.655619 
    0.529597     0.491296     0.581700 
    0.393147     0.417633     0.407058 
    0.551715     0.553047     0.327985 
    0.331668     0.449303     0.507495 
    0.362642     0.541604     0.433344 
    0.487872     0.655032     0.604907 
    0.567832     0.328706     0.537319 
    0.593673     0.649388     0.561266 
    0.441473     0.513738     0.348363 
EA35083 13.796 14.237 13.832 90.00 90.00 90.00 Sym.group:    0
1.0
   13.796341     0.000000     0.000000
    0.000000    14.236689     0.000000
    0.000000     0.000000    13.832469
   W   B
  10   7
Direct
    0.649022     0.594871     0.388670 
    0.341614     0.423373     0.380176 
    0.409302     0.650922     0.543493 
    0.502338     0.495611     0.476176 
    0.559999     0.436749     0.659614 
    0.363752     0.365544     0.536505 
    0.400302     0.508270     0.651647 
    0.675711     0.527947     0.547586 
    0.509601     0.343682     0.398587 
    0.490838     0.670739     0.387712 
    0.329140     0.518468     0.509083 
    0.371394     0.571945     0.406083 
    0.572490     0.649597     0.518831 
    0.622290     0.384857     0.516361 
    0.518660     0.332000     0.551901 
    0.543996     0.585602     0.618933 
    0.639550     0.439825     0.408642 
EA35557 14.031 13.183 12.567 90.00 90.00 90.00 Sym.group:    0
1.0
   14.031348     0.000000     0.000000
    0.000000    13.183013     0.000000
    0.000000     0.000000    12.566798
   W   B
   8   7
Direct
    0.599871     0.361194     0.408130 
    0.330802     0.395286     0.509636 
    0.441290     0.428603     0.349859 
    0.608859     0.404755     0.598582 
    0.588089     0.650511     0.476852 
    0.317412     0.554905     0.433178 
    0.530382     0.570312     0.646203 
    0.354223     0.552169     0.626212 
    0.479297     0.356492     0.507293 
    0.566808     0.521744     0.375853 
    0.657518     0.500843     0.460733 
    0.435532     0.637622     0.515935 
    0.672661     0.554234     0.579629 
    0.452235     0.425300     0.620231 
    0.465021     0.586027     0.391677 
EA35984 14.265 13.536 12.136 90.00 90.00 90.00 Sym.group:    0
1.0
   14.265460     0.000000     0.000000
    0.000000    13.536385     0.000000
    0.000000     0.000000    12.136397
   W   B
   6   8
Direct
    0.346695     0.612938     0.565798 
    0.508969     0.548543     0.619240 
    0.506761     0.370725     0.576132 
    0.669406     0.433678     0.627117 
    0.468615     0.520517     0.412742 
    0.634965     0.406272     0.432685 
    0.315092     0.492791     0.465704 
    0.379924     0.456411     0.575426 
    0.462154     0.672215     0.496938 
    0.382111     0.390204     0.453311 
    0.568777     0.633138     0.472589 
    0.653091     0.550744     0.517235 
    0.615200     0.551892     0.383037 
    0.488240     0.359931     0.402046 
EA36257 14.030 13.441 13.147 90.00 90.00 90.00 Sym.group:    0
1.0
   14.030173     0.000000     0.000000
    0.000000    13.440725     0.000000
    0.000000     0.000000    13.147247
   W   B
   6   9
Direct
    0.558883     0.650582     0.555912 
    0.687940     0.548728     0.504901 
    0.462899     0.476293     0.343597 
    0.492681     0.367470     0.609470 
    0.432742     0.537725     0.640728 
    0.333220     0.528770     0.452431 
    0.460580     0.618788     0.421762 
    0.603042     0.459624     0.405991 
    0.571851     0.580325     0.404251 
    0.620873     0.410113     0.533172 
    0.527980     0.369512     0.451170 
    0.399524     0.647679     0.527025 
    0.411283     0.382205     0.465025 
    0.353033     0.421060     0.569025 
    0.583471     0.501127     0.615540 
EA36710 13.624 13.703 12.721 90.00 90.00 90.00 Sym.group:    0
1.0
   13.624041     0.000000     0.000000
    0.000000    13.702946     0.000000
    0.000000     0.000000    12.720729
   W   B
   7   6
Direct
    0.475709     0.415235     0.623515 
    0.617537     0.525717     0.642933 
    0.521398     0.311840     0.464844 
    0.663881     0.385860     0.535166 
    0.413323     0.451064     0.427303 
    0.522145     0.590625     0.370456 
    0.451790     0.590481     0.567202 
    0.650728     0.523075     0.467900 
    0.577781     0.442550     0.395394 
    0.372434     0.606946     0.408787 
    0.304909     0.555878     0.498960 
    0.595736     0.623223     0.510684 
    0.332627     0.477506     0.586856 
