EA33000 15.382 13.764 14.509 90.00 90.00 90.00 Sym.group:    0
1.0
   15.382219     0.000000     0.000000
    0.000000    13.763683     0.000000
    0.000000     0.000000    14.508999
   W   B
   6  16
Direct
    0.422732     0.489797     0.527474 
    0.575265     0.617035     0.575920 
    0.568278     0.443331     0.617601 
    0.542324     0.368943     0.445808 
    0.566900     0.544022     0.402478 
    0.415895     0.607318     0.358705 
    0.469387     0.559322     0.666489 
    0.435294     0.646940     0.591496 
    0.363285     0.644087     0.504294 
    0.434666     0.451151     0.682939 
    0.309091     0.563412     0.450006 
    0.420093     0.356665     0.622258 
    0.473023     0.659256     0.481954 
    0.662728     0.409873     0.392401 
    0.683764     0.512493     0.556486 
    0.666390     0.401592     0.510976 
    0.409565     0.321149     0.520772 
    0.396615     0.367541     0.419429 
    0.342780     0.472226     0.392351 
    0.448452     0.453773     0.360244 
    0.710439     0.503412     0.438060 
    0.683034     0.606663     0.481858 
EA32989 14.726 14.077 14.315 90.00 90.00 90.00 Sym.group:    0
1.0
   14.725792     0.000000     0.000000
    0.000000    14.077337     0.000000
    0.000000     0.000000    14.314641
   W   B
   6  17
Direct
    0.541685     0.662189     0.555444 
    0.427167     0.543827     0.651029 
    0.524124     0.502466     0.482627 
    0.635585     0.400090     0.589187 
    0.354349     0.519345     0.424534 
    0.443285     0.368015     0.589900 
    0.450181     0.649164     0.431204 
    0.533039     0.444094     0.684878 
    0.579845     0.545920     0.652187 
    0.558080     0.641366     0.396900 
    0.649199     0.604497     0.455808 
    0.682472     0.492591     0.468907 
    0.547775     0.333233     0.484701 
    0.657150     0.559195     0.565788 
    0.479406     0.573839     0.343498 
    0.465129     0.456233     0.336335 
    0.392284     0.644147     0.532437 
    0.434871     0.377448     0.429147 
    0.337322     0.378349     0.488570 
    0.320039     0.459127     0.569201 
    0.310736     0.573292     0.561953 
    0.634509     0.390091     0.434907 
    0.541768     0.381481     0.370861 
EA32953 14.259 14.541 14.252 90.00 90.00 90.00 Sym.group:    0
1.0
   14.259493     0.000000     0.000000
    0.000000    14.541455     0.000000
    0.000000     0.000000    14.252481
   W   B
   6  18
Direct
    0.507614     0.348890     0.415481 
    0.431075     0.489832     0.345429 
    0.527491     0.510490     0.509043 
    0.590262     0.667423     0.502795 
    0.346513     0.551212     0.591633 
    0.695994     0.555498     0.422567 
    0.687126     0.455164     0.536517 
    0.616299     0.362765     0.535247 
    0.360139     0.384485     0.428289 
    0.404962     0.335648     0.526913 
    0.511685     0.347336     0.569966 
    0.583107     0.471849     0.354069 
    0.649401     0.411259     0.433354 
    0.428935     0.429494     0.611253 
    0.321621     0.415575     0.545006 
    0.468113     0.631054     0.403497 
    0.478095     0.528492     0.666027 
    0.428391     0.654978     0.512241 
    0.579682     0.591736     0.646027 
    0.362095     0.588088     0.443540 
    0.476629     0.636455     0.616607 
    0.669569     0.558960     0.580337 
    0.312393     0.487185     0.449501 
    0.562812     0.586133     0.354662 
EA32923 13.762 15.498 14.075 90.00 90.00 90.00 Sym.group:    0
1.0
   13.762462     0.000000     0.000000
    0.000000    15.498014     0.000000
    0.000000     0.000000    14.074885
   W   B
   6  19
Direct
    0.418622     0.431306     0.587219 
    0.276957     0.503528     0.498772 
    0.426934     0.446511     0.385533 
    0.464824     0.598875     0.528661 
    0.592301     0.472859     0.481171 
    0.635101     0.621450     0.590579 
    0.431037     0.325932     0.481406 
    0.324771     0.372603     0.475455 
    0.316325     0.635134     0.487691 
    0.307330     0.511387     0.650221 
    0.318637     0.607383     0.601075 
    0.415766     0.559330     0.669357 
    0.370373     0.580190     0.398827 
    0.506233     0.571126     0.373921 
    0.535899     0.338991     0.542187 
    0.585849     0.403295     0.623144 
    0.668958     0.479392     0.626715 
    0.537756     0.338389     0.421910 
    0.735191     0.525241     0.543936 
    0.574558     0.392847     0.333590 
    0.543721     0.513819     0.644078 
    0.570850     0.493041     0.310509 
    0.639756     0.570927     0.351680 
    0.707800     0.580124     0.447998 
    0.594450     0.626319     0.444361 
EA32824 14.665 14.544 14.314 90.00 90.00 90.00 Sym.group:    0
1.0
   14.664509     0.000000     0.000000
    0.000000    14.543803     0.000000
    0.000000     0.000000    14.313944
   W   B
   6  20
Direct
    0.461024     0.507942     0.497244 
    0.595548     0.566360     0.616595 
    0.543138     0.381243     0.619387 
    0.508186     0.579906     0.340733 
    0.644446     0.502997     0.433657 
    0.493522     0.337073     0.446207 
    0.491022     0.665469     0.561039 
    0.373040     0.625479     0.538728 
    0.439975     0.604696     0.638086 
    0.382960     0.419124     0.620706 
    0.462434     0.497007     0.665688 
    0.352800     0.369880     0.508124 
    0.729176     0.542155     0.554384 
    0.680349     0.445091     0.580428 
    0.419238     0.315290     0.580592 
    0.363405     0.523861     0.363035 
    0.365014     0.620862     0.419775 
    0.442506     0.444042     0.338217 
    0.461830     0.672407     0.451485 
    0.576203     0.644320     0.472652 
    0.626363     0.364601     0.388471 
    0.684374     0.630507     0.506218 
    0.635557     0.361745     0.503983 
    0.556463     0.431290     0.328580 
    0.354479     0.416487     0.408541 
    0.356948     0.530172     0.617443 
EA32990 15.353 14.025 13.889 90.00 90.00 90.00 Sym.group:    0
1.0
   15.352907     0.000000     0.000000
    0.000000    14.024888     0.000000
    0.000000     0.000000    13.888789
   W   B
   7  16
Direct
    0.366480     0.522319     0.568574 
    0.560797     0.668412     0.466618 
    0.532265     0.488000     0.520775 
    0.667584     0.537931     0.400589 
    0.412970     0.472016     0.363867 
    0.491571     0.326298     0.451501 
    0.692181     0.590944     0.560985 
    0.466382     0.635821     0.586276 
    0.408010     0.659257     0.489820 
    0.472387     0.437982     0.666049 
    0.486513     0.552593     0.669041 
    0.340980     0.590827     0.428279 
    0.522180     0.346112     0.610240 
    0.441587     0.627461     0.377613 
    0.553608     0.439531     0.357168 
    0.530679     0.561824     0.355688 
    0.625284     0.385526     0.431169 
    0.678728     0.442712     0.528036 
    0.611639     0.348452     0.545864 
    0.295735     0.482929     0.443198 
    0.352614     0.387508     0.479592 
    0.419445     0.375279     0.577331 
    0.570386     0.620267     0.621727 
EA16945 15.237 14.625 13.627 90.00 90.00 90.00 Sym.group:    0
1.0
   15.236671     0.000000     0.000000
    0.000000    14.624863     0.000000
    0.000000     0.000000    13.626862
   W   B
   7  17
Direct
    0.484042     0.489938     0.511815 
    0.332232     0.419115     0.451058 
    0.410531     0.658430     0.548281 
    0.609903     0.595465     0.396713 
    0.597932     0.401037     0.413463 
    0.585720     0.647541     0.570325 
    0.619081     0.511911     0.661881 
    0.455481     0.410184     0.355955 
    0.401688     0.509434     0.351967 
    0.458459     0.336692     0.448224 
    0.416267     0.349091     0.562842 
    0.523621     0.329448     0.546225 
    0.323222     0.530405     0.555774 
    0.360746     0.433776     0.609503 
    0.490291     0.582320     0.666477 
    0.353424     0.566421     0.442359 
    0.514406     0.505642     0.339182 
    0.694374     0.558787     0.530023 
    0.609701     0.383985     0.580011 
    0.690953     0.442783     0.537079 
    0.707798     0.494552     0.430245 
    0.510852     0.697865     0.445417 
    0.392693     0.538415     0.650804 
    0.456583     0.606764     0.394376 
EA32897 15.173 14.065 14.086 90.00 90.00 90.00 Sym.group:    0
1.0
   15.173255     0.000000     0.000000
    0.000000    14.065392     0.000000
    0.000000     0.000000    14.085902
   W   B
   7  18
Direct
    0.570700     0.404000     0.341952 
    0.663460     0.537611     0.367204 
    0.478627     0.557680     0.327926 
    0.526515     0.491226     0.503726 
    0.348601     0.395353     0.498649 
    0.423767     0.448967     0.652467 
    0.395144     0.625638     0.583346 
    0.645168     0.615854     0.505279 
    0.573272     0.337176     0.495344 
    0.469542     0.333343     0.439100 
    0.685444     0.508615     0.520692 
    0.659252     0.409798     0.465706 
    0.352908     0.505491     0.385054 
    0.423449     0.418440     0.365315 
    0.571451     0.639245     0.418981 
    0.370629     0.618711     0.425788 
    0.542769     0.645888     0.556321 
    0.622232     0.558273     0.608540 
    0.513479     0.572801     0.657128 
    0.305702     0.546922     0.488157 
    0.304089     0.507706     0.597332 
    0.551129     0.368316     0.614671 
    0.569480     0.471385     0.666379 
    0.463410     0.327055     0.560170 
    0.469781     0.654505     0.454775 
EA13755 15.436 14.280 14.210 90.00 90.00 90.00 Sym.group:    0
1.0
   15.436118     0.000000     0.000000
    0.000000    14.280015     0.000000
    0.000000     0.000000    14.209865
   W   B
   7  19
Direct
    0.360374     0.621616     0.470093 
    0.507250     0.316994     0.491179 
    0.411310     0.408082     0.604451 
    0.390256     0.454847     0.384270 
    0.521756     0.529445     0.674217 
    0.522938     0.512110     0.487948 
    0.549936     0.351460     0.664761 
    0.381495     0.566859     0.617658 
    0.458426     0.599993     0.369454 
    0.514063     0.515667     0.321878 
    0.533821     0.406858     0.359939 
    0.301798     0.512626     0.562093 
    0.368551     0.330016     0.477133 
    0.296465     0.409779     0.499441 
    0.273108     0.511141     0.448143 
    0.453358     0.645953     0.584582 
    0.607503     0.656540     0.476829 
    0.664500     0.569881     0.436067 
    0.558656     0.651731     0.581986 
    0.636696     0.463793     0.615764 
    0.639010     0.573176     0.565262 
    0.636353     0.367225     0.542074 
    0.616739     0.490876     0.363336 
    0.619847     0.389091     0.428514 
    0.499587     0.671547     0.471553 
    0.676203     0.472697     0.501377 
EA32758 13.929 14.404 14.128 90.00 90.00 90.00 Sym.group:    0
1.0
   13.928535     0.000000     0.000000
    0.000000    14.404253     0.000000
    0.000000     0.000000    14.127546
   W   B
   7  20
Direct
    0.365415     0.500103     0.499994 
    0.631559     0.499611     0.500325 
    0.498190     0.561446     0.634033 
    0.499413     0.392723     0.600513 
    0.499295     0.370483     0.431204 
    0.496665     0.524063     0.353317 
    0.496846     0.642203     0.478475 
    0.352032     0.436163     0.336215 
    0.357521     0.631150     0.388575 
    0.360007     0.645962     0.592775 
    0.364605     0.459133     0.669661 
    0.350644     0.330589     0.511289 
    0.658994     0.672991     0.468226 
    0.663544     0.523655     0.322315 
    0.670137     0.342284     0.425473 
    0.665167     0.379748     0.629726 
    0.662337     0.582560     0.654244 
    0.657495     0.417863     0.346636 
    0.643612     0.618957     0.372774 
    0.638243     0.654683     0.576162 
    0.646699     0.476602     0.674427 
    0.648042     0.329575     0.533616 
    0.336564     0.672507     0.488980 
    0.333353     0.543411     0.329902 
    0.330162     0.354575     0.405946 
    0.334152     0.372400     0.612101 
    0.339307     0.564559     0.663102 
EA19646 14.780 14.484 13.795 90.00 90.00 90.00 Sym.group:    0
1.0
   14.779960     0.000000     0.000000
    0.000000    14.484007     0.000000
    0.000000     0.000000    13.794550
   W   B
   8  16
Direct
    0.605296     0.634916     0.403216 
    0.348019     0.576295     0.417230 
    0.582765     0.536698     0.663720 
    0.516238     0.503482     0.497896 
    0.562664     0.350136     0.611016 
    0.433621     0.422138     0.360369 
    0.400641     0.355502     0.547826 
    0.472087     0.667504     0.548132 
    0.351896     0.578880     0.573464 
    0.474662     0.568457     0.331009 
    0.667866     0.557227     0.529016 
    0.614944     0.652873     0.561909 
    0.666097     0.446945     0.566323 
    0.651448     0.488589     0.424168 
    0.635179     0.371909     0.478891 
    0.568867     0.504593     0.330331 
    0.585122     0.400583     0.375252 
    0.524893     0.334991     0.456843 
    0.361897     0.473424     0.632677 
    0.300060     0.480567     0.534853 
    0.310150     0.426434     0.433999 
    0.462856     0.441273     0.671464 
    0.463861     0.666920     0.393662 
    0.438870     0.559665     0.656733 
EA32898 14.827 14.318 14.581 90.00 90.00 90.00 Sym.group:    0
1.0
   14.826524     0.000000     0.000000
    0.000000    14.318146     0.000000
    0.000000     0.000000    14.581453
   W   B
   8  17
Direct
    0.419714     0.637618     0.405081 
    0.496884     0.309366     0.515142 
    0.497556     0.484953     0.331809 
    0.372918     0.389769     0.433184 
    0.415957     0.539883     0.655701 
    0.518827     0.508909     0.501955 
    0.675991     0.508443     0.570148 
    0.559390     0.634655     0.639334 
    0.347796     0.595489     0.533453 
    0.583953     0.365183     0.397263 
    0.484991     0.329199     0.362061 
    0.324790     0.477356     0.546616 
    0.313890     0.532671     0.442874 
    0.358516     0.515430     0.341429 
    0.381525     0.386091     0.588310 
    0.569490     0.628039     0.396376 
    0.437078     0.660787     0.557349 
    0.530175     0.683010     0.496668 
    0.559442     0.487670     0.668761 
    0.635679     0.640873     0.508973 
    0.661789     0.565162     0.427339 
    0.658440     0.450743     0.422302 
    0.624987     0.378676     0.505194 
    0.480270     0.402151     0.639748 
    0.589952     0.387873     0.612929 
EA32178 15.925 16.192 13.928 90.00 90.00 90.00 Sym.group:    0
1.0
   15.925076     0.000000     0.000000
    0.000000    16.192123     0.000000
    0.000000     0.000000    13.928424
   W   B
   8  18
Direct
    0.467961     0.480128     0.496780 
    0.606580     0.425651     0.406158 
    0.385738     0.603725     0.587584 
    0.456934     0.357996     0.383554 
    0.544422     0.317275     0.523521 
    0.481530     0.518782     0.684666 
    0.488061     0.624703     0.422025 
    0.612102     0.545112     0.565536 
    0.412772     0.513528     0.345255 
    0.514415     0.507916     0.326486 
    0.683688     0.541297     0.427130 
    0.625092     0.632459     0.441124 
    0.344284     0.456662     0.405112 
    0.571438     0.675658     0.530515 
    0.567428     0.419696     0.624551 
    0.521658     0.639469     0.634149 
    0.657579     0.398580     0.555577 
    0.372474     0.454363     0.616550 
    0.710649     0.467379     0.498656 
    0.320248     0.492907     0.519225 
    0.414524     0.328059     0.534594 
    0.600715     0.561081     0.357734 
    0.469444     0.698033     0.548817 
    0.359339     0.558448     0.435822 
    0.345340     0.392845     0.498460 
    0.465583     0.388246     0.630420 
EA32761 13.975 14.187 14.214 90.00 90.00 90.00 Sym.group:    0
1.0
   13.975349     0.000000     0.000000
    0.000000    14.186659     0.000000
    0.000000     0.000000    14.214486
   W   B
   8  19
Direct
    0.370405     0.494425     0.495848 
    0.631882     0.504215     0.503830 
    0.499029     0.405586     0.617098 
    0.504821     0.356648     0.448498 
    0.502348     0.503086     0.351110 
    0.499948     0.642818     0.458289 
    0.496105     0.581842     0.623767 
    0.631280     0.720221     0.579685 
    0.367969     0.603800     0.359744 
    0.357746     0.657886     0.557164 
    0.362876     0.486948     0.670941 
    0.369172     0.325339     0.544139 
    0.371547     0.397731     0.351094 
    0.656032     0.600270     0.647703 
    0.660834     0.669295     0.452702 
    0.663247     0.506490     0.327236 
    0.665414     0.340322     0.443947 
    0.660419     0.395505     0.639716 
    0.631691     0.606083     0.363866 
    0.626905     0.494895     0.675521 
    0.636517     0.333477     0.550714 
    0.636945     0.402590     0.356886 
    0.333714     0.589455     0.640394 
    0.337579     0.662535     0.448569 
    0.342875     0.501491     0.323309 
    0.344314     0.331572     0.436183 
    0.338384     0.385474     0.632044 
EA5187 16.803 13.907 14.169 90.00 90.00 90.00 Sym.group:    0
1.0
   16.803285     0.000000     0.000000
    0.000000    13.907364     0.000000
    0.000000     0.000000    14.168821
   W   B
   8  20
Direct
    0.521819     0.485215     0.508951 
    0.614484     0.541122     0.645869 
    0.678603     0.412927     0.559320 
    0.653583     0.525728     0.402334 
    0.447588     0.342800     0.582663 
    0.369093     0.513607     0.411837 
    0.377082     0.507704     0.604802 
    0.460162     0.657927     0.418430 
    0.488843     0.582753     0.649874 
    0.541883     0.650713     0.546993 
    0.496082     0.464266     0.675237 
    0.567413     0.384448     0.644236 
    0.717681     0.553072     0.538238 
    0.572699     0.324255     0.537721 
    0.646841     0.632857     0.521422 
    0.615221     0.368937     0.436183 
    0.590602     0.659308     0.431822 
    0.557995     0.617340     0.332020 
    0.405945     0.357494     0.436409 
    0.507498     0.335445     0.440259 
    0.554807     0.418176     0.359481 
    0.332041     0.385917     0.509942 
    0.456152     0.412697     0.349864 
    0.266008     0.468314     0.512425 
    0.274225     0.579182     0.516597 
    0.353240     0.641880     0.514703 
    0.439255     0.650845     0.573400 
    0.493157     0.525071     0.338965 
EA29824 15.106 14.573 14.143 90.00 90.00 90.00 Sym.group:    0
1.0
   15.106224     0.000000     0.000000
    0.000000    14.573060     0.000000
    0.000000     0.000000    14.142867
   W   B
   9  16
Direct
    0.525675     0.547409     0.670874 
    0.582303     0.384514     0.644275 
    0.415360     0.401198     0.620476 
    0.390845     0.341870     0.437502 
    0.517445     0.490371     0.494114 
    0.427052     0.482846     0.339912 
    0.531966     0.685090     0.469918 
    0.657690     0.566676     0.442047 
    0.371737     0.604269     0.465320 
    0.387293     0.553590     0.615627 
    0.306569     0.499720     0.559374 
    0.531969     0.363404     0.399362 
    0.503377     0.318193     0.527520 
    0.294374     0.391218     0.529851 
    0.607534     0.342296     0.493975 
    0.313234     0.468153     0.440211 
    0.579725     0.483102     0.335942 
    0.635992     0.416851     0.408850 
    0.450450     0.637622     0.347326 
    0.538094     0.692671     0.619932 
    0.550982     0.593151     0.337508 
    0.439336     0.655520     0.592847 
    0.649869     0.519066     0.598287 
    0.668887     0.431184     0.525312 
    0.622241     0.630013     0.583639 
EA32482 15.713 14.840 14.196 90.00 90.00 90.00 Sym.group:    0
1.0
   15.712971     0.000000     0.000000
    0.000000    14.839909     0.000000
    0.000000     0.000000    14.195978
   W   B
   9  17
Direct
    0.542026     0.495862     0.507993 
    0.541857     0.467114     0.323676 
    0.429884     0.576866     0.616761 
    0.435808     0.391580     0.598444 
    0.573057     0.324182     0.473472 
    0.397509     0.507680     0.421119 
    0.559413     0.632965     0.396809 
    0.682764     0.595384     0.533955 
    0.711611     0.436195     0.518061 
    0.458255     0.586806     0.305436 
    0.547805     0.654649     0.557639 
    0.662714     0.524918     0.397924 
    0.418762     0.654398     0.389493 
    0.457979     0.674040     0.498150 
    0.654719     0.409982     0.385713 
    0.536206     0.478627     0.667313 
    0.593609     0.390603     0.612776 
    0.577622     0.584372     0.642737 
    0.641667     0.493477     0.638278 
    0.365976     0.360872     0.460907 
    0.314687     0.436751     0.522828 
    0.329482     0.479771     0.629848 
    0.443171     0.289320     0.476559 
    0.457358     0.367331     0.390231 
    0.307542     0.551211     0.540692 
    0.358517     0.635039     0.493183 
EA32762 14.736 14.566 14.068 90.00 90.00 90.00 Sym.group:    0
1.0
   14.736206     0.000000     0.000000
    0.000000    14.565859     0.000000
    0.000000     0.000000    14.067866
   W   B
   9  18
Direct
    0.514322     0.643654     0.621513 
    0.480228     0.502620     0.509139 
    0.321447     0.449985     0.579262 
    0.384644     0.619527     0.366381 
    0.315154     0.467958     0.399489 
    0.565226     0.494155     0.698440 
    0.569154     0.572823     0.364815 
    0.657763     0.556139     0.563858 
    0.562754     0.336660     0.472957 
    0.493935     0.667737     0.462126 
    0.422623     0.524752     0.677359 
    0.368313     0.592841     0.603810 
    0.441017     0.412000     0.666849 
    0.434675     0.349504     0.562090 
    0.534722     0.359001     0.625082 
    0.357528     0.344160     0.474039 
    0.392213     0.665914     0.514450 
    0.309118     0.584584     0.498735 
    0.704338     0.518381     0.413977 
    0.603846     0.675781     0.479100 
    0.689763     0.625787     0.430494 
    0.534794     0.414978     0.347954 
    0.641479     0.427565     0.377596 
    0.433987     0.377167     0.385137 
    0.686568     0.423447     0.486484 
    0.633491     0.408235     0.589905 
    0.446899     0.484644     0.328959 
EA32708 15.345 14.672 14.331 90.00 90.00 90.00 Sym.group:    0
1.0
   15.345182     0.000000     0.000000
    0.000000    14.672306     0.000000
    0.000000     0.000000    14.330632
   W   B
   9  19
Direct
    0.329967     0.382061     0.523168 
    0.398421     0.603481     0.365293 
    0.464579     0.503796     0.496937 
    0.467763     0.519013     0.676672 
    0.494625     0.358999     0.614862 
    0.569039     0.650301     0.443243 
    0.565319     0.386728     0.414092 
    0.623391     0.503605     0.570848 
    0.308908     0.524387     0.615188 
    0.452925     0.317348     0.481976 
    0.417729     0.372716     0.389763 
    0.303272     0.526079     0.462735 
    0.345897     0.460459     0.380682 
    0.435174     0.675691     0.491501 
    0.336600     0.624889     0.508192 
    0.505268     0.642452     0.582853 
    0.370912     0.402655     0.668759 
    0.396521     0.637981     0.605138 
    0.446204     0.467122     0.331116 
    0.525433     0.545467     0.336564 
    0.699308     0.575153     0.448130 
    0.692934     0.459455     0.438204 
    0.683375     0.373528     0.508156 
    0.639417     0.358115     0.612676 
    0.608675     0.659838     0.596436 
    0.689741     0.644931     0.531992 
    0.624049     0.526799     0.380627 
    0.604554     0.296951     0.524197 
EA32689 15.730 14.255 14.064 90.00 90.00 90.00 Sym.group:    0
1.0
   15.730127     0.000000     0.000000
    0.000000    14.255209     0.000000
    0.000000     0.000000    14.063928
   W   B
   9  20
Direct
    0.665267     0.489592     0.645574 
    0.708464     0.578121     0.494596 
    0.666355     0.472888     0.363722 
    0.503752     0.404337     0.658922 
    0.503565     0.307552     0.502959 
    0.466561     0.655574     0.563755 
    0.492165     0.525847     0.334339 
    0.300330     0.467597     0.504565 
    0.555063     0.497623     0.509051 
    0.629293     0.350027     0.453340 
    0.623369     0.359516     0.577411 
    0.700478     0.420911     0.510165 
    0.541713     0.562056     0.670049 
    0.607852     0.627703     0.603698 
    0.596062     0.668599     0.492408 
    0.515966     0.658289     0.413637 
    0.608243     0.610152     0.382166 
    0.554945     0.382923     0.374026 
    0.437150     0.545151     0.670258 
    0.338332     0.617174     0.494310 
    0.350357     0.571777     0.605330 
    0.411978     0.646796     0.408994 
    0.371273     0.457405     0.640968 
    0.375281     0.349601     0.452668 
    0.452034     0.372831     0.371084 
    0.367689     0.442504     0.372774 
    0.389005     0.364787     0.571441 
    0.345144     0.557223     0.383654 
    0.422317     0.535447     0.474136 
EA32827 15.815 14.870 13.730 90.00 90.00 90.00 Sym.group:    0
1.0
   15.815206     0.000000     0.000000
    0.000000    14.870229     0.000000
    0.000000     0.000000    13.729764
   W   B
  10  16
Direct
    0.468718     0.494702     0.497069 
    0.544710     0.653897     0.421113 
    0.491698     0.323083     0.565570 
    0.386896     0.571573     0.365999 
    0.409680     0.677820     0.518361 
    0.588479     0.396907     0.416467 
    0.605753     0.539487     0.584430 
    0.456400     0.583055     0.665028 
    0.277157     0.474884     0.489900 
    0.367596     0.439617     0.638926 
    0.463142     0.437874     0.334534 
    0.528267     0.525013     0.333944 
    0.676259     0.606102     0.457274 
    0.692582     0.492709     0.461751 
    0.367362     0.422859     0.385169 
    0.679315     0.411229     0.541506 
    0.604619     0.391641     0.630952 
    0.544976     0.680644     0.585479 
    0.637232     0.677397     0.533675 
    0.368595     0.363280     0.495417 
    0.293580     0.612177     0.481043 
    0.627388     0.539704     0.377880 
    0.624037     0.316366     0.544214 
    0.452662     0.353698     0.418175 
    0.330464     0.575189     0.591825 
    0.512432     0.439093     0.664299 
EA32763 14.663 15.480 14.689 90.00 90.00 90.00 Sym.group:    0
1.0
   14.663198     0.000000     0.000000
    0.000000    15.480153     0.000000
    0.000000     0.000000    14.688747
   W   B
  10  17
Direct
    0.672934     0.542771     0.561034 
    0.447445     0.625904     0.602342 
    0.485553     0.508408     0.491735 
    0.610356     0.410734     0.400914 
    0.365882     0.519858     0.365666 
    0.630927     0.594604     0.405015 
    0.362845     0.366811     0.445028 
    0.431914     0.457941     0.665024 
    0.513750     0.339703     0.536667 
    0.498767     0.287711     0.377296 
    0.404450     0.641955     0.445201 
    0.594308     0.639398     0.638171 
    0.512170     0.666886     0.461857 
    0.554729     0.544707     0.665896 
    0.328854     0.532442     0.600149 
    0.329272     0.586359     0.499724 
    0.483391     0.611425     0.365372 
    0.465624     0.417027     0.337449 
    0.522872     0.512218     0.334150 
    0.288755     0.485525     0.488336 
    0.379341     0.345250     0.593395 
    0.738001     0.426629     0.497508 
    0.734301     0.502020     0.423934 
    0.654607     0.396296     0.557745 
    0.308329     0.425159     0.581715 
    0.578038     0.443048     0.627430 
    0.602588     0.669212     0.531245 
EA27275 15.082 14.513 14.650 90.00 90.00 90.00 Sym.group:    0
1.0
   15.081531     0.000000     0.000000
    0.000000    14.512724     0.000000
    0.000000     0.000000    14.649868
   W   B
  10  18
Direct
    0.492091     0.376373     0.613119 
    0.715515     0.531720     0.543621 
    0.545890     0.501580     0.508208 
    0.556419     0.387273     0.359315 
    0.504915     0.660526     0.422361 
    0.429862     0.503202     0.362353 
    0.342815     0.440212     0.521425 
    0.389461     0.329319     0.373724 
    0.621356     0.668700     0.562491 
    0.513199     0.560679     0.678025 
    0.589635     0.340747     0.499313 
    0.494808     0.298156     0.466824 
    0.672825     0.405139     0.464196 
    0.645755     0.608651     0.424567 
    0.668040     0.497472     0.399321 
    0.659813     0.582108     0.672534 
    0.477810     0.657177     0.570414 
    0.649590     0.395196     0.577668 
    0.627609     0.472031     0.657381 
    0.398966     0.305024     0.518187 
    0.396006     0.480406     0.654682 
    0.295223     0.433995     0.371541 
    0.388102     0.579182     0.592757 
    0.385345     0.674589     0.512202 
    0.359242     0.634757     0.408233 
    0.312758     0.590667     0.505861 
    0.291557     0.539173     0.409245 
    0.575388     0.545947     0.350430 
EA32690 15.854 14.960 14.320 90.00 90.00 90.00 Sym.group:    0
1.0
   15.854171     0.000000     0.000000
    0.000000    14.960186     0.000000
    0.000000     0.000000    14.319502
   W   B
  10  19
Direct
    0.528660     0.508639     0.488446 
    0.540529     0.554549     0.679597 
    0.515739     0.682631     0.549425 
    0.646668     0.407655     0.400473 
    0.629327     0.404884     0.591857 
    0.382074     0.579097     0.531771 
    0.390964     0.403047     0.397393 
    0.463588     0.410087     0.631934 
    0.434485     0.548391     0.327598 
    0.718231     0.520745     0.513573 
    0.532180     0.297809     0.560304 
    0.632672     0.633059     0.473786 
    0.637239     0.620766     0.590709 
    0.549114     0.628569     0.393257 
    0.671877     0.534132     0.655600 
    0.611649     0.299344     0.486751 
    0.650913     0.558956     0.388704 
    0.570826     0.520674     0.328357 
    0.336582     0.467186     0.615665 
    0.397624     0.535392     0.682663 
    0.435817     0.315965     0.515065 
    0.311800     0.527477     0.403632 
    0.347710     0.633226     0.394186 
    0.351184     0.375338     0.545628 
    0.431304     0.641754     0.659423 
    0.517766     0.422430     0.342864 
    0.300385     0.460544     0.497663 
    0.444340     0.667902     0.418409 
    0.518753     0.339755     0.435267 
EA32675 16.332 14.574 13.848 90.00 90.00 90.00 Sym.group:    0
1.0
   16.332487     0.000000     0.000000
    0.000000    14.574253     0.000000
    0.000000     0.000000    13.847578
   W   B
  10  20
Direct
    0.467110     0.472515     0.500418 
    0.563323     0.330660     0.536400 
    0.660548     0.563191     0.649300 
    0.488167     0.562537     0.650845 
    0.326425     0.415437     0.502288 
    0.374736     0.475092     0.314875 
    0.460524     0.670534     0.493195 
    0.524546     0.373675     0.361477 
    0.511283     0.561117     0.352307 
    0.703054     0.416694     0.569994 
    0.436809     0.304948     0.473128 
    0.428895     0.334320     0.588701 
    0.587830     0.442585     0.651540 
    0.390102     0.347324     0.377590 
    0.493728     0.403031     0.652117 
    0.651053     0.380071     0.425284 
    0.285962     0.555668     0.535355 
    0.366870     0.619821     0.587912 
    0.339574     0.516949     0.629857 
    0.394400     0.427982     0.649190 
    0.724028     0.550268     0.510703 
    0.708985     0.473675     0.425615 
    0.648548     0.572952     0.407811 
    0.382292     0.612127     0.379124 
    0.329280     0.645506     0.477901 
    0.298299     0.543840     0.416107 
    0.665834     0.639448     0.515174 
    0.585190     0.659976     0.443323 
    0.577708     0.655471     0.571237 
    0.624896     0.472584     0.351232 
