EA181  17.191 17.172 14.982 90.00 90.00 90.00 Sym.group:    0
1.0
   17.191142     0.000000     0.000000
    0.000000    17.172044     0.000000
    0.000000     0.000000    14.981952
   W   B
   7  19
Direct
    0.439182     0.612219     0.581598 
    0.586748     0.591640     0.558376 
    0.613577     0.442038     0.585581 
    0.478194     0.370898     0.599215 
    0.374257     0.478986     0.580773 
    0.413593     0.489091     0.410719 
    0.487156     0.355316     0.398824 
    0.611075     0.405990     0.429966 
    0.587278     0.583888     0.417276 
    0.415937     0.630666     0.434673 
    0.518610     0.595348     0.684182 
    0.581410     0.522582     0.680175 
    0.538043     0.436841     0.694371 
    0.437649     0.436073     0.705634 
    0.444783     0.529254     0.699339 
    0.477487     0.435782     0.295474 
    0.569899     0.444449     0.344759 
    0.539849     0.544641     0.328617 
    0.457938     0.600279     0.339710 
    0.459162     0.527110     0.275056 
    0.572299     0.347675     0.500780 
    0.392879     0.384821     0.489106 
    0.344066     0.579286     0.491443 
    0.508624     0.647785     0.467626 
    0.656637     0.512781     0.469775 
    0.493665     0.494559     0.536955 
EA469  15.490 14.437 14.607 90.00 90.00 90.00 Sym.group:    0
1.0
   15.490283     0.000000     0.000000
    0.000000    14.436664     0.000000
    0.000000     0.000000    14.606692
   W   B
  10  18
Direct
    0.407814     0.566246     0.351166 
    0.408465     0.386814     0.400026 
    0.405427     0.363650     0.584133 
    0.409567     0.540122     0.653335 
    0.407101     0.657076     0.515114 
    0.592881     0.537846     0.651850 
    0.592598     0.366437     0.586204 
    0.587758     0.384649     0.395777 
    0.594222     0.563493     0.355034 
    0.592079     0.660881     0.514074 
    0.701288     0.588640     0.449911 
    0.699991     0.479047     0.404892 
    0.697332     0.395660     0.489048 
    0.701810     0.466047     0.582841 
    0.700911     0.582434     0.566984 
    0.296210     0.571260     0.560740 
    0.301365     0.461959     0.599190 
    0.301486     0.412360     0.494759 
    0.300221     0.481642     0.398826 
    0.299859     0.590013     0.445488 
    0.499220     0.662240     0.405215 
    0.498597     0.460739     0.307580 
    0.500639     0.303564     0.482639 
    0.497633     0.426753     0.681005 
    0.501441     0.647623     0.623731 
    0.612597     0.504916     0.498768 
    0.391387     0.504644     0.499410 
    0.500103     0.433246     0.502260 
EA751  15.459 15.359 14.543 90.00 90.00 90.00 Sym.group:    0
1.0
   15.458902     0.000000     0.000000
    0.000000    15.358720     0.000000
    0.000000     0.000000    14.543350
   W   B
  10  19
Direct
    0.316010     0.561057     0.425690 
    0.450963     0.418725     0.335697 
    0.446353     0.482912     0.502766 
    0.576199     0.549910     0.393086 
    0.338942     0.484229     0.632268 
    0.380627     0.649486     0.568138 
    0.599585     0.701309     0.434906 
    0.555530     0.608336     0.575763 
    0.530023     0.454701     0.667748 
    0.692944     0.523170     0.624328 
    0.524187     0.339306     0.440757 
    0.438929     0.552899     0.350734 
    0.277719     0.444927     0.504283 
    0.420784     0.332838     0.459652 
    0.338109     0.397616     0.421620 
    0.428006     0.371382     0.609735 
    0.585377     0.399068     0.365990 
    0.324592     0.696338     0.449305 
    0.345393     0.365826     0.536667 
    0.539150     0.357635     0.558069 
    0.670300     0.443920     0.414971 
    0.708482     0.422832     0.520176 
    0.639632     0.391837     0.601550 
    0.687559     0.628629     0.514956 
    0.713486     0.526271     0.477228 
    0.446305     0.567919     0.668756 
    0.480398     0.716412     0.500347 
    0.598568     0.471863     0.523014 
    0.445847     0.638647     0.421801 
EA1217 15.205 14.689 14.378 90.00 90.00 90.00 Sym.group:    0
1.0
   15.205008     0.000000     0.000000
    0.000000    14.688764     0.000000
    0.000000     0.000000    14.377645
   W   B
   6  20
Direct
    0.434370     0.465670     0.566159 
    0.399594     0.624277     0.600758 
    0.415334     0.539433     0.377141 
    0.624532     0.497671     0.605304 
    0.555258     0.627949     0.381263 
    0.545729     0.327057     0.446196 
    0.429299     0.679638     0.451082 
    0.316275     0.422557     0.472283 
    0.409039     0.382606     0.414546 
    0.334987     0.632121     0.469059 
    0.310391     0.533220     0.498486 
    0.478346     0.410021     0.340219 
    0.455897     0.303307     0.547353 
    0.547725     0.491088     0.320454 
    0.358085     0.335322     0.513490 
    0.646653     0.513840     0.363485 
    0.657979     0.560930     0.465944 
    0.551017     0.361789     0.603279 
    0.619108     0.639263     0.537954 
    0.516727     0.689299     0.527309 
    0.521671     0.434869     0.685700 
    0.644608     0.368731     0.537707 
    0.660239     0.442399     0.457452 
    0.538779     0.621398     0.621188 
    0.496277     0.540832     0.691508 
    0.532080     0.554714     0.504683 
EA1476 15.276 15.663 13.919 90.00 90.00 90.00 Sym.group:    0
1.0
   15.276363     0.000000     0.000000
    0.000000    15.663051     0.000000
    0.000000     0.000000    13.918994
   W   B
   9  19
Direct
    0.503912     0.337676     0.521651 
    0.338885     0.494522     0.521389 
    0.443763     0.631272     0.582201 
    0.422997     0.427616     0.369598 
    0.423971     0.592430     0.385343 
    0.640725     0.423761     0.656743 
    0.581923     0.381024     0.360673 
    0.682311     0.601229     0.463798 
    0.539722     0.497027     0.500233 
    0.296805     0.622469     0.550416 
    0.348707     0.348420     0.548716 
    0.381508     0.305419     0.445842 
    0.292536     0.616090     0.432965 
    0.353287     0.687946     0.482087 
    0.304527     0.376832     0.445450 
    0.436110     0.505483     0.639397 
    0.404883     0.400683     0.627784 
    0.504813     0.418728     0.660055 
    0.544279     0.526881     0.663119 
    0.703754     0.485134     0.540672 
    0.648333     0.555950     0.613738 
    0.651454     0.387144     0.509149 
    0.588031     0.640581     0.568974 
    0.570051     0.599982     0.362091 
    0.528760     0.508174     0.313764 
    0.634530     0.514246     0.345446 
    0.541041     0.652456     0.461999 
    0.688382     0.460827     0.426705 
EA1767 15.072 14.327 14.896 90.00 90.00 90.00 Sym.group:    0
1.0
   15.072123     0.000000     0.000000
    0.000000    14.326834     0.000000
    0.000000     0.000000    14.895736
   W   B
   9  20
Direct
    0.368535     0.338091     0.565164 
    0.396299     0.384257     0.404677 
    0.317810     0.543457     0.370914 
    0.465551     0.450417     0.658690 
    0.410317     0.613168     0.604474 
    0.621247     0.364785     0.449955 
    0.507696     0.605471     0.356780 
    0.671941     0.609221     0.580017 
    0.545092     0.524173     0.505815 
    0.310659     0.566165     0.518000 
    0.330121     0.483155     0.611484 
    0.286400     0.453614     0.494129 
    0.502140     0.313068     0.607863 
    0.485951     0.294847     0.490046 
    0.516395     0.312182     0.378477 
    0.529941     0.437167     0.349412 
    0.436088     0.494354     0.311347 
    0.374199     0.646336     0.454865 
    0.412071     0.476122     0.517373 
    0.589826     0.386744     0.594572 
    0.695535     0.508762     0.463560 
    0.676144     0.454573     0.566266 
    0.624442     0.507781     0.373387 
    0.609853     0.488155     0.653596 
    0.543789     0.677372     0.580563 
    0.476695     0.683756     0.482885 
    0.590881     0.687389     0.474898 
    0.548325     0.582942     0.655275 
    0.656055     0.612475     0.425516 
EA2379 15.938 14.038 14.331 90.00 90.00 90.00 Sym.group:    0
1.0
   15.938334     0.000000     0.000000
    0.000000    14.037966     0.000000
    0.000000     0.000000    14.330546
   W   B
   7  17
Direct
    0.615289     0.350263     0.519894 
    0.676099     0.486179     0.435927 
    0.524650     0.521000     0.344066 
    0.512400     0.528970     0.531741 
    0.340820     0.508449     0.513264 
    0.459285     0.375176     0.436320 
    0.430432     0.471344     0.678743 
    0.639425     0.491020     0.589182 
    0.414772     0.592387     0.406121 
    0.583895     0.388133     0.374418 
    0.647283     0.599950     0.535339 
    0.496631     0.662953     0.440939 
    0.599986     0.621412     0.430634 
    0.479483     0.687465     0.568718 
    0.383429     0.489892     0.361584 
    0.740662     0.361480     0.475090 
    0.573217     0.682759     0.530958 
    0.397785     0.650047     0.506600 
    0.323289     0.405253     0.395374 
    0.324548     0.350869     0.491611 
    0.379578     0.367787     0.584356 
    0.487810     0.366663     0.587984 
    0.560674     0.432290     0.645846 
    0.408559     0.608261     0.615293 
EA2688 15.938 14.038 14.331 90.00 90.00 90.00 Sym.group:    0
1.0
   15.938334     0.000000     0.000000
    0.000000    14.037966     0.000000
    0.000000     0.000000    14.330546
   W   B
   7  17
Direct
    0.615289     0.350263     0.519894 
    0.676099     0.486179     0.435927 
    0.524650     0.521000     0.344066 
    0.512400     0.528970     0.531741 
    0.340820     0.508449     0.513264 
    0.459285     0.375176     0.436320 
    0.430432     0.471344     0.678743 
    0.639425     0.491020     0.589182 
    0.414772     0.592387     0.406121 
    0.583895     0.388133     0.374418 
    0.647283     0.599950     0.535339 
    0.496631     0.662953     0.440939 
    0.599986     0.621412     0.430634 
    0.479483     0.687465     0.568718 
    0.383429     0.489892     0.361584 
    0.740662     0.361480     0.475090 
    0.573217     0.682759     0.530958 
    0.397785     0.650047     0.506600 
    0.323289     0.405253     0.395374 
    0.324548     0.350869     0.491611 
    0.379578     0.367787     0.584356 
    0.487810     0.366663     0.587984 
    0.560674     0.432290     0.645846 
    0.408559     0.608261     0.615293 
EA3032 16.037 13.977 14.091 90.00 90.00 90.00 Sym.group:    0
1.0
   16.037127     0.000000     0.000000
    0.000000    13.977324     0.000000
    0.000000     0.000000    14.091236
   W   B
   7  17
Direct
    0.614074     0.652849     0.525809 
    0.672214     0.522730     0.429477 
    0.519453     0.490618     0.339414 
    0.515203     0.468551     0.529418 
    0.343219     0.486493     0.519744 
    0.452970     0.627424     0.445832 
    0.435290     0.515555     0.684834 
    0.641459     0.507854     0.585706 
    0.413780     0.411194     0.401856 
    0.576582     0.622157     0.379782 
    0.649843     0.401612     0.524054 
    0.498301     0.340777     0.429369 
    0.599595     0.385187     0.418227 
    0.485775     0.307059     0.559196 
    0.379214     0.516705     0.363930 
    0.736099     0.648259     0.470504 
    0.577767     0.316657     0.517804 
    0.401807     0.345855     0.500251 
    0.318051     0.595920     0.407030 
    0.321012     0.643453     0.508523 
    0.380525     0.624331     0.598484 
    0.488290     0.627422     0.597458 
    0.563882     0.560505     0.649869 
    0.415596     0.380831     0.613428 
EA3425 15.507 14.941 14.443 90.00 90.00 90.00 Sym.group:    0
1.0
   15.506970     0.000000     0.000000
    0.000000    14.941332     0.000000
    0.000000     0.000000    14.443455
   W   B
   7  16
Direct
    0.400861     0.488449     0.556713 
    0.578589     0.521574     0.586759 
    0.562889     0.688187     0.475302 
    0.434425     0.612846     0.400332 
    0.615221     0.437819     0.406718 
    0.425307     0.420190     0.372898 
    0.430279     0.306453     0.526397 
    0.462084     0.579795     0.658596 
    0.403602     0.638470     0.562289 
    0.510232     0.654979     0.599543 
    0.327544     0.598829     0.494835 
    0.478296     0.477225     0.688123 
    0.494631     0.390106     0.624419 
    0.705016     0.499049     0.508078 
    0.322200     0.504283     0.430224 
    0.573737     0.363482     0.538979 
    0.330856     0.391291     0.476557 
    0.525115     0.333189     0.434079 
    0.670551     0.407158     0.545919 
    0.511106     0.516434     0.319346 
    0.504189     0.506586     0.459248 
    0.577033     0.580584     0.376470 
    0.656235     0.583022     0.458176 
EA3477 15.958 14.690 14.386 90.00 90.00 90.00 Sym.group:    0
1.0
   15.957780     0.000000     0.000000
    0.000000    14.690229     0.000000
    0.000000     0.000000    14.385953
   W   B
  10  19
Direct
    0.443072     0.495892     0.507963 
    0.604951     0.474879     0.556158 
    0.568265     0.395468     0.401531 
    0.369024     0.352162     0.575999 
    0.304210     0.610237     0.526358 
    0.633445     0.659036     0.490087 
    0.652977     0.540197     0.366639 
    0.425178     0.432638     0.321925 
    0.429353     0.690423     0.562389 
    0.410933     0.621136     0.389735 
    0.339130     0.388842     0.430213 
    0.409664     0.461968     0.670009 
    0.295112     0.459836     0.507987 
    0.320809     0.489700     0.616668 
    0.434509     0.339963     0.437913 
    0.711663     0.433614     0.444694 
    0.596384     0.304898     0.538112 
    0.677008     0.345859     0.497858 
    0.497871     0.323623     0.535776 
    0.388634     0.576156     0.650411 
    0.621849     0.608247     0.632521 
    0.732535     0.540552     0.491414 
    0.512606     0.706196     0.445585 
    0.518497     0.535521     0.328762 
    0.708964     0.575467     0.593420 
    0.548929     0.635253     0.368945 
    0.491304     0.403152     0.629233 
    0.322594     0.500043     0.397842 
    0.530529     0.599041     0.583858 
EA3920 15.033 14.574 14.543 90.00 90.00 90.00 Sym.group:    0
1.0
   15.033243     0.000000     0.000000
    0.000000    14.573841     0.000000
    0.000000     0.000000    14.542531
   W   B
   6  20
Direct
    0.544554     0.436650     0.566540 
    0.377644     0.407937     0.606487 
    0.450229     0.410319     0.402051 
    0.523425     0.618021     0.588913 
    0.366478     0.565980     0.392176 
    0.650256     0.521819     0.443813 
    0.313794     0.433618     0.475644 
    0.560803     0.316307     0.474316 
    0.603513     0.387568     0.389503 
    0.358804     0.328352     0.484712 
    0.463534     0.306215     0.521628 
    0.566634     0.467483     0.322169 
    0.699977     0.454160     0.561770 
    0.478897     0.530653     0.309832 
    0.658441     0.374997     0.491243 
    0.485731     0.637813     0.356723 
    0.444989     0.672000     0.455479 
    0.659691     0.557927     0.595959 
    0.379043     0.623772     0.534060 
    0.315651     0.527166     0.547137 
    0.586874     0.533079     0.685092 
    0.641939     0.650087     0.515388 
    0.562414     0.661088     0.440796 
    0.390352     0.556489     0.633755 
    0.481047     0.505379     0.690285 
    0.435283     0.515121     0.514535 
EA4195 16.168 13.921 14.152 90.00 90.00 90.00 Sym.group:    0
1.0
   16.168456     0.000000     0.000000
    0.000000    13.921068     0.000000
    0.000000     0.000000    14.151762
   W   B
   9  18
Direct
    0.361485     0.482632     0.638353 
    0.304977     0.526019     0.387842 
    0.440404     0.636279     0.600009 
    0.448608     0.549360     0.340197 
    0.433024     0.340849     0.561344 
    0.596084     0.546480     0.639199 
    0.518190     0.484639     0.499370 
    0.675186     0.427328     0.521280 
    0.630513     0.503153     0.354654 
    0.326206     0.405471     0.497731 
    0.268362     0.497670     0.527627 
    0.475679     0.651796     0.451888 
    0.374099     0.641907     0.447140 
    0.317355     0.599287     0.536646 
    0.407633     0.408335     0.407894 
    0.511349     0.411908     0.345426 
    0.494373     0.325049     0.426965 
    0.493174     0.430431     0.676331 
    0.466617     0.539717     0.713079 
    0.570620     0.377236     0.619034 
    0.569251     0.320769     0.513784 
    0.566103     0.628699     0.400723 
    0.655025     0.627075     0.459796 
    0.729969     0.547380     0.445494 
    0.594375     0.365584     0.407565 
    0.707864     0.573503     0.556584 
    0.563476     0.651447     0.524047 
EA4486 14.898 14.492 15.761 90.00 90.00 90.00 Sym.group:    0
1.0
   14.897658     0.000000     0.000000
    0.000000    14.492395     0.000000
    0.000000     0.000000    15.761478
   W   B
  10  19
Direct
    0.407793     0.505104     0.523938 
    0.346947     0.479912     0.351875 
    0.232179     0.485405     0.484971 
    0.522138     0.655835     0.467648 
    0.503550     0.480224     0.655986 
    0.581444     0.496290     0.499286 
    0.526226     0.544554     0.336665 
    0.477035     0.382727     0.409005 
    0.537992     0.334784     0.570477 
    0.683208     0.570343     0.380626 
    0.293449     0.611340     0.534999 
    0.374856     0.667681     0.475093 
    0.492899     0.629112     0.610925 
    0.392400     0.652269     0.580616 
    0.305352     0.593077     0.429576 
    0.405924     0.614262     0.383192 
    0.600041     0.618529     0.593893 
    0.398986     0.384235     0.618295 
    0.305647     0.387142     0.553612 
    0.329311     0.376030     0.449469 
    0.680353     0.617093     0.518146 
    0.621659     0.427457     0.371535 
    0.625558     0.352799     0.453704 
    0.635472     0.431023     0.634398 
    0.684439     0.529943     0.599918 
    0.737523     0.516396     0.505792 
    0.710672     0.430443     0.439615 
    0.685765     0.399273     0.544825 
    0.401180     0.326717     0.521921 
EA4864 15.082 14.513 14.650 90.00 90.00 90.00 Sym.group:    0
1.0
   15.081531     0.000000     0.000000
    0.000000    14.512724     0.000000
    0.000000     0.000000    14.649868
   W   B
  10  18
Direct
    0.492091     0.376373     0.613119 
    0.715515     0.531720     0.543621 
    0.545890     0.501580     0.508208 
    0.556419     0.387273     0.359315 
    0.504915     0.660526     0.422361 
    0.429862     0.503202     0.362353 
    0.342815     0.440212     0.521425 
    0.389461     0.329319     0.373724 
    0.621356     0.668700     0.562491 
    0.513199     0.560679     0.678025 
    0.589635     0.340747     0.499313 
    0.494808     0.298156     0.466824 
    0.672825     0.405139     0.464196 
    0.645755     0.608651     0.424567 
    0.668040     0.497472     0.399321 
    0.659813     0.582108     0.672534 
    0.477810     0.657177     0.570414 
    0.649590     0.395196     0.577668 
    0.627609     0.472031     0.657381 
    0.398966     0.305024     0.518187 
    0.396006     0.480406     0.654682 
    0.295223     0.433995     0.371541 
    0.388102     0.579182     0.592757 
    0.385345     0.674589     0.512202 
    0.359242     0.634757     0.408233 
    0.312758     0.590667     0.505861 
    0.291557     0.539173     0.409245 
    0.575388     0.545947     0.350430 
EA5416 13.904 14.398 15.038 90.00 90.00 90.00 Sym.group:    0
1.0
   13.903734     0.000000     0.000000
    0.000000    14.398116     0.000000
    0.000000     0.000000    15.038009
   W   B
   8  16
Direct
    0.477022     0.321667     0.511632 
    0.362394     0.450344     0.606436 
    0.401684     0.404796     0.374331 
    0.677690     0.483153     0.381098 
    0.710913     0.495322     0.538740 
    0.528240     0.482872     0.497665 
    0.492291     0.605686     0.381535 
    0.592837     0.625178     0.592488 
    0.370833     0.643793     0.472783 
    0.509793     0.400127     0.637061 
    0.310365     0.563456     0.528950 
    0.295275     0.459986     0.473742 
    0.428608     0.591012     0.580047 
    0.327730     0.355622     0.497548 
    0.354606     0.541980     0.415783 
    0.618034     0.378883     0.587239 
    0.561993     0.367537     0.388965 
    0.534861     0.464698     0.331124 
    0.606474     0.479275     0.646539 
    0.578489     0.699610     0.467205 
    0.654522     0.615032     0.450466 
    0.472255     0.685183     0.510236 
    0.639808     0.365211     0.475574 
    0.493283     0.519576     0.652809 
EA5701 16.380 14.458 14.077 90.00 90.00 90.00 Sym.group:    0
1.0
   16.380467     0.000000     0.000000
    0.000000    14.457905     0.000000
    0.000000     0.000000    14.077238
   W   B
   9  16
Direct
    0.390336     0.545999     0.614253 
    0.416755     0.334830     0.453335 
    0.634621     0.388558     0.584921 
    0.505661     0.478633     0.497292 
    0.647422     0.448196     0.416289 
    0.583970     0.619783     0.418671 
    0.513740     0.461442     0.678356 
    0.528235     0.638310     0.595040 
    0.424046     0.601411     0.373120 
    0.482290     0.705348     0.462155 
    0.400468     0.668965     0.516472 
    0.326052     0.595592     0.484235 
    0.281544     0.504256     0.525476 
    0.325215     0.407242     0.539384 
    0.414703     0.386006     0.600758 
    0.437318     0.450371     0.354558 
    0.505644     0.335190     0.574475 
    0.556540     0.332427     0.466816 
    0.526122     0.384691     0.362900 
    0.656928     0.614854     0.553555 
    0.704919     0.575128     0.458266 
    0.532523     0.502719     0.334369 
    0.707741     0.505671     0.552486 
    0.629612     0.533959     0.635048 
    0.367597     0.480416     0.447771 
EA5955 16.212 14.155 13.817 90.00 90.00 90.00 Sym.group:    0
1.0
   16.212435     0.000000     0.000000
    0.000000    14.155087     0.000000
    0.000000     0.000000    13.817440
   W   B
   6  20
Direct
    0.415964     0.661359     0.449933 
    0.503694     0.501439     0.504115 
    0.661155     0.593924     0.489312 
    0.611596     0.467382     0.625979 
    0.573536     0.372652     0.368191 
    0.370685     0.552707     0.588095 
    0.496479     0.569220     0.669066 
    0.472745     0.658642     0.593714 
    0.544516     0.617936     0.393078 
    0.544160     0.669529     0.504123 
    0.719582     0.466211     0.525393 
    0.579989     0.617526     0.609964 
    0.506100     0.506286     0.336746 
    0.683178     0.459330     0.410343 
    0.605370     0.524487     0.364989 
    0.658921     0.378825     0.498222 
    0.445889     0.414919     0.375275 
    0.312171     0.401538     0.552393 
    0.564139     0.341463     0.518207 
    0.407431     0.528521     0.374660 
    0.269616     0.482391     0.494832 
    0.364359     0.440407     0.448414 
    0.501381     0.361665     0.608253 
    0.403039     0.390832     0.596863 
    0.313280     0.564566     0.433327 
    0.471024     0.456246     0.666515 
EA6265 15.766 14.407 15.015 90.00 90.00 90.00 Sym.group:    0
1.0
   15.765872     0.000000     0.000000
    0.000000    14.406620     0.000000
    0.000000     0.000000    15.015368
   W   B
   8  18
Direct
    0.502970     0.498999     0.503142 
    0.482542     0.670966     0.460545 
    0.629589     0.635731     0.555458 
    0.579065     0.498099     0.651252 
    0.647645     0.366609     0.570622 
    0.374239     0.554932     0.381022 
    0.478608     0.402482     0.370135 
    0.399398     0.348901     0.509984 
    0.499398     0.631659     0.604119 
    0.440631     0.429398     0.637485 
    0.437507     0.542917     0.642445 
    0.394616     0.619034     0.564535 
    0.347047     0.670669     0.474723 
    0.689569     0.552097     0.450818 
    0.697105     0.506393     0.556019 
    0.602502     0.604412     0.414815 
    0.512577     0.352017     0.598697 
    0.698441     0.438315     0.458771 
    0.605763     0.488588     0.382883 
    0.610625     0.377757     0.428190 
    0.516890     0.558174     0.357161 
    0.302302     0.572242     0.504163 
    0.304564     0.464397     0.475127 
    0.369236     0.485585     0.568881 
    0.342150     0.404842     0.389334 
    0.535022     0.324785     0.489674 
EA6641 16.435 13.812 13.935 90.00 90.00 90.00 Sym.group:    0
1.0
   16.434516     0.000000     0.000000
    0.000000    13.812109     0.000000
    0.000000     0.000000    13.934914
   W   B
   6  20
Direct
    0.585944     0.379206     0.382016 
    0.497348     0.502670     0.495738 
    0.343900     0.456239     0.408205 
    0.395814     0.633575     0.467787 
    0.417918     0.441403     0.667060 
    0.634603     0.549207     0.423954 
    0.515148     0.620249     0.363192 
    0.537663     0.511430     0.318026 
    0.454041     0.352748     0.433729 
    0.462593     0.430315     0.340012 
    0.283828     0.547206     0.505871 
    0.431642     0.549780     0.340735 
    0.486595     0.347290     0.561373 
    0.315639     0.446663     0.564227 
    0.390825     0.372815     0.527670 
    0.339286     0.561143     0.601282 
    0.544083     0.418858     0.634431 
    0.679587     0.582201     0.582446 
    0.432590     0.591274     0.628234 
    0.587529     0.366528     0.536164 
    0.724223     0.493904     0.537613 
    0.627708     0.472331     0.587614 
    0.498186     0.663080     0.576292 
    0.595349     0.637335     0.563200 
    0.682212     0.402635     0.485907 
    0.535743     0.669918     0.467223 
EA6967 15.690 14.036 13.646 90.00 90.00 90.00 Sym.group:    0
1.0
   15.689613     0.000000     0.000000
    0.000000    14.035504     0.000000
    0.000000     0.000000    13.645566
   W   B
   9  17
Direct
    0.502269     0.499935     0.509985 
    0.545042     0.667475     0.454844 
    0.384056     0.665534     0.550742 
    0.407689     0.520235     0.661771 
    0.326793     0.396811     0.571511 
    0.634346     0.524474     0.377386 
    0.504230     0.398439     0.359258 
    0.580314     0.329270     0.523708 
    0.661536     0.474414     0.587172 
    0.504395     0.644349     0.619180 
    0.540371     0.423075     0.657695 
    0.553387     0.541343     0.669440 
    0.606377     0.618076     0.590613 
    0.679673     0.611030     0.500945 
    0.319666     0.591736     0.433212 
    0.298646     0.546437     0.547820 
    0.417014     0.627257     0.402763 
    0.457689     0.361508     0.613015 
    0.296110     0.477259     0.441813 
    0.393115     0.508522     0.370297 
    0.371386     0.396258     0.421346 
    0.493522     0.558587     0.345279 
    0.741094     0.517159     0.469705 
    0.706544     0.403972     0.452489 
    0.634949     0.361796     0.376764 
    0.439790     0.335049     0.491246 
EA7201 15.909 15.415 14.711 90.00 90.00 90.00 Sym.group:    0
1.0
   15.909216     0.000000     0.000000
    0.000000    15.415328     0.000000
    0.000000     0.000000    14.710793
   W   B
  10  20
Direct
    0.620733     0.463315     0.346286 
    0.596007     0.362581     0.602382 
    0.562738     0.491503     0.508186 
    0.544167     0.615166     0.631438 
    0.531139     0.619911     0.367707 
    0.414810     0.565857     0.503791 
    0.399527     0.685524     0.401126 
    0.297059     0.364522     0.458874 
    0.458282     0.414354     0.392846 
    0.425972     0.394561     0.584013 
    0.505235     0.308037     0.494828 
    0.586725     0.351234     0.440664 
    0.659397     0.585442     0.417963 
    0.528483     0.471507     0.663527 
    0.676453     0.397192     0.475674 
    0.707981     0.502287     0.467992 
    0.669243     0.571166     0.558962 
    0.696340     0.458888     0.571690 
    0.629587     0.498303     0.650486 
    0.600405     0.639873     0.500787 
    0.503939     0.502597     0.289336 
    0.501131     0.689989     0.506649 
    0.383415     0.604043     0.645336 
    0.430463     0.682894     0.594501 
    0.411282     0.546618     0.339479 
    0.332252     0.488977     0.398175 
    0.286729     0.421067     0.587325 
    0.296997     0.494608     0.507063 
    0.406653     0.297431     0.472306 
    0.336854     0.510555     0.620607 
EA7654 16.184 14.014 13.883 90.00 90.00 90.00 Sym.group:    0
1.0
   16.184360     0.000000     0.000000
    0.000000    14.014373     0.000000
    0.000000     0.000000    13.882960
   W   B
   9  17
Direct
    0.500842     0.498157     0.508743 
    0.535645     0.350081     0.404643 
    0.376922     0.337769     0.498841 
    0.407793     0.438805     0.646277 
    0.339392     0.592441     0.601951 
    0.629097     0.502155     0.376011 
    0.510664     0.638789     0.398413 
    0.587719     0.647777     0.574298 
    0.656016     0.483792     0.588427 
    0.494822     0.325002     0.564064 
    0.541683     0.521068     0.670508 
    0.546416     0.403984     0.644381 
    0.594781     0.349968     0.546830 
    0.666755     0.378473     0.463864 
    0.321924     0.449373     0.412158 
    0.302636     0.460659     0.533260 
    0.414321     0.415200     0.372556 
    0.467766     0.601842     0.648601 
    0.305511     0.557401     0.455705 
    0.397388     0.540228     0.376398 
    0.383114     0.634049     0.459842 
    0.491935     0.490697     0.336246 
    0.731065     0.472758     0.464264 
    0.703949     0.588118     0.484263 
    0.638876     0.656566     0.426022 
    0.452968     0.664851     0.543431 
EA8022 15.664 14.513 13.866 90.00 90.00 90.00 Sym.group:    0
1.0
   15.664050     0.000000     0.000000
    0.000000    14.512833     0.000000
    0.000000     0.000000    13.866151
   W   B
  10  16
Direct
    0.560837     0.696611     0.441310 
    0.681965     0.402765     0.455504 
    0.519082     0.501596     0.509019 
    0.660083     0.523861     0.605344 
    0.379661     0.589286     0.603200 
    0.669710     0.568509     0.428768 
    0.466004     0.341054     0.597573 
    0.322355     0.606656     0.416279 
    0.262513     0.500534     0.527824 
    0.446746     0.461549     0.340734 
    0.440092     0.654547     0.487085 
    0.446180     0.472501     0.672720 
    0.556421     0.637788     0.599977 
    0.649417     0.668013     0.552274 
    0.603769     0.382173     0.585066 
    0.549344     0.442536     0.667927 
    0.517998     0.557791     0.670115 
    0.455319     0.611919     0.371526 
    0.551242     0.571521     0.345178 
    0.568116     0.321780     0.487826 
    0.470615     0.347131     0.441800 
    0.383789     0.407801     0.475364 
    0.597766     0.466920     0.344827 
    0.316444     0.462530     0.393170 
    0.364280     0.438252     0.604878 
    0.560252     0.364373     0.374709 
EA8304 16.546 14.068 14.092 90.00 90.00 90.00 Sym.group:    0
1.0
   16.545735     0.000000     0.000000
    0.000000    14.067558     0.000000
    0.000000     0.000000    14.092217
   W   B
  10  16
Direct
    0.576007     0.330949     0.441432 
    0.502668     0.499308     0.493013 
    0.340659     0.437677     0.418286 
    0.406176     0.615295     0.403841 
    0.383195     0.508779     0.685828 
    0.636963     0.507448     0.404488 
    0.632187     0.521668     0.609941 
    0.494925     0.633586     0.657200 
    0.360404     0.638311     0.582828 
    0.571368     0.350383     0.610847 
    0.520840     0.552869     0.329411 
    0.534622     0.433056     0.331441 
    0.441477     0.349277     0.495083 
    0.455270     0.373315     0.376153 
    0.293883     0.568716     0.469793 
    0.435285     0.485875     0.329423 
    0.448003     0.383157     0.625570 
    0.304720     0.493880     0.560100 
    0.361743     0.395522     0.562795 
    0.508488     0.478612     0.660791 
    0.708018     0.603698     0.503908 
    0.733536     0.494817     0.513475 
    0.508257     0.666549     0.514715 
    0.616935     0.642808     0.497579 
    0.678377     0.398822     0.515443 
    0.545994     0.635622     0.406618 
EA8686 16.546 14.068 14.092 90.00 90.00 90.00 Sym.group:    0
1.0
   16.545735     0.000000     0.000000
    0.000000    14.067558     0.000000
    0.000000     0.000000    14.092217
   W   B
  10  16
Direct
    0.576007     0.330949     0.441432 
    0.502668     0.499308     0.493013 
    0.340659     0.437677     0.418286 
    0.406176     0.615295     0.403841 
    0.383195     0.508779     0.685828 
    0.636963     0.507448     0.404488 
    0.632187     0.521668     0.609941 
    0.494925     0.633586     0.657200 
    0.360404     0.638311     0.582828 
    0.571368     0.350383     0.610847 
    0.520840     0.552869     0.329411 
    0.534622     0.433056     0.331441 
    0.441477     0.349277     0.495083 
    0.455270     0.373315     0.376153 
    0.293883     0.568716     0.469793 
    0.435285     0.485875     0.329423 
    0.448003     0.383157     0.625570 
    0.304720     0.493880     0.560100 
    0.361743     0.395522     0.562795 
    0.508488     0.478612     0.660791 
    0.708018     0.603698     0.503908 
    0.733536     0.494817     0.513475 
    0.508257     0.666549     0.514715 
    0.616935     0.642808     0.497579 
    0.678377     0.398822     0.515443 
    0.545994     0.635622     0.406618 
EA8901 15.192 14.593 14.886 90.00 90.00 90.00 Sym.group:    0
1.0
   15.192414     0.000000     0.000000
    0.000000    14.592996     0.000000
    0.000000     0.000000    14.886111
   W   B
  10  20
Direct
    0.631866     0.520139     0.351294 
    0.547997     0.482430     0.498317 
    0.509039     0.325481     0.605003 
    0.502374     0.379931     0.343725 
    0.369938     0.431332     0.574219 
    0.351524     0.373127     0.411373 
    0.606928     0.606971     0.608375 
    0.469932     0.631689     0.395261 
    0.316977     0.556512     0.445197 
    0.435931     0.608282     0.578647 
    0.635755     0.380756     0.405360 
    0.507381     0.487632     0.645963 
    0.690866     0.556852     0.492125 
    0.700973     0.445992     0.466288 
    0.643730     0.369127     0.538111 
    0.684215     0.476925     0.572917 
    0.608737     0.433606     0.640707 
    0.568087     0.316102     0.465975 
    0.505103     0.519923     0.291843 
    0.461136     0.290748     0.463139 
    0.379366     0.298529     0.643822 
    0.378914     0.279402     0.532920 
    0.405370     0.504497     0.341659 
    0.614595     0.627608     0.455069 
    0.554356     0.706499     0.504413 
    0.516137     0.725889     0.605702 
    0.294666     0.555736     0.592263 
    0.455841     0.747154     0.505162 
    0.293465     0.657089     0.549360 
    0.358803     0.704040     0.475790 
EA9336 15.404 14.650 13.880 90.00 90.00 90.00 Sym.group:    0
1.0
   15.403584     0.000000     0.000000
    0.000000    14.650277     0.000000
    0.000000     0.000000    13.879749
   W   B
   6  20
Direct
    0.576869     0.544391     0.364216 
    0.413228     0.623606     0.389065 
    0.623298     0.381117     0.439703 
    0.472814     0.550866     0.647064 
    0.610092     0.436784     0.624343 
    0.471140     0.479396     0.491375 
    0.707009     0.500743     0.428068 
    0.447419     0.491423     0.319264 
    0.355439     0.480667     0.377152 
    0.547082     0.666235     0.580697 
    0.619223     0.625990     0.497211 
    0.313322     0.544671     0.462853 
    0.364174     0.612324     0.537514 
    0.451238     0.675304     0.534597 
    0.532335     0.673079     0.450639 
    0.612507     0.587783     0.620897 
    0.682351     0.541305     0.542225 
    0.724702     0.441330     0.529098 
    0.335176     0.512657     0.580435 
    0.336794     0.425842     0.487650 
    0.372287     0.413975     0.608822 
    0.415221     0.341554     0.522002 
    0.473993     0.386016     0.634224 
    0.491397     0.327558     0.436892 
    0.515325     0.404614     0.344615 
    0.535563     0.330772     0.549378 
EA9793 15.280 13.947 13.716 90.00 90.00 90.00 Sym.group:    0
1.0
   15.279866     0.000000     0.000000
    0.000000    13.947236     0.000000
    0.000000     0.000000    13.715634
   W   B
   8  17
Direct
    0.576180     0.382817     0.605220 
    0.569260     0.458919     0.340186 
    0.392373     0.473311     0.322184 
    0.338371     0.403136     0.597080 
    0.474848     0.498951     0.499288 
    0.306820     0.571822     0.578503 
    0.562367     0.653082     0.574487 
    0.607045     0.624519     0.400012 
    0.451605     0.453103     0.663569 
    0.689909     0.458766     0.548317 
    0.686178     0.501781     0.430532 
    0.648406     0.391409     0.461274 
    0.455526     0.334302     0.518691 
    0.551491     0.343044     0.454942 
    0.462119     0.356054     0.387751 
    0.368055     0.373887     0.446655 
    0.476786     0.670669     0.442228 
    0.438620     0.580319     0.642890 
    0.683774     0.581003     0.525512 
    0.374417     0.601105     0.426177 
    0.536136     0.524328     0.666210 
    0.472124     0.595887     0.343943 
    0.418524     0.652597     0.542631 
    0.320814     0.485297     0.454512 
    0.638254     0.529894     0.627204 
EA9963 15.474 14.287 14.727 90.00 90.00 90.00 Sym.group:    0
1.0
   15.474077     0.000000     0.000000
    0.000000    14.287114     0.000000
    0.000000     0.000000    14.727324
   W   B
   8  19
Direct
    0.329772     0.543501     0.424332 
    0.350746     0.576581     0.591862 
    0.484537     0.511161     0.504079 
    0.480542     0.621882     0.348582 
    0.658833     0.504922     0.469327 
    0.568558     0.371826     0.593646 
    0.605859     0.633666     0.578554 
    0.379436     0.378366     0.574984 
    0.293281     0.398430     0.470572 
    0.392691     0.393269     0.424029 
    0.516179     0.684365     0.474579 
    0.403834     0.663829     0.474427 
    0.263446     0.475112     0.542909 
    0.466401     0.673113     0.573024 
    0.616268     0.572782     0.344904 
    0.609088     0.648051     0.429968 
    0.438966     0.475279     0.349393 
    0.495966     0.382611     0.377911 
    0.550077     0.483747     0.357040 
    0.705828     0.402751     0.577529 
    0.479514     0.333300     0.483676 
    0.674966     0.346188     0.492644 
    0.560523     0.513520     0.653972 
    0.658998     0.492084     0.626045 
    0.582475     0.351794     0.444263 
    0.481947     0.593076     0.655528 
    0.451271     0.474791     0.662222 
EA10417 14.602 14.358 14.243 90.00 90.00 90.00 Sym.group:    0
1.0
   14.602093     0.000000     0.000000
    0.000000    14.357685     0.000000
    0.000000     0.000000    14.243008
   W   B
   6  19
Direct
    0.469104     0.556236     0.652881 
    0.463127     0.323055     0.468735 
    0.425054     0.389293     0.622869 
    0.339826     0.640061     0.557115 
    0.471372     0.526021     0.464799 
    0.689230     0.464745     0.426079 
    0.313709     0.517657     0.456618 
    0.327114     0.494312     0.578896 
    0.562100     0.343421     0.586979 
    0.572446     0.381748     0.378786 
    0.334444     0.402807     0.499957 
    0.643212     0.433078     0.567989 
    0.469750     0.420323     0.345217 
    0.561555     0.431073     0.665142 
    0.615822     0.348848     0.483226 
    0.370317     0.425109     0.392448 
    0.603709     0.584515     0.391022 
    0.564918     0.491057     0.339153 
    0.437871     0.680184     0.443888 
    0.483758     0.676569     0.550761 
    0.353142     0.614071     0.411984 
    0.554798     0.663590     0.457086 
    0.676658     0.544471     0.543474 
    0.580681     0.615678     0.570610 
    0.616282     0.532076     0.644284 
EA10651 16.179 14.193 14.284 90.00 90.00 90.00 Sym.group:    0
1.0
   16.179262     0.000000     0.000000
    0.000000    14.193099     0.000000
    0.000000     0.000000    14.284386
   W   B
   8  19
Direct
    0.329981     0.513677     0.431418 
    0.362770     0.565943     0.600678 
    0.484278     0.511129     0.503872 
    0.460181     0.599034     0.334411 
    0.646965     0.519495     0.454305 
    0.579859     0.396384     0.606337 
    0.595948     0.652206     0.553556 
    0.395495     0.380251     0.601260 
    0.305309     0.368774     0.490458 
    0.399925     0.369134     0.442354 
    0.495555     0.686291     0.450356 
    0.392542     0.646633     0.465431 
    0.279524     0.452471     0.561192 
    0.458194     0.674849     0.559304 
    0.593760     0.565298     0.322351 
    0.583328     0.652106     0.399187 
    0.434530     0.450594     0.353785 
    0.498180     0.366917     0.390600 
    0.539325     0.472148     0.353553 
    0.710325     0.435289     0.569173 
    0.491591     0.338681     0.507000 
    0.676453     0.361492     0.497229 
    0.571934     0.541009     0.661721 
    0.664875     0.525763     0.614991 
    0.585727     0.353195     0.454838 
    0.490247     0.609855     0.649059 
    0.473199     0.491382     0.671580 
EA10999 13.929 14.404 14.128 90.00 90.00 90.00 Sym.group:    0
1.0
   13.928535     0.000000     0.000000
    0.000000    14.404253     0.000000
    0.000000     0.000000    14.127546
   W   B
   7  20
Direct
    0.365415     0.500103     0.499994 
    0.631559     0.499611     0.500325 
    0.498190     0.561446     0.634033 
    0.499413     0.392723     0.600513 
    0.499295     0.370483     0.431204 
    0.496665     0.524063     0.353317 
    0.496846     0.642203     0.478475 
    0.352032     0.436163     0.336215 
    0.357521     0.631150     0.388575 
    0.360007     0.645962     0.592775 
    0.364605     0.459133     0.669661 
    0.350644     0.330589     0.511289 
    0.658994     0.672991     0.468226 
    0.663544     0.523655     0.322315 
    0.670137     0.342284     0.425473 
    0.665167     0.379748     0.629726 
    0.662337     0.582560     0.654244 
    0.657495     0.417863     0.346636 
    0.643612     0.618957     0.372774 
    0.638243     0.654683     0.576162 
    0.646699     0.476602     0.674427 
    0.648042     0.329575     0.533616 
    0.336564     0.672507     0.488980 
    0.333353     0.543411     0.329902 
    0.330162     0.354575     0.405946 
    0.334152     0.372400     0.612101 
    0.339307     0.564559     0.663102 
EA11496 14.872 14.202 14.372 90.00 90.00 90.00 Sym.group:    0
1.0
   14.872144     0.000000     0.000000
    0.000000    14.201634     0.000000
    0.000000     0.000000    14.372362
   W   B
   7  18
Direct
    0.403581     0.454128     0.650764 
    0.474541     0.323960     0.540984 
    0.482196     0.511410     0.491551 
    0.655323     0.518940     0.583916 
    0.638617     0.565018     0.406240 
    0.369145     0.412592     0.396360 
    0.543377     0.377181     0.688960 
    0.444288     0.601846     0.632023 
    0.669955     0.427327     0.467448 
    0.637444     0.655399     0.526377 
    0.506574     0.483968     0.335835 
    0.591112     0.338815     0.449982 
    0.508943     0.610946     0.360168 
    0.315392     0.484725     0.519539 
    0.413360     0.556942     0.348939 
    0.531384     0.528019     0.668609 
    0.605929     0.424156     0.369022 
    0.455384     0.666946     0.536741 
    0.621192     0.369993     0.558833 
    0.503036     0.364625     0.386000 
    0.540532     0.670977     0.462189 
    0.363473     0.593630     0.547817 
    0.551696     0.627789     0.600550 
    0.339565     0.559763     0.435467 
    0.333963     0.370904     0.535682 
EA11790 14.568 14.948 14.451 90.00 90.00 90.00 Sym.group:    0
1.0
   14.568080     0.000000     0.000000
    0.000000    14.948088     0.000000
    0.000000     0.000000    14.450938
   W   B
   9  16
Direct
    0.552461     0.519399     0.670422 
    0.566396     0.356602     0.622882 
    0.399560     0.408451     0.614593 
    0.351905     0.387992     0.432916 
    0.511879     0.487101     0.492167 
    0.412918     0.532924     0.350731 
    0.576029     0.672803     0.484019 
    0.667565     0.530005     0.430142 
    0.394517     0.636347     0.491561 
    0.410148     0.562090     0.627880 
    0.311531     0.539085     0.576442 
    0.490395     0.345174     0.396856 
    0.462907     0.321983     0.512107 
    0.271584     0.444548     0.535626 
    0.573551     0.319618     0.474082 
    0.301518     0.523626     0.455624 
    0.559419     0.491153     0.332834 
    0.597439     0.397878     0.388565 
    0.473545     0.667993     0.371132 
    0.595019     0.657160     0.631164 
    0.562709     0.601656     0.345851 
    0.485683     0.648832     0.610300 
    0.661185     0.471152     0.578367 
    0.650628     0.393818     0.496541 
    0.659507     0.582610     0.577192 
EA12135 15.106 14.573 14.143 90.00 90.00 90.00 Sym.group:    0
1.0
   15.106224     0.000000     0.000000
    0.000000    14.573060     0.000000
    0.000000     0.000000    14.142867
   W   B
   9  16
Direct
    0.525675     0.547409     0.670874 
    0.582303     0.384514     0.644275 
    0.415360     0.401198     0.620476 
    0.390845     0.341870     0.437502 
    0.517445     0.490371     0.494114 
    0.427052     0.482846     0.339912 
    0.531966     0.685090     0.469918 
    0.657690     0.566676     0.442047 
    0.371737     0.604269     0.465320 
    0.387293     0.553590     0.615627 
    0.306569     0.499720     0.559374 
    0.531969     0.363404     0.399362 
    0.503377     0.318193     0.527520 
    0.294374     0.391218     0.529851 
    0.607534     0.342296     0.493975 
    0.313234     0.468153     0.440211 
    0.579725     0.483102     0.335942 
    0.635992     0.416851     0.408850 
    0.450450     0.637622     0.347326 
    0.538094     0.692671     0.619932 
    0.550982     0.593151     0.337508 
    0.439336     0.655520     0.592847 
    0.649869     0.519066     0.598287 
    0.668887     0.431184     0.525312 
    0.622241     0.630013     0.583639 
EA12341 13.975 14.187 14.214 90.00 90.00 90.00 Sym.group:    0
1.0
   13.975349     0.000000     0.000000
    0.000000    14.186659     0.000000
    0.000000     0.000000    14.214486
   W   B
   8  19
Direct
    0.370405     0.494425     0.495848 
    0.631882     0.504215     0.503830 
    0.499029     0.405586     0.617098 
    0.504821     0.356648     0.448498 
    0.502348     0.503086     0.351110 
    0.499948     0.642818     0.458289 
    0.496105     0.581842     0.623767 
    0.631280     0.720221     0.579685 
    0.367969     0.603800     0.359744 
    0.357746     0.657886     0.557164 
    0.362876     0.486948     0.670941 
    0.369172     0.325339     0.544139 
    0.371547     0.397731     0.351094 
    0.656032     0.600270     0.647703 
    0.660834     0.669295     0.452702 
    0.663247     0.506490     0.327236 
    0.665414     0.340322     0.443947 
    0.660419     0.395505     0.639716 
    0.631691     0.606083     0.363866 
    0.626905     0.494895     0.675521 
    0.636517     0.333477     0.550714 
    0.636945     0.402590     0.356886 
    0.333714     0.589455     0.640394 
    0.337579     0.662535     0.448569 
    0.342875     0.501491     0.323309 
    0.344314     0.331572     0.436183 
    0.338384     0.385474     0.632044 
EA12967 14.817 14.519 14.121 90.00 90.00 90.00 Sym.group:    0
1.0
   14.816909     0.000000     0.000000
    0.000000    14.518706     0.000000
    0.000000     0.000000    14.121283
   W   B
   6  16
Direct
    0.521211     0.492222     0.543019 
    0.413916     0.655192     0.489480 
    0.553238     0.576164     0.387647 
    0.708610     0.503346     0.430864 
    0.455350     0.442524     0.353208 
    0.662535     0.371787     0.516262 
    0.493943     0.621966     0.628195 
    0.427971     0.364864     0.485644 
    0.431542     0.360788     0.611395 
    0.335693     0.550295     0.405550 
    0.398428     0.566604     0.608155 
    0.353390     0.445671     0.458077 
    0.326226     0.542814     0.523333 
    0.518599     0.326115     0.556920 
    0.370344     0.448251     0.584117 
    0.602315     0.594450     0.624983 
    0.665035     0.504465     0.583824 
    0.655209     0.607741     0.519309 
    0.555116     0.659031     0.531571 
    0.415839     0.593723     0.342674 
    0.599844     0.423538     0.376289 
    0.535646     0.348447     0.439485 
EA13086 14.763 14.608 14.398 90.00 90.00 90.00 Sym.group:    0
1.0
   14.763162     0.000000     0.000000
    0.000000    14.608013     0.000000
    0.000000     0.000000    14.398486
   W   B
   6  20
Direct
    0.468247     0.512609     0.492219 
    0.594880     0.573183     0.609469 
    0.558469     0.383588     0.621152 
    0.493358     0.576807     0.336475 
    0.639815     0.506177     0.421271 
    0.497757     0.340279     0.453863 
    0.482500     0.663523     0.558122 
    0.372538     0.625670     0.535240 
    0.433382     0.596188     0.632543 
    0.409602     0.402549     0.648960 
    0.471001     0.495545     0.672647 
    0.361166     0.392542     0.537816 
    0.724332     0.554602     0.537517 
    0.683270     0.456050     0.566432 
    0.435695     0.313982     0.587107 
    0.355381     0.513864     0.369763 
    0.358743     0.612521     0.421227 
    0.433823     0.435054     0.344800 
    0.452808     0.671353     0.447538 
    0.566880     0.651513     0.466322 
    0.623085     0.366339     0.381940 
    0.672832     0.640287     0.495438 
    0.641130     0.369064     0.496212 
    0.547221     0.428924     0.325954 
    0.354487     0.412472     0.427064 
    0.367599     0.505314     0.612912 
EA13515 14.622 14.088 14.232 90.00 90.00 90.00 Sym.group:    0
1.0
   14.622494     0.000000     0.000000
    0.000000    14.087692     0.000000
    0.000000     0.000000    14.231838
   W   B
   6  19
Direct
    0.626861     0.457113     0.363016 
    0.344753     0.508872     0.383627 
    0.482654     0.501020     0.495531 
    0.624105     0.608888     0.583348 
    0.539839     0.344921     0.596064 
    0.405702     0.456935     0.651695 
    0.486201     0.508824     0.323274 
    0.693940     0.502549     0.496298 
    0.559903     0.595692     0.357046 
    0.645201     0.589757     0.435317 
    0.379569     0.368494     0.423890 
    0.572379     0.345056     0.444692 
    0.659945     0.389476     0.501950 
    0.467721     0.308279     0.465535 
    0.451200     0.617929     0.377850 
    0.547334     0.656709     0.457935 
    0.483775     0.666072     0.554551 
    0.385772     0.630421     0.478955 
    0.491847     0.585809     0.650497 
    0.392032     0.608521     0.597361 
    0.652889     0.456870     0.600886 
    0.558287     0.487963     0.658043 
    0.326992     0.425207     0.516691 
    0.323869     0.540570     0.533787 
    0.397232     0.338055     0.552156 
EA13759 14.665 14.544 14.314 90.00 90.00 90.00 Sym.group:    0
1.0
   14.664509     0.000000     0.000000
    0.000000    14.543803     0.000000
    0.000000     0.000000    14.313944
   W   B
   6  20
Direct
    0.461024     0.507942     0.497244 
    0.595548     0.566360     0.616595 
    0.543138     0.381243     0.619387 
    0.508186     0.579906     0.340733 
    0.644446     0.502997     0.433657 
    0.493522     0.337073     0.446207 
    0.491022     0.665469     0.561039 
    0.373040     0.625479     0.538728 
    0.439975     0.604696     0.638086 
    0.382960     0.419124     0.620706 
    0.462434     0.497007     0.665688 
    0.352800     0.369880     0.508124 
    0.729176     0.542155     0.554384 
    0.680349     0.445091     0.580428 
    0.419238     0.315290     0.580592 
    0.363405     0.523861     0.363035 
    0.365014     0.620862     0.419775 
    0.442506     0.444042     0.338217 
    0.461830     0.672407     0.451485 
    0.576203     0.644320     0.472652 
    0.626363     0.364601     0.388471 
    0.684374     0.630507     0.506218 
    0.635557     0.361745     0.503983 
    0.556463     0.431290     0.328580 
    0.354479     0.416487     0.408541 
    0.356948     0.530172     0.617443 
EA14084 14.739 14.503 14.255 90.00 90.00 90.00 Sym.group:    0
1.0
   14.739364     0.000000     0.000000
    0.000000    14.502844     0.000000
    0.000000     0.000000    14.255491
   W   B
   6  20
Direct
    0.465991     0.508515     0.495740 
    0.592376     0.561952     0.622769 
    0.538865     0.379775     0.625578 
    0.511238     0.580528     0.338959 
    0.646282     0.502619     0.435392 
    0.499627     0.340148     0.444528 
    0.487370     0.664412     0.560101 
    0.365047     0.615605     0.537385 
    0.440076     0.603353     0.638437 
    0.383579     0.417891     0.622621 
    0.458089     0.495850     0.669297 
    0.356362     0.376845     0.504942 
    0.724321     0.542174     0.561129 
    0.676004     0.442681     0.585123 
    0.417753     0.317215     0.575533 
    0.368925     0.525234     0.354887 
    0.367889     0.618868     0.417096 
    0.447123     0.444323     0.335026 
    0.461276     0.675553     0.450305 
    0.575040     0.644860     0.470373 
    0.630688     0.365969     0.388804 
    0.677939     0.630655     0.514387 
    0.635343     0.363512     0.507001 
    0.560763     0.432289     0.326886 
    0.357245     0.421616     0.404727 
    0.354787     0.527558     0.612974 
EA14575 14.989 14.065 13.598 90.00 90.00 90.00 Sym.group:    0
1.0
   14.989430     0.000000     0.000000
    0.000000    14.065396     0.000000
    0.000000     0.000000    13.597503
   W   B
   7  17
Direct
    0.538109     0.668502     0.487405 
    0.557885     0.545362     0.330325 
    0.472555     0.490987     0.491351 
    0.621444     0.369450     0.539915 
    0.683602     0.614260     0.421662 
    0.511197     0.584338     0.661271 
    0.328574     0.556313     0.587703 
    0.418655     0.675705     0.588984 
    0.639784     0.600025     0.577859 
    0.429691     0.612441     0.373343 
    0.384814     0.654381     0.475396 
    0.627486     0.493739     0.636499 
    0.693869     0.499008     0.533927 
    0.453086     0.395386     0.361441 
    0.533018     0.429399     0.649354 
    0.503196     0.326476     0.454823 
    0.422098     0.454344     0.647826 
    0.569493     0.399679     0.390320 
    0.471521     0.353551     0.575045 
    0.349351     0.409806     0.555695 
    0.660405     0.464676     0.418608 
    0.397841     0.498559     0.343935 
    0.335548     0.555090     0.428277 
    0.396778     0.348523     0.469034 
EA14755 16.259 14.335 13.821 90.00 90.00 90.00 Sym.group:    0
1.0
   16.259337     0.000000     0.000000
    0.000000    14.334508     0.000000
    0.000000     0.000000    13.820539
   W   B
   9  17
Direct
    0.724425     0.471513     0.552416 
    0.493917     0.483529     0.507404 
    0.599650     0.507385     0.653871 
    0.521989     0.315940     0.470504 
    0.409934     0.553531     0.366974 
    0.349554     0.480714     0.575433 
    0.536869     0.655995     0.577791 
    0.711337     0.546711     0.401292 
    0.579291     0.546149     0.330420 
    0.390723     0.351654     0.487797 
    0.430101     0.391323     0.377886 
    0.436145     0.351272     0.595393 
    0.619232     0.423278     0.420035 
    0.529277     0.409330     0.345779 
    0.617495     0.387724     0.551113 
    0.535625     0.366549     0.623822 
    0.336783     0.429475     0.420626 
    0.336491     0.616154     0.490279 
    0.292900     0.528137     0.439024 
    0.516259     0.651495     0.416956 
    0.428995     0.664924     0.477522 
    0.615810     0.647249     0.446904 
    0.402357     0.621919     0.588794 
    0.461369     0.556708     0.663267 
    0.660331     0.601169     0.547718 
    0.463138     0.440169     0.670981 
EA15335 14.638 13.842 14.138 90.00 90.00 90.00 Sym.group:    0
1.0
   14.638285     0.000000     0.000000
    0.000000    13.841549     0.000000
    0.000000     0.000000    14.137628
   W   B
   6  16
Direct
    0.506124     0.398174     0.341476 
    0.533151     0.498442     0.502704 
    0.535883     0.566420     0.316579 
    0.388298     0.484707     0.606167 
    0.377197     0.509251     0.390035 
    0.487456     0.666142     0.583014 
    0.564524     0.658236     0.445573 
    0.625219     0.370402     0.452501 
    0.594528     0.360576     0.567353 
    0.551364     0.435022     0.651518 
    0.518152     0.326472     0.479282 
    0.605951     0.573135     0.629064 
    0.637180     0.620763     0.531715 
    0.649548     0.579245     0.420371 
    0.642426     0.464471     0.381223 
    0.360657     0.618660     0.513347 
    0.299270     0.421855     0.495330 
    0.281268     0.535795     0.509198 
    0.402044     0.372945     0.487576 
    0.477618     0.359750     0.583253 
    0.512084     0.543636     0.679765 
    0.450057     0.635901     0.432957 
EA15671 14.638 13.842 14.138 90.00 90.00 90.00 Sym.group:    0
1.0
   14.638285     0.000000     0.000000
    0.000000    13.841549     0.000000
    0.000000     0.000000    14.137628
   W   B
   6  16
Direct
    0.506124     0.398174     0.341476 
    0.533151     0.498442     0.502704 
    0.535883     0.566420     0.316579 
    0.388298     0.484707     0.606167 
    0.377197     0.509251     0.390035 
    0.487456     0.666142     0.583014 
    0.564524     0.658236     0.445573 
    0.625219     0.370402     0.452501 
    0.594528     0.360576     0.567353 
    0.551364     0.435022     0.651518 
    0.518152     0.326472     0.479282 
    0.605951     0.573135     0.629064 
    0.637180     0.620763     0.531715 
    0.649548     0.579245     0.420371 
    0.642426     0.464471     0.381223 
    0.360657     0.618660     0.513347 
    0.299270     0.421855     0.495330 
    0.281268     0.535795     0.509198 
    0.402044     0.372945     0.487576 
    0.477618     0.359750     0.583253 
    0.512084     0.543636     0.679765 
    0.450057     0.635901     0.432957 
EA15700 14.736 14.566 14.068 90.00 90.00 90.00 Sym.group:    0
1.0
   14.736206     0.000000     0.000000
    0.000000    14.565859     0.000000
    0.000000     0.000000    14.067866
   W   B
   9  18
Direct
    0.514322     0.643654     0.621513 
    0.480228     0.502620     0.509139 
    0.321447     0.449985     0.579262 
    0.384644     0.619527     0.366381 
    0.315154     0.467958     0.399489 
    0.565226     0.494155     0.698440 
    0.569154     0.572823     0.364815 
    0.657763     0.556139     0.563858 
    0.562754     0.336660     0.472957 
    0.493935     0.667737     0.462126 
    0.422623     0.524752     0.677359 
    0.368313     0.592841     0.603810 
    0.441017     0.412000     0.666849 
    0.434675     0.349504     0.562090 
    0.534722     0.359001     0.625082 
    0.357528     0.344160     0.474039 
    0.392213     0.665914     0.514450 
    0.309118     0.584584     0.498735 
    0.704338     0.518381     0.413977 
    0.603846     0.675781     0.479100 
    0.689763     0.625787     0.430494 
    0.534794     0.414978     0.347954 
    0.641479     0.427565     0.377596 
    0.433987     0.377167     0.385137 
    0.686568     0.423447     0.486484 
    0.633491     0.408235     0.589905 
    0.446899     0.484644     0.328959 
EA16313 15.353 14.025 13.889 90.00 90.00 90.00 Sym.group:    0
1.0
   15.352907     0.000000     0.000000
    0.000000    14.024888     0.000000
    0.000000     0.000000    13.888789
   W   B
   7  16
Direct
    0.366480     0.522319     0.568574 
    0.560797     0.668412     0.466618 
    0.532265     0.488000     0.520775 
    0.667584     0.537931     0.400589 
    0.412970     0.472016     0.363867 
    0.491571     0.326298     0.451501 
    0.692181     0.590944     0.560985 
    0.466382     0.635821     0.586276 
    0.408010     0.659257     0.489820 
    0.472387     0.437982     0.666049 
    0.486513     0.552593     0.669041 
    0.340980     0.590827     0.428279 
    0.522180     0.346112     0.610240 
    0.441587     0.627461     0.377613 
    0.553608     0.439531     0.357168 
    0.530679     0.561824     0.355688 
    0.625284     0.385526     0.431169 
    0.678728     0.442712     0.528036 
    0.611639     0.348452     0.545864 
    0.295735     0.482929     0.443198 
    0.352614     0.387508     0.479592 
    0.419445     0.375279     0.577331 
    0.570386     0.620267     0.621727 
EA16544 14.818 13.816 14.323 90.00 90.00 90.00 Sym.group:    0
1.0
   14.818217     0.000000     0.000000
    0.000000    13.816441     0.000000
    0.000000     0.000000    14.323488
   W   B
   7  18
Direct
    0.559380     0.660867     0.600471 
    0.642395     0.528080     0.662319 
    0.447766     0.536877     0.668960 
    0.527800     0.505586     0.497943 
    0.358392     0.600234     0.421281 
    0.448571     0.471092     0.333279 
    0.392950     0.350379     0.469247 
    0.633864     0.390384     0.578702 
    0.591473     0.643144     0.440260 
    0.479438     0.678592     0.466171 
    0.689400     0.475491     0.523459 
    0.665675     0.591245     0.516874 
    0.335529     0.557824     0.570712 
    0.413254     0.642139     0.559344 
    0.545723     0.415901     0.649324 
    0.346997     0.436479     0.593641 
    0.535150     0.341131     0.529920 
    0.631752     0.391063     0.459485 
    0.527257     0.355864     0.404694 
    0.297896     0.470881     0.494642 
    0.314968     0.450563     0.384089 
    0.581463     0.556436     0.350476 
    0.595342     0.438698     0.359205 
    0.490450     0.623778     0.359870 
    0.447117     0.387269     0.605633 
EA16804 15.222 14.333 14.282 90.00 90.00 90.00 Sym.group:    0
1.0
   15.222170     0.000000     0.000000
    0.000000    14.332876     0.000000
    0.000000     0.000000    14.282048
   W   B
   9  17
Direct
    0.578479     0.341768     0.430501 
    0.376638     0.408464     0.616181 
    0.550340     0.482513     0.652191 
    0.638224     0.516899     0.454431 
    0.308231     0.526022     0.491877 
    0.512495     0.486668     0.313306 
    0.476356     0.474713     0.490835 
    0.518153     0.640130     0.566922 
    0.352741     0.669030     0.600030 
    0.514015     0.340660     0.578761 
    0.441378     0.315872     0.494550 
    0.423187     0.551016     0.666612 
    0.621155     0.367420     0.578413 
    0.698851     0.385572     0.499360 
    0.655108     0.574015     0.602113 
    0.371130     0.446780     0.368645 
    0.610781     0.669146     0.422865 
    0.406550     0.630178     0.466114 
    0.399667     0.559799     0.371571 
    0.654812     0.658591     0.523401 
    0.593780     0.604621     0.329091 
    0.350790     0.377773     0.464332 
    0.442810     0.357015     0.378911 
    0.315029     0.537996     0.647108 
    0.687119     0.460434     0.592995 
    0.502179     0.616906     0.398882 
EA17139 15.178 14.556 14.328 90.00 90.00 90.00 Sym.group:    0
1.0
   15.177745     0.000000     0.000000
    0.000000    14.555721     0.000000
    0.000000     0.000000    14.327709
   W   B
   9  17
Direct
    0.488363     0.517573     0.496622 
    0.397797     0.677453     0.526293 
    0.389095     0.525541     0.636138 
    0.295665     0.552641     0.473544 
    0.582643     0.677494     0.549925 
    0.612035     0.463280     0.385753 
    0.459156     0.352003     0.398775 
    0.410753     0.348856     0.577541 
    0.567790     0.535340     0.666329 
    0.372805     0.476718     0.376678 
    0.497716     0.666258     0.421677 
    0.410787     0.596535     0.384004 
    0.477378     0.645889     0.647902 
    0.519380     0.582444     0.342666 
    0.333058     0.401051     0.458306 
    0.294987     0.434142     0.561609 
    0.475613     0.481307     0.327897 
    0.682609     0.581827     0.589537 
    0.654454     0.479555     0.543261 
    0.677186     0.580320     0.475859 
    0.479293     0.419412     0.687294 
    0.595072     0.320184     0.421114 
    0.633898     0.373569     0.512854 
    0.539410     0.305906     0.520265 
    0.601316     0.622349     0.407847 
    0.551739     0.382354     0.610310 
EA17642 14.781 14.351 14.202 90.00 90.00 90.00 Sym.group:    0
1.0
   14.780908     0.000000     0.000000
    0.000000    14.351079     0.000000
    0.000000     0.000000    14.202074
   W   B
   8  16
Direct
    0.609201     0.473693     0.642025 
    0.480233     0.495492     0.500505 
    0.405029     0.505025     0.679650 
    0.345194     0.402461     0.422653 
    0.336069     0.622723     0.579835 
    0.564555     0.665347     0.450988 
    0.607339     0.493093     0.381123 
    0.520845     0.621842     0.629696 
    0.483766     0.373520     0.377638 
    0.463345     0.334719     0.496829 
    0.485698     0.382545     0.631662 
    0.650644     0.405884     0.508168 
    0.566991     0.348334     0.561619 
    0.571225     0.354312     0.443197 
    0.383461     0.383494     0.575650 
    0.322109     0.478424     0.551176 
    0.450584     0.475760     0.336404 
    0.367235     0.545843     0.384718 
    0.482590     0.584943     0.356450 
    0.655332     0.603649     0.562524 
    0.700939     0.504299     0.514900 
    0.692012     0.599663     0.449469 
    0.444343     0.702695     0.529165 
    0.411258     0.642240     0.433956 
EA17869 14.186 14.473 14.723 90.00 90.00 90.00 Sym.group:    0
1.0
   14.185852     0.000000     0.000000
    0.000000    14.473394     0.000000
    0.000000     0.000000    14.722657
   W   B
   7  18
Direct
    0.576459     0.468108     0.354265 
    0.639149     0.468193     0.617738 
    0.480830     0.529243     0.700831 
    0.542848     0.681556     0.479404 
    0.485957     0.510340     0.520079 
    0.427317     0.580121     0.362261 
    0.421600     0.335890     0.519643 
    0.554848     0.336884     0.442087 
    0.465017     0.361375     0.376614 
    0.424088     0.445143     0.313836 
    0.569821     0.621659     0.344913 
    0.649871     0.391506     0.484632 
    0.572724     0.609922     0.613697 
    0.571750     0.341178     0.555359 
    0.685632     0.496684     0.470157 
    0.652756     0.591546     0.414809 
    0.504675     0.395560     0.635893 
    0.651392     0.591001     0.530776 
    0.455504     0.642535     0.605246 
    0.396090     0.645496     0.502414 
    0.359535     0.558859     0.593262 
    0.327925     0.554829     0.477713 
    0.390377     0.438207     0.630264 
    0.326642     0.454118     0.531987 
    0.367191     0.450046     0.422119 
EA18383 15.735 13.732 14.270 90.00 90.00 90.00 Sym.group:    0
1.0
   15.735198     0.000000     0.000000
    0.000000    13.731869     0.000000
    0.000000     0.000000    14.270059
   W   B
   6  17
Direct
    0.550879     0.345066     0.413595 
    0.408204     0.599912     0.403913 
    0.670549     0.509420     0.570885 
    0.513853     0.502852     0.506323 
    0.669220     0.491516     0.413705 
    0.362499     0.420623     0.576421 
    0.564116     0.601054     0.377876 
    0.472490     0.325519     0.539825 
    0.348029     0.455089     0.423808 
    0.310120     0.539395     0.493782 
    0.574747     0.356553     0.569017 
    0.664511     0.368029     0.507070 
    0.492102     0.385903     0.639046 
    0.455759     0.496559     0.662569 
    0.623459     0.626791     0.477098 
    0.456863     0.667850     0.541077 
    0.391262     0.574970     0.565728 
    0.565584     0.651412     0.571128 
    0.526027     0.678575     0.457793 
    0.414341     0.360929     0.447428 
    0.488480     0.608206     0.638413 
    0.441424     0.442884     0.363728 
    0.535484     0.490894     0.339773 
EA18503 15.778 14.617 14.468 90.00 90.00 90.00 Sym.group:    0
1.0
   15.777971     0.000000     0.000000
    0.000000    14.617295     0.000000
    0.000000     0.000000    14.467639
   W   B
   9  17
Direct
    0.544893     0.486642     0.506531 
    0.525461     0.444912     0.330478 
    0.448440     0.596712     0.612398 
    0.420192     0.410191     0.601128 
    0.535169     0.308866     0.482817 
    0.400246     0.521780     0.426157 
    0.580367     0.617017     0.391568 
    0.698331     0.563661     0.523210 
    0.702511     0.399992     0.515864 
    0.470896     0.582471     0.307948 
    0.574916     0.647295     0.545147 
    0.659573     0.488471     0.395298 
    0.444837     0.662795     0.384362 
    0.489954     0.683303     0.487523 
    0.630966     0.376776     0.396442 
    0.536818     0.477010     0.662384 
    0.578376     0.374652     0.612043 
    0.595810     0.573968     0.631103 
    0.641919     0.471138     0.630705 
    0.341356     0.388341     0.473501 
    0.306647     0.476940     0.532620 
    0.333665     0.523331     0.633230 
    0.404280     0.300962     0.491177 
    0.426504     0.367301     0.397711 
    0.322635     0.592656     0.541735 
    0.385234     0.662815     0.486919 
EA18831 15.754 14.682 14.419 90.00 90.00 90.00 Sym.group:    0
1.0
   15.753967     0.000000     0.000000
    0.000000    14.682249     0.000000
    0.000000     0.000000    14.418533
   W   B
   9  17
Direct
    0.543696     0.479783     0.505468 
    0.520544     0.442801     0.328989 
    0.458865     0.600777     0.612571 
    0.413761     0.422033     0.603654 
    0.514437     0.304597     0.487718 
    0.403069     0.532707     0.427902 
    0.589094     0.606266     0.387086 
    0.704015     0.540387     0.516240 
    0.693340     0.379158     0.513143 
    0.476689     0.581212     0.305514 
    0.586853     0.635256     0.540667 
    0.655110     0.472625     0.389863 
    0.459104     0.665509     0.381615 
    0.506697     0.682260     0.484099 
    0.615286     0.365724     0.400338 
    0.538146     0.475160     0.662276 
    0.568111     0.369686     0.613055 
    0.603824     0.565077     0.630205 
    0.641161     0.458185     0.630791 
    0.330922     0.406159     0.475733 
    0.305039     0.498617     0.535136 
    0.336548     0.541284     0.636484 
    0.384410     0.312068     0.494457 
    0.416254     0.377943     0.404403 
    0.333248     0.610995     0.544894 
    0.401781     0.673730     0.487698 
EA19219 14.827 14.318 14.581 90.00 90.00 90.00 Sym.group:    0
1.0
   14.826524     0.000000     0.000000
    0.000000    14.318146     0.000000
    0.000000     0.000000    14.581453
   W   B
   8  17
Direct
    0.419714     0.637618     0.405081 
    0.496884     0.309366     0.515142 
    0.497556     0.484953     0.331809 
    0.372918     0.389769     0.433184 
    0.415957     0.539883     0.655701 
    0.518827     0.508909     0.501955 
    0.675991     0.508443     0.570148 
    0.559390     0.634655     0.639334 
    0.347796     0.595489     0.533453 
    0.583953     0.365183     0.397263 
    0.484991     0.329199     0.362061 
    0.324790     0.477356     0.546616 
    0.313890     0.532671     0.442874 
    0.358516     0.515430     0.341429 
    0.381525     0.386091     0.588310 
    0.569490     0.628039     0.396376 
    0.437078     0.660787     0.557349 
    0.530175     0.683010     0.496668 
    0.559442     0.487670     0.668761 
    0.635679     0.640873     0.508973 
    0.661789     0.565162     0.427339 
    0.658440     0.450743     0.422302 
    0.624987     0.378676     0.505194 
    0.480270     0.402151     0.639748 
    0.589952     0.387873     0.612929 
EA19702 14.692 13.713 13.808 90.00 90.00 90.00 Sym.group:    0
1.0
   14.692297     0.000000     0.000000
    0.000000    13.712910     0.000000
    0.000000     0.000000    13.807753
   W   B
   6  17
Direct
    0.513527     0.496731     0.517350 
    0.564230     0.623860     0.380687 
    0.496369     0.342022     0.415268 
    0.428307     0.507727     0.336582 
    0.427180     0.656778     0.559124 
    0.326635     0.494543     0.566811 
    0.533774     0.590005     0.660825 
    0.629802     0.553570     0.613535 
    0.607838     0.357496     0.537414 
    0.506808     0.335692     0.583031 
    0.634383     0.399598     0.431088 
    0.656918     0.587979     0.502701 
    0.664192     0.465070     0.534714 
    0.576149     0.466324     0.343296 
    0.667952     0.514930     0.406833 
    0.579711     0.653974     0.560703 
    0.295055     0.491332     0.412132 
    0.360887     0.399742     0.433866 
    0.403472     0.357875     0.543542 
    0.337212     0.595049     0.444214 
    0.431408     0.535572     0.670699 
    0.436213     0.414854     0.647203 
    0.421977     0.659280     0.398384 
EA20067 14.723 13.833 13.766 90.00 90.00 90.00 Sym.group:    0
1.0
   14.722911     0.000000     0.000000
    0.000000    13.833387     0.000000
    0.000000     0.000000    13.765621
   W   B
   6  17
Direct
    0.478867     0.503656     0.521048 
    0.444535     0.388735     0.377656 
    0.510778     0.668120     0.434963 
    0.575340     0.514969     0.350183 
    0.564779     0.335999     0.531217 
    0.665001     0.485281     0.554624 
    0.457486     0.390392     0.644121 
    0.361160     0.439255     0.610651 
    0.395661     0.642979     0.561269 
    0.497506     0.650910     0.604885 
    0.369141     0.614901     0.448336 
    0.333662     0.418860     0.496162 
    0.330560     0.539574     0.543183 
    0.426864     0.550924     0.355719 
    0.338489     0.503496     0.415123 
    0.414666     0.345871     0.534759 
    0.708375     0.513256     0.412007 
    0.653273     0.612833     0.446283 
    0.600230     0.631589     0.556647 
    0.668485     0.399779     0.421866 
    0.560324     0.439307     0.657724 
    0.565275     0.560348     0.651833 
    0.579545     0.348963     0.369741 
EA20214 16.475 14.521 13.964 90.00 90.00 90.00 Sym.group:    0
1.0
   16.474556     0.000000     0.000000
    0.000000    14.521257     0.000000
    0.000000     0.000000    13.963710
   W   B
  10  16
Direct
    0.541046     0.435018     0.654571 
    0.565888     0.377039     0.394464 
    0.656701     0.379439     0.540022 
    0.386498     0.473655     0.599511 
    0.522218     0.514153     0.494630 
    0.461014     0.612830     0.666780 
    0.413591     0.422792     0.371040 
    0.405935     0.651817     0.500108 
    0.536633     0.664364     0.391283 
    0.657679     0.615875     0.487651 
    0.446601     0.340130     0.587128 
    0.538703     0.314944     0.541015 
    0.660344     0.512870     0.606721 
    0.681180     0.478074     0.421301 
    0.732425     0.496162     0.521439 
    0.370560     0.354586     0.502369 
    0.459687     0.311863     0.462120 
    0.332199     0.609397     0.621083 
    0.430220     0.572684     0.364159 
    0.539299     0.670024     0.554695 
    0.297607     0.557343     0.520978 
    0.339567     0.545078     0.412183 
    0.587719     0.589221     0.630278 
    0.514243     0.518414     0.322536 
    0.609982     0.534512     0.360689 
    0.312461     0.447717     0.471243 
EA20561 15.464 14.939 13.860 90.00 90.00 90.00 Sym.group:    0
1.0
   15.464251     0.000000     0.000000
    0.000000    14.938553     0.000000
    0.000000     0.000000    13.860387
   W   B
  10  16
Direct
    0.608160     0.655482     0.463208 
    0.594032     0.456634     0.641348 
    0.571367     0.516727     0.350709 
    0.519431     0.340912     0.547005 
    0.402414     0.439338     0.644549 
    0.461947     0.689879     0.396913 
    0.362431     0.445682     0.371528 
    0.299633     0.520014     0.528138 
    0.479198     0.523946     0.500725 
    0.485303     0.697713     0.578000 
    0.584359     0.601847     0.613306 
    0.674334     0.562397     0.562202 
    0.704879     0.462494     0.537087 
    0.653240     0.369295     0.520294 
    0.679121     0.438268     0.419018 
    0.695494     0.543179     0.443192 
    0.593257     0.376826     0.414497 
    0.487099     0.382801     0.399372 
    0.401489     0.328234     0.452435 
    0.318585     0.380385     0.510011 
    0.383630     0.312819     0.571713 
    0.435932     0.563445     0.330960 
    0.370019     0.643823     0.510782 
    0.353370     0.590262     0.403093 
    0.390356     0.593915     0.622983 
    0.490924     0.563687     0.666931 
EA20899 16.231 14.472 14.128 90.00 90.00 90.00 Sym.group:    0
1.0
   16.230710     0.000000     0.000000
    0.000000    14.472162     0.000000
    0.000000     0.000000    14.128262
   W   B
  10  16
Direct
    0.539625     0.553063     0.660713 
    0.572861     0.630644     0.409667 
    0.662159     0.612765     0.557736 
    0.383289     0.517214     0.602738 
    0.522595     0.488297     0.494158 
    0.453643     0.369222     0.651490 
    0.415344     0.593480     0.375732 
    0.401086     0.352303     0.480954 
    0.535388     0.348064     0.374957 
    0.656799     0.380587     0.481331 
    0.447252     0.651555     0.600404 
    0.542188     0.677361     0.559851 
    0.658529     0.472324     0.608537 
    0.685582     0.524095     0.431683 
    0.734792     0.494170     0.529441 
    0.373108     0.645629     0.513888 
    0.464076     0.690457     0.479833 
    0.324301     0.381594     0.602154 
    0.430899     0.444669     0.355766 
    0.534260     0.325378     0.535835 
    0.294515     0.447072     0.509151 
    0.338327     0.468187     0.402982 
    0.582645     0.395998     0.621630 
    0.518494     0.500577     0.323941 
    0.614358     0.476210     0.362679 
    0.313885     0.559085     0.472749 
EA21238 16.322 14.583 13.916 90.00 90.00 90.00 Sym.group:    0
1.0
   16.321914     0.000000     0.000000
    0.000000    14.583422     0.000000
    0.000000     0.000000    13.916478
   W   B
  10  16
Direct
    0.456116     0.554980     0.659566 
    0.429658     0.628724     0.403537 
    0.337418     0.612696     0.546762 
    0.612367     0.518778     0.607114 
    0.478640     0.486151     0.493083 
    0.541290     0.372781     0.656972 
    0.586668     0.591441     0.377942 
    0.599719     0.352339     0.487582 
    0.468771     0.345939     0.375183 
    0.344476     0.380643     0.476699 
    0.549373     0.652810     0.601502 
    0.456094     0.678004     0.557149 
    0.339853     0.474812     0.603601 
    0.316512     0.521251     0.421749 
    0.265772     0.493998     0.520420 
    0.625914     0.646307     0.517321 
    0.535949     0.690238     0.478606 
    0.672298     0.385132     0.612398 
    0.572711     0.442334     0.358211 
    0.465066     0.326228     0.538152 
    0.704721     0.448371     0.518089 
    0.662947     0.467855     0.409506 
    0.414224     0.398544     0.621797 
    0.486776     0.496950     0.321303 
    0.390477     0.473158     0.356952 
    0.686189     0.559534     0.478805 
EA21576 16.375 14.426 13.922 90.00 90.00 90.00 Sym.group:    0
1.0
   16.374880     0.000000     0.000000
    0.000000    14.425704     0.000000
    0.000000     0.000000    13.921586
   W   B
  10  16
Direct
    0.542920     0.554505     0.660671 
    0.570274     0.630402     0.404809 
    0.661803     0.613437     0.549402 
    0.387334     0.518308     0.607187 
    0.521775     0.487307     0.494001 
    0.459065     0.369319     0.654428 
    0.413953     0.593244     0.377740 
    0.400484     0.350964     0.485413 
    0.532215     0.346118     0.373825 
    0.655409     0.379810     0.476913 
    0.449873     0.653670     0.602372 
    0.543156     0.678657     0.558432 
    0.658958     0.473777     0.604855 
    0.683192     0.522252     0.423605 
    0.733371     0.493921     0.522439 
    0.374136     0.647386     0.517409 
    0.463881     0.691675     0.479589 
    0.328218     0.382977     0.610591 
    0.428003     0.442874     0.357525 
    0.534921     0.324529     0.535723 
    0.296133     0.447466     0.516343 
    0.337515     0.467999     0.407789 
    0.585216     0.396400     0.621463 
    0.513859     0.498717     0.321665 
    0.609733     0.474370     0.357741 
    0.314600     0.559918     0.478069 
EA21810 15.635 15.179 14.791 90.00 90.00 90.00 Sym.group:    0
1.0
   15.635062     0.000000     0.000000
    0.000000    15.179110     0.000000
    0.000000     0.000000    14.791348
   W   B
  10  20
Direct
    0.486428     0.525138     0.488093 
    0.456396     0.686064     0.489477 
    0.262621     0.510777     0.545756 
    0.382590     0.480388     0.641282 
    0.438727     0.381839     0.383755 
    0.506574     0.520327     0.291191 
    0.638529     0.544201     0.371155 
    0.550360     0.410418     0.637445 
    0.582651     0.638401     0.611057 
    0.562190     0.319117     0.465212 
    0.450139     0.615932     0.620921 
    0.354128     0.609106     0.560461 
    0.424528     0.621219     0.359783 
    0.506460     0.543046     0.685843 
    0.416553     0.352482     0.612785 
    0.424222     0.302921     0.506506 
    0.328098     0.473185     0.430070 
    0.383042     0.519629     0.348196 
    0.365661     0.403763     0.514466 
    0.493469     0.287132     0.589481 
    0.528112     0.644569     0.364053 
    0.590801     0.656182     0.457473 
    0.664771     0.410997     0.420035 
    0.610021     0.527457     0.696167 
    0.707671     0.488630     0.489107 
    0.663894     0.511612     0.596406 
    0.662094     0.589018     0.508876 
    0.582374     0.408008     0.344918 
    0.352555     0.588571     0.446068 
    0.624339     0.429870     0.523965 
EA22278 16.562 14.420 13.827 90.00 90.00 90.00 Sym.group:    0
1.0
   16.561767     0.000000     0.000000
    0.000000    14.419542     0.000000
    0.000000     0.000000    13.826623
   W   B
  10  16
Direct
    0.476804     0.657703     0.428642 
    0.370772     0.649366     0.572152 
    0.479887     0.495041     0.496688 
    0.627337     0.582894     0.405255 
    0.449889     0.382436     0.361370 
    0.321371     0.453556     0.416962 
    0.358470     0.464507     0.604790 
    0.602172     0.540446     0.617716 
    0.370547     0.310940     0.499904 
    0.253990     0.569479     0.524166 
    0.507640     0.646411     0.585063 
    0.345688     0.610093     0.418525 
    0.684832     0.621744     0.535307 
    0.593973     0.671237     0.528436 
    0.576467     0.448423     0.357206 
    0.659254     0.440041     0.426161 
    0.512387     0.538919     0.331834 
    0.412159     0.545229     0.348260 
    0.699998     0.508230     0.513050 
    0.489450     0.453006     0.663005 
    0.557653     0.389700     0.587179 
    0.459725     0.352490     0.614677 
    0.498840     0.317446     0.505149 
    0.576833     0.371048     0.454316 
    0.650571     0.414988     0.548387 
    0.463289     0.564630     0.655799 
EA22691 15.044 14.315 13.863 90.00 90.00 90.00 Sym.group:    0
1.0
   15.043587     0.000000     0.000000
    0.000000    14.314869     0.000000
    0.000000     0.000000    13.863455
   W   B
   8  17
Direct
    0.461715     0.671890     0.466649 
    0.456170     0.335609     0.537313 
    0.530367     0.490583     0.491895 
    0.703020     0.558517     0.460137 
    0.436243     0.418122     0.352325 
    0.426444     0.474855     0.654962 
    0.569309     0.325875     0.385300 
    0.616176     0.487746     0.323523 
    0.328288     0.483690     0.447064 
    0.313707     0.525122     0.569218 
    0.392204     0.566789     0.385312 
    0.332774     0.601487     0.479796 
    0.587913     0.627705     0.398474 
    0.496414     0.576213     0.342902 
    0.592731     0.645085     0.523188 
    0.337913     0.367662     0.448019 
    0.328492     0.410135     0.560508 
    0.606082     0.350249     0.539124 
    0.651713     0.457455     0.581093 
    0.556974     0.400561     0.635637 
    0.569454     0.516319     0.661546 
    0.647868     0.577319     0.603960 
    0.389193     0.609318     0.587929 
    0.666247     0.416576     0.460803 
    0.502589     0.605120     0.603324 
EA23148 14.575 14.084 14.488 90.00 90.00 90.00 Sym.group:    0
1.0
   14.574680     0.000000     0.000000
    0.000000    14.083985     0.000000
    0.000000     0.000000    14.487970
   W   B
   6  16
Direct
    0.499369     0.489249     0.499241 
    0.477819     0.438528     0.663284 
    0.657237     0.614091     0.515684 
    0.626714     0.344515     0.438265 
    0.516516     0.632396     0.623452 
    0.396708     0.668145     0.514857 
    0.368204     0.413069     0.456186 
    0.423654     0.448756     0.363781 
    0.381379     0.549273     0.618091 
    0.353956     0.438032     0.572473 
    0.333377     0.531934     0.506889 
    0.525263     0.318395     0.540574 
    0.606579     0.391058     0.580961 
    0.419160     0.348947     0.547159 
    0.672218     0.465411     0.517816 
    0.537457     0.688599     0.474877 
    0.577861     0.602487     0.394422 
    0.467784     0.636099     0.390529 
    0.380255     0.557303     0.400558 
    0.537081     0.422424     0.359136 
    0.630541     0.496073     0.405026 
    0.610865     0.505214     0.616739 
EA23365 15.132 14.167 13.968 90.00 90.00 90.00 Sym.group:    0
1.0
   15.132192     0.000000     0.000000
    0.000000    14.166686     0.000000
    0.000000     0.000000    13.967649
   W   B
   9  16
Direct
    0.545590     0.649780     0.406704 
    0.542204     0.355722     0.599510 
    0.467385     0.487594     0.495502 
    0.300228     0.555238     0.436910 
    0.557773     0.370583     0.399147 
    0.576169     0.527689     0.652562 
    0.410730     0.296478     0.439336 
    0.377030     0.443978     0.336317 
    0.380027     0.336317     0.606649 
    0.668548     0.460435     0.456499 
    0.690134     0.540060     0.552845 
    0.609828     0.519348     0.366618 
    0.670771     0.584697     0.443193 
    0.416740     0.598665     0.358868 
    0.504176     0.520961     0.328192 
    0.414481     0.652416     0.471743 
    0.658462     0.351087     0.500792 
    0.673112     0.429813     0.588988 
    0.345928     0.494289     0.593659 
    0.442588     0.457219     0.666802 
    0.437568     0.573898     0.643093 
    0.359674     0.613521     0.567699 
    0.326728     0.417333     0.489789 
    0.506320     0.635240     0.556562 
    0.617806     0.627643     0.542019 
EA23837 15.554 14.003 15.233 90.00 90.00 90.00 Sym.group:    0
1.0
   15.554072     0.000000     0.000000
    0.000000    14.003471     0.000000
    0.000000     0.000000    15.233395
   W   B
   6  16
Direct
    0.401937     0.458890     0.580610 
    0.602378     0.487682     0.540926 
    0.555329     0.381809     0.395131 
    0.461594     0.545573     0.439665 
    0.431147     0.629579     0.618824 
    0.585914     0.656587     0.491914 
    0.598657     0.329054     0.533227 
    0.496577     0.348908     0.526327 
    0.676209     0.374848     0.479898 
    0.685545     0.466642     0.414775 
    0.526384     0.393540     0.622502 
    0.422528     0.379621     0.450262 
    0.520940     0.508028     0.660935 
    0.572359     0.609123     0.629219 
    0.684603     0.585678     0.419892 
    0.445628     0.694553     0.493113 
    0.308930     0.577072     0.576194 
    0.351222     0.644106     0.498674 
    0.426463     0.421496     0.350221 
    0.342004     0.446295     0.409135 
    0.593961     0.531288     0.391680 
    0.309691     0.529627     0.476878 
EA24177 15.764 14.081 13.386 90.00 90.00 90.00 Sym.group:    0
1.0
   15.763879     0.000000     0.000000
    0.000000    14.081246     0.000000
    0.000000     0.000000    13.385582
   W   B
   6  16
Direct
    0.415901     0.455493     0.402836 
    0.587338     0.548603     0.449903 
    0.606233     0.390314     0.556091 
    0.456493     0.491013     0.588074 
    0.371059     0.630383     0.454021 
    0.519045     0.663213     0.583934 
    0.655887     0.405777     0.394819 
    0.554185     0.389065     0.394763 
    0.711523     0.462011     0.470894 
    0.690707     0.522636     0.571408 
    0.528651     0.487048     0.322479 
    0.486792     0.344438     0.484770 
    0.478945     0.589725     0.350215 
    0.506338     0.673974     0.429766 
    0.647891     0.627518     0.596972 
    0.382783     0.625737     0.612241 
    0.290642     0.513480     0.458074 
    0.316505     0.544714     0.574649 
    0.486480     0.333138     0.606890 
    0.393844     0.346489     0.540847 
    0.591258     0.527801     0.623836 
    0.321500     0.427431     0.532518 
EA24505 15.764 14.081 13.386 90.00 90.00 90.00 Sym.group:    0
1.0
   15.763879     0.000000     0.000000
    0.000000    14.081246     0.000000
    0.000000     0.000000    13.385582
   W   B
   6  16
Direct
    0.415901     0.455493     0.402836 
    0.587338     0.548603     0.449903 
    0.606233     0.390314     0.556091 
    0.456493     0.491013     0.588074 
    0.371059     0.630383     0.454021 
    0.519045     0.663213     0.583934 
    0.655887     0.405777     0.394819 
    0.554185     0.389065     0.394763 
    0.711523     0.462011     0.470894 
    0.690707     0.522636     0.571408 
    0.528651     0.487048     0.322479 
    0.486792     0.344438     0.484770 
    0.478945     0.589725     0.350215 
    0.506338     0.673974     0.429766 
    0.647891     0.627518     0.596972 
    0.382783     0.625737     0.612241 
    0.290642     0.513480     0.458074 
    0.316505     0.544714     0.574649 
    0.486480     0.333138     0.606890 
    0.393844     0.346489     0.540847 
    0.591258     0.527801     0.623836 
    0.321500     0.427431     0.532518 
EA24853 15.803 14.044 13.211 90.00 90.00 90.00 Sym.group:    0
1.0
   15.803066     0.000000     0.000000
    0.000000    14.044005     0.000000
    0.000000     0.000000    13.211264
   W   B
   6  16
Direct
    0.578801     0.433784     0.407203 
    0.413331     0.544195     0.443051 
    0.393341     0.407457     0.583584 
    0.546384     0.503722     0.588973 
    0.632682     0.611733     0.421846 
    0.491560     0.674758     0.553001 
    0.333181     0.395267     0.426071 
    0.434776     0.377471     0.417588 
    0.284947     0.470377     0.490888 
    0.313415     0.547390     0.576147 
    0.466361     0.459576     0.325332 
    0.505568     0.344635     0.512193 
    0.520178     0.562474     0.331621 
    0.498232     0.659771     0.396712 
    0.362381     0.651329     0.580135 
    0.626230     0.636805     0.581001 
    0.708164     0.493335     0.446296 
    0.687182     0.545923     0.557765 
    0.511615     0.352591     0.636816 
    0.600651     0.349726     0.562936 
    0.415099     0.554066     0.622502 
    0.675923     0.423614     0.538339 
EA24926 14.881 14.594 14.321 90.00 90.00 90.00 Sym.group:    0
1.0
   14.880762     0.000000     0.000000
    0.000000    14.594156     0.000000
    0.000000     0.000000    14.321132
   W   B
   8  19
Direct
    0.562106     0.464523     0.647792 
    0.498589     0.687806     0.504554 
    0.387496     0.502942     0.678287 
    0.467637     0.502628     0.500936 
    0.338292     0.634955     0.438741 
    0.599037     0.340347     0.435200 
    0.416054     0.519116     0.328148 
    0.582099     0.603058     0.374996 
    0.670310     0.549902     0.583021 
    0.640436     0.644680     0.511527 
    0.586193     0.617403     0.612375 
    0.631670     0.351644     0.576687 
    0.693193     0.554215     0.467375 
    0.667142     0.448570     0.525392 
    0.384019     0.624744     0.584480 
    0.480645     0.607710     0.642575 
    0.430366     0.382399     0.607542 
    0.340361     0.423910     0.550579 
    0.315660     0.538297     0.552059 
    0.521331     0.330693     0.564409 
    0.373785     0.390555     0.428968 
    0.453615     0.663396     0.358166 
    0.316061     0.486334     0.444225 
    0.459045     0.315808     0.464866 
    0.473176     0.382711     0.370207 
    0.554821     0.461078     0.348267 
    0.656862     0.470576     0.398626 
EA25342 15.233 14.874 13.953 90.00 90.00 90.00 Sym.group:    0
1.0
   15.232961     0.000000     0.000000
    0.000000    14.873920     0.000000
    0.000000     0.000000    13.952588
   W   B
  10  16
Direct
    0.487383     0.529139     0.484239 
    0.593532     0.555045     0.672868 
    0.636328     0.627545     0.493775 
    0.575107     0.318757     0.364577 
    0.490471     0.421604     0.627991 
    0.601511     0.498322     0.357670 
    0.446263     0.417596     0.341315 
    0.340767     0.404972     0.486221 
    0.335245     0.543233     0.379739 
    0.430444     0.594308     0.649052 
    0.546376     0.670787     0.607865 
    0.703985     0.500958     0.470755 
    0.706191     0.534416     0.584417 
    0.638231     0.443352     0.572724 
    0.570179     0.379341     0.504880 
    0.471657     0.568153     0.321049 
    0.358321     0.360645     0.639135 
    0.376523     0.638108     0.499761 
    0.328380     0.541832     0.539589 
    0.433905     0.653716     0.397501 
    0.484442     0.677056     0.509686 
    0.346898     0.469322     0.632582 
    0.474602     0.317951     0.474041 
    0.544752     0.638654     0.371826 
    0.665365     0.396455     0.448052 
    0.413144     0.298734     0.568689 
EA25544 15.171 15.113 15.075 90.00 90.00 90.00 Sym.group:    0
1.0
   15.170648     0.000000     0.000000
    0.000000    15.112698     0.000000
    0.000000     0.000000    15.074966
   W   B
  10  19
Direct
    0.489865     0.494585     0.488609 
    0.423047     0.393884     0.642213 
    0.343196     0.545307     0.592781 
    0.494385     0.411833     0.328526 
    0.495543     0.315323     0.483349 
    0.498371     0.633125     0.630552 
    0.643394     0.613710     0.421708 
    0.592328     0.392796     0.594283 
    0.500307     0.672674     0.397553 
    0.655191     0.450728     0.390963 
    0.645233     0.324946     0.472281 
    0.321114     0.462969     0.474041 
    0.296341     0.416411     0.574068 
    0.369790     0.574422     0.441799 
    0.361010     0.346704     0.521360 
    0.386186     0.381002     0.417420 
    0.595366     0.323100     0.372248 
    0.367933     0.478929     0.374313 
    0.439032     0.553540     0.344556 
    0.599497     0.532659     0.626425 
    0.525043     0.488986     0.692234 
    0.708992     0.405617     0.514088 
    0.583218     0.704985     0.523160 
    0.479602     0.732293     0.526973 
    0.668191     0.509091     0.536384 
    0.424962     0.526606     0.703306 
    0.551263     0.544339     0.333535 
    0.632336     0.617557     0.566192 
    0.409264     0.651878     0.515078 
EA26090 15.783 14.535 13.642 90.00 90.00 90.00 Sym.group:    0
1.0
   15.782939     0.000000     0.000000
    0.000000    14.534622     0.000000
    0.000000     0.000000    13.641838
   W   B
   9  16
Direct
    0.494800     0.484948     0.485504 
    0.374128     0.462422     0.628417 
    0.333462     0.545880     0.460171 
    0.597943     0.354371     0.492295 
    0.558409     0.462102     0.655637 
    0.642035     0.468058     0.362981 
    0.387743     0.388453     0.372633 
    0.464079     0.658915     0.423972 
    0.578736     0.625409     0.574923 
    0.380000     0.340291     0.527130 
    0.301340     0.407408     0.500318 
    0.463507     0.580366     0.655642 
    0.358680     0.607208     0.610304 
    0.426147     0.533018     0.337409 
    0.361375     0.683348     0.520611 
    0.452180     0.679666     0.582856 
    0.505062     0.449703     0.314328 
    0.531866     0.561155     0.332480 
    0.467127     0.309556     0.471163 
    0.472180     0.350779     0.591216 
    0.678680     0.522600     0.597284 
    0.676612     0.409324     0.605759 
    0.710287     0.450730     0.499010 
    0.683164     0.562345     0.479825 
    0.600463     0.601947     0.418131 
EA26243 16.828 15.250 14.193 90.00 90.00 90.00 Sym.group:    0
1.0
   16.827800     0.000000     0.000000
    0.000000    15.249556     0.000000
    0.000000     0.000000    14.192643
   W   B
  10  19
Direct
    0.586479     0.471515     0.522422 
    0.603660     0.592524     0.645408 
    0.550968     0.558280     0.368564 
    0.512953     0.711245     0.424140 
    0.545922     0.373706     0.378274 
    0.429723     0.418226     0.590105 
    0.463984     0.600664     0.539506 
    0.403203     0.483224     0.401193 
    0.296437     0.495876     0.545214 
    0.328883     0.642661     0.442215 
    0.566207     0.693628     0.559286 
    0.716616     0.466309     0.477395 
    0.696741     0.552720     0.546270 
    0.677511     0.556148     0.424298 
    0.605561     0.321741     0.509524 
    0.673137     0.373260     0.448414 
    0.654900     0.459290     0.374795 
    0.434655     0.617684     0.364999 
    0.623779     0.625369     0.490170 
    0.482348     0.525289     0.674886 
    0.381362     0.544381     0.650479 
    0.340642     0.625940     0.588911 
    0.273266     0.530417     0.392729 
    0.336884     0.371803     0.482446 
    0.276498     0.427021     0.415030 
    0.428543     0.344161     0.447566 
    0.545042     0.443750     0.672714 
    0.555353     0.353184     0.611465 
    0.508745     0.319982     0.511583 
EA26573 16.828 15.250 14.193 90.00 90.00 90.00 Sym.group:    0
1.0
   16.827800     0.000000     0.000000
    0.000000    15.249556     0.000000
    0.000000     0.000000    14.192643
   W   B
  10  19
Direct
    0.586479     0.471515     0.522422 
    0.603660     0.592524     0.645408 
    0.550968     0.558280     0.368564 
    0.512953     0.711245     0.424140 
    0.545922     0.373706     0.378274 
    0.429723     0.418226     0.590105 
    0.463984     0.600664     0.539506 
    0.403203     0.483224     0.401193 
    0.296437     0.495876     0.545214 
    0.328883     0.642661     0.442215 
    0.566207     0.693628     0.559286 
    0.716616     0.466309     0.477395 
    0.696741     0.552720     0.546270 
    0.677511     0.556148     0.424298 
    0.605561     0.321741     0.509524 
    0.673137     0.373260     0.448414 
    0.654900     0.459290     0.374795 
    0.434655     0.617684     0.364999 
    0.623779     0.625369     0.490170 
    0.482348     0.525289     0.674886 
    0.381362     0.544381     0.650479 
    0.340642     0.625940     0.588911 
    0.273266     0.530417     0.392729 
    0.336884     0.371803     0.482446 
    0.276498     0.427021     0.415030 
    0.428543     0.344161     0.447566 
    0.545042     0.443750     0.672714 
    0.555353     0.353184     0.611465 
    0.508745     0.319982     0.511583 
EA26927 16.649 14.442 13.857 90.00 90.00 90.00 Sym.group:    0
1.0
   16.648904     0.000000     0.000000
    0.000000    14.441784     0.000000
    0.000000     0.000000    13.857301
   W   B
  10  20
Direct
    0.534824     0.472616     0.490009 
    0.439809     0.329633     0.443931 
    0.325747     0.576901     0.393897 
    0.492131     0.584631     0.364121 
    0.673010     0.425402     0.457780 
    0.640749     0.456364     0.657593 
    0.535142     0.673325     0.526363 
    0.492389     0.346637     0.611583 
    0.501197     0.535177     0.654051 
    0.294190     0.420659     0.446862 
    0.572523     0.305794     0.483971 
    0.565352     0.351851     0.374938 
    0.400724     0.457427     0.365108 
    0.626904     0.337994     0.577395 
    0.492777     0.426164     0.333517 
    0.354151     0.354574     0.574660 
    0.703180     0.572916     0.441787 
    0.617996     0.640571     0.411503 
    0.641922     0.545154     0.350637 
    0.589198     0.456035     0.325008 
    0.274754     0.543294     0.537298 
    0.304507     0.452000     0.599918 
    0.370428     0.551572     0.625384 
    0.620980     0.600998     0.616939 
    0.664904     0.652817     0.518516 
    0.703607     0.543755     0.559191 
    0.335754     0.631182     0.538504 
    0.422089     0.651490     0.599087 
    0.411955     0.662164     0.470751 
    0.397109     0.440904     0.649697 
EA27264 15.783 14.882 14.460 90.00 90.00 90.00 Sym.group:    0
1.0
   15.782581     0.000000     0.000000
    0.000000    14.881500     0.000000
    0.000000     0.000000    14.459509
   W   B
  10  19
Direct
    0.473190     0.492326     0.485444 
    0.444846     0.423990     0.667839 
    0.481115     0.313251     0.523342 
    0.362433     0.604873     0.399387 
    0.360616     0.584169     0.588545 
    0.618594     0.411704     0.530498 
    0.617937     0.610279     0.421468 
    0.522785     0.571578     0.644775 
    0.580859     0.473413     0.331643 
    0.280330     0.479548     0.490974 
    0.460361     0.693552     0.582119 
    0.370455     0.372419     0.446319 
    0.356882     0.371543     0.561837 
    0.460093     0.386483     0.374861 
    0.315591     0.449338     0.634536 
    0.388217     0.703108     0.500830 
    0.359004     0.456092     0.370293 
    0.444124     0.500453     0.323242 
    0.652503     0.516613     0.631480 
    0.588963     0.440923     0.682806 
    0.560120     0.678978     0.544926 
    0.696622     0.483966     0.419411 
    0.662810     0.379024     0.391500 
    0.642505     0.616810     0.575375 
    0.556790     0.338860     0.644663 
    0.495581     0.596874     0.353979 
    0.697780     0.537726     0.521665 
    0.563048     0.342662     0.402099 
    0.485847     0.669444     0.454146 
EA27912 15.249 13.987 13.983 90.00 90.00 90.00 Sym.group:    0
1.0
   15.248524     0.000000     0.000000
    0.000000    13.986884     0.000000
    0.000000     0.000000    13.983309
   W   B
   6  16
Direct
    0.576730     0.519157     0.470710 
    0.422799     0.402757     0.402409 
    0.424842     0.580779     0.399544 
    0.457517     0.612881     0.587816 
    0.439241     0.434387     0.592307 
    0.594571     0.367218     0.615070 
    0.522333     0.481652     0.317468 
    0.562527     0.381055     0.372159 
    0.639670     0.366485     0.456515 
    0.556283     0.589614     0.321341 
    0.695730     0.433580     0.525474 
    0.572644     0.667897     0.400580 
    0.531100     0.343195     0.482554 
    0.339201     0.557090     0.638286 
    0.313310     0.494504     0.451129 
    0.329694     0.591223     0.520470 
    0.582939     0.679827     0.511047 
    0.605666     0.612534     0.602856 
    0.663745     0.507576     0.605058 
    0.559016     0.514481     0.647820 
    0.291633     0.475392     0.573781 
    0.318807     0.386715     0.505606 
EA27937 15.807 14.970 14.404 90.00 90.00 90.00 Sym.group:    0
1.0
   15.807183     0.000000     0.000000
    0.000000    14.970180     0.000000
    0.000000     0.000000    14.404459
   W   B
  10  19
Direct
    0.477798     0.492863     0.488307 
    0.442308     0.431118     0.665078 
    0.481609     0.316606     0.531494 
    0.362707     0.596370     0.396408 
    0.361315     0.591335     0.581788 
    0.623818     0.405679     0.539190 
    0.617557     0.607665     0.420377 
    0.520399     0.580685     0.646804 
    0.582090     0.468114     0.333881 
    0.278757     0.476416     0.482181 
    0.459920     0.698361     0.572863 
    0.370622     0.368580     0.447046 
    0.353201     0.373225     0.561785 
    0.462585     0.382828     0.379349 
    0.314110     0.457409     0.625916 
    0.388742     0.703629     0.490422 
    0.361485     0.448192     0.367032 
    0.446412     0.494684     0.323158 
    0.649024     0.521206     0.633623 
    0.585169     0.448407     0.686114 
    0.560357     0.680456     0.540450 
    0.697085     0.481016     0.424099 
    0.664867     0.376194     0.397061 
    0.640109     0.618046     0.574449 
    0.554720     0.344751     0.654609 
    0.497594     0.591031     0.353450 
    0.694016     0.535953     0.524648 
    0.564683     0.341333     0.410136 
    0.486940     0.667846     0.448283 
EA28283 15.854 14.960 14.320 90.00 90.00 90.00 Sym.group:    0
1.0
   15.854171     0.000000     0.000000
    0.000000    14.960186     0.000000
    0.000000     0.000000    14.319502
   W   B
  10  19
Direct
    0.528660     0.508639     0.488446 
    0.540529     0.554549     0.679597 
    0.515739     0.682631     0.549425 
    0.646668     0.407655     0.400473 
    0.629327     0.404884     0.591857 
    0.382074     0.579097     0.531771 
    0.390964     0.403047     0.397393 
    0.463588     0.410087     0.631934 
    0.434485     0.548391     0.327598 
    0.718231     0.520745     0.513573 
    0.532180     0.297809     0.560304 
    0.632672     0.633059     0.473786 
    0.637239     0.620766     0.590709 
    0.549114     0.628569     0.393257 
    0.671877     0.534132     0.655600 
    0.611649     0.299344     0.486751 
    0.650913     0.558956     0.388704 
    0.570826     0.520674     0.328357 
    0.336582     0.467186     0.615665 
    0.397624     0.535392     0.682663 
    0.435817     0.315965     0.515065 
    0.311800     0.527477     0.403632 
    0.347710     0.633226     0.394186 
    0.351184     0.375338     0.545628 
    0.431304     0.641754     0.659423 
    0.517766     0.422430     0.342864 
    0.300385     0.460544     0.497663 
    0.444340     0.667902     0.418409 
    0.518753     0.339755     0.435267 
EA28610 15.854 14.960 14.320 90.00 90.00 90.00 Sym.group:    0
1.0
   15.854171     0.000000     0.000000
    0.000000    14.960186     0.000000
    0.000000     0.000000    14.319502
   W   B
  10  19
Direct
    0.528660     0.508639     0.488446 
    0.540529     0.554549     0.679597 
    0.515739     0.682631     0.549425 
    0.646668     0.407655     0.400473 
    0.629327     0.404884     0.591857 
    0.382074     0.579097     0.531771 
    0.390964     0.403047     0.397393 
    0.463588     0.410087     0.631934 
    0.434485     0.548391     0.327598 
    0.718231     0.520745     0.513573 
    0.532180     0.297809     0.560304 
    0.632672     0.633059     0.473786 
    0.637239     0.620766     0.590709 
    0.549114     0.628569     0.393257 
    0.671877     0.534132     0.655600 
    0.611649     0.299344     0.486751 
    0.650913     0.558956     0.388704 
    0.570826     0.520674     0.328357 
    0.336582     0.467186     0.615665 
    0.397624     0.535392     0.682663 
    0.435817     0.315965     0.515065 
    0.311800     0.527477     0.403632 
    0.347710     0.633226     0.394186 
    0.351184     0.375338     0.545628 
    0.431304     0.641754     0.659423 
    0.517766     0.422430     0.342864 
    0.300385     0.460544     0.497663 
    0.444340     0.667902     0.418409 
    0.518753     0.339755     0.435267 
EA29154 15.150 15.220 14.187 90.00 90.00 90.00 Sym.group:    0
1.0
   15.149867     0.000000     0.000000
    0.000000    15.219759     0.000000
    0.000000     0.000000    14.187481
   W   B
   9  16
Direct
    0.384210     0.644692     0.422275 
    0.477038     0.501707     0.501544 
    0.326111     0.392413     0.492091 
    0.488773     0.545597     0.325861 
    0.509915     0.668343     0.552890 
    0.619001     0.441934     0.596483 
    0.440898     0.349831     0.606694 
    0.623495     0.593272     0.438354 
    0.523347     0.708056     0.374954 
    0.370583     0.487389     0.613005 
    0.373713     0.607845     0.571622 
    0.324329     0.532232     0.501408 
    0.438798     0.573715     0.654432 
    0.416162     0.415262     0.370468 
    0.355613     0.505751     0.387985 
    0.477522     0.468355     0.669582 
    0.610391     0.384036     0.452817 
    0.690490     0.461878     0.458434 
    0.551723     0.321925     0.526306 
    0.637797     0.589239     0.596646 
    0.547181     0.556548     0.652159 
    0.524925     0.406746     0.370748 
    0.615447     0.466062     0.367877 
    0.458610     0.345525     0.453420 
    0.713927     0.531643     0.541944 
EA29599 15.474 13.806 14.432 90.00 90.00 90.00 Sym.group:    0
1.0
   15.474496     0.000000     0.000000
    0.000000    13.805673     0.000000
    0.000000     0.000000    14.432082
   W   B
   6  16
Direct
    0.422008     0.493638     0.470639 
    0.564433     0.642940     0.476981 
    0.564815     0.498473     0.371324 
    0.553867     0.358557     0.502818 
    0.566192     0.506396     0.607248 
    0.412191     0.529723     0.671093 
    0.461159     0.622501     0.370807 
    0.423299     0.666026     0.473699 
    0.354594     0.619995     0.552554 
    0.428202     0.530980     0.313554 
    0.308037     0.518128     0.568991 
    0.421423     0.418305     0.328488 
    0.462387     0.634634     0.579213 
    0.672562     0.387362     0.566188 
    0.677854     0.551113     0.452884 
    0.670544     0.430420     0.454840 
    0.432662     0.341082     0.407127 
    0.410846     0.337068     0.519841 
    0.349592     0.413466     0.586225 
    0.456610     0.394570     0.610071 
    0.710517     0.496876     0.558355 
    0.676205     0.607747     0.557058 
EA29723 15.717 15.136 14.148 90.00 90.00 90.00 Sym.group:    0
1.0
   15.717221     0.000000     0.000000
    0.000000    15.136193     0.000000
    0.000000     0.000000    14.147873
   W   B
  10  16
Direct
    0.532244     0.500231     0.499844 
    0.432467     0.640809     0.423129 
    0.539049     0.327227     0.563866 
    0.600252     0.590242     0.372561 
    0.557362     0.688875     0.524590 
    0.430853     0.387314     0.418650 
    0.386226     0.519961     0.579138 
    0.523467     0.588944     0.663345 
    0.725814     0.517919     0.495167 
    0.639900     0.461949     0.637613 
    0.549354     0.447133     0.342054 
    0.470498     0.520544     0.337962 
    0.308427     0.570574     0.453382 
    0.311015     0.457525     0.458309 
    0.646426     0.450780     0.392348 
    0.336209     0.380119     0.536333 
    0.416312     0.378080     0.616362 
    0.422074     0.668364     0.583820 
    0.333735     0.646366     0.529358 
    0.654802     0.392266     0.498373 
    0.682018     0.646477     0.486380 
    0.368247     0.515571     0.377115 
    0.408352     0.296914     0.538353 
    0.573542     0.366647     0.422656 
    0.652872     0.600196     0.593486 
    0.498481     0.438973     0.655806 
EA30085 15.815 14.870 13.730 90.00 90.00 90.00 Sym.group:    0
1.0
   15.815206     0.000000     0.000000
    0.000000    14.870229     0.000000
    0.000000     0.000000    13.729764
   W   B
  10  16
Direct
    0.468718     0.494702     0.497069 
    0.544710     0.653897     0.421113 
    0.491698     0.323083     0.565570 
    0.386896     0.571573     0.365999 
    0.409680     0.677820     0.518361 
    0.588479     0.396907     0.416467 
    0.605753     0.539487     0.584430 
    0.456400     0.583055     0.665028 
    0.277157     0.474884     0.489900 
    0.367596     0.439617     0.638926 
    0.463142     0.437874     0.334534 
    0.528267     0.525013     0.333944 
    0.676259     0.606102     0.457274 
    0.692582     0.492709     0.461751 
    0.367362     0.422859     0.385169 
    0.679315     0.411229     0.541506 
    0.604619     0.391641     0.630952 
    0.544976     0.680644     0.585479 
    0.637232     0.677397     0.533675 
    0.368595     0.363280     0.495417 
    0.293580     0.612177     0.481043 
    0.627388     0.539704     0.377880 
    0.624037     0.316366     0.544214 
    0.452662     0.353698     0.418175 
    0.330464     0.575189     0.591825 
    0.512432     0.439093     0.664299 
EA30434 15.815 14.870 13.730 90.00 90.00 90.00 Sym.group:    0
1.0
   15.815206     0.000000     0.000000
    0.000000    14.870229     0.000000
    0.000000     0.000000    13.729764
   W   B
  10  16
Direct
    0.468718     0.494702     0.497069 
    0.544710     0.653897     0.421113 
    0.491698     0.323083     0.565570 
    0.386896     0.571573     0.365999 
    0.409680     0.677820     0.518361 
    0.588479     0.396907     0.416467 
    0.605753     0.539487     0.584430 
    0.456400     0.583055     0.665028 
    0.277157     0.474884     0.489900 
    0.367596     0.439617     0.638926 
    0.463142     0.437874     0.334534 
    0.528267     0.525013     0.333944 
    0.676259     0.606102     0.457274 
    0.692582     0.492709     0.461751 
    0.367362     0.422859     0.385169 
    0.679315     0.411229     0.541506 
    0.604619     0.391641     0.630952 
    0.544976     0.680644     0.585479 
    0.637232     0.677397     0.533675 
    0.368595     0.363280     0.495417 
    0.293580     0.612177     0.481043 
    0.627388     0.539704     0.377880 
    0.624037     0.316366     0.544214 
    0.452662     0.353698     0.418175 
    0.330464     0.575189     0.591825 
    0.512432     0.439093     0.664299 
EA30755 16.622 14.839 13.937 90.00 90.00 90.00 Sym.group:    0
1.0
   16.621899     0.000000     0.000000
    0.000000    14.839255     0.000000
    0.000000     0.000000    13.937076
   W   B
  10  16
Direct
    0.488829     0.488415     0.494167 
    0.470632     0.687005     0.467461 
    0.547524     0.317091     0.533197 
    0.348898     0.547772     0.418861 
    0.382085     0.607959     0.588459 
    0.544684     0.417814     0.675266 
    0.616946     0.568935     0.571550 
    0.325487     0.429354     0.542728 
    0.638755     0.517389     0.397098 
    0.479853     0.480325     0.314502 
    0.439587     0.617271     0.333869 
    0.600847     0.654711     0.442226 
    0.385880     0.404257     0.398593 
    0.705230     0.466309     0.514021 
    0.649923     0.408374     0.590341 
    0.508053     0.660720     0.617845 
    0.437396     0.368390     0.606617 
    0.579632     0.704570     0.547142 
    0.419869     0.333503     0.492469 
    0.266354     0.556147     0.543145 
    0.537861     0.610407     0.355895 
    0.651713     0.383136     0.467187 
    0.478628     0.351616     0.396072 
    0.421490     0.476707     0.642742 
    0.499618     0.553720     0.659225 
    0.574224     0.388103     0.389322 
EA31299 15.107 14.311 13.745 90.00 90.00 90.00 Sym.group:    0
1.0
   15.107119     0.000000     0.000000
    0.000000    14.311300     0.000000
    0.000000     0.000000    13.744737
   W   B
   6  17
Direct
    0.542136     0.663211     0.461575 
    0.434542     0.616990     0.613058 
    0.521627     0.490584     0.480896 
    0.638365     0.464886     0.627932 
    0.355080     0.481926     0.425762 
    0.452348     0.435566     0.646579 
    0.449296     0.589216     0.361371 
    0.539039     0.548726     0.691573 
    0.582848     0.617936     0.607356 
    0.552996     0.564328     0.330417 
    0.643841     0.563233     0.399746 
    0.676795     0.474131     0.468276 
    0.559628     0.349608     0.583940 
    0.655165     0.580937     0.519955 
    0.476694     0.478619     0.322045 
    0.460027     0.377842     0.379948 
    0.396898     0.639219     0.456037 
    0.419597     0.358067     0.492126 
    0.338132     0.395952     0.559775 
    0.326802     0.505071     0.588558 
    0.317718     0.599469     0.524073 
    0.630246     0.373451     0.496360 
    0.530179     0.331032     0.462643 
EA31632 14.726 14.077 14.315 90.00 90.00 90.00 Sym.group:    0
1.0
   14.725792     0.000000     0.000000
    0.000000    14.077337     0.000000
    0.000000     0.000000    14.314641
   W   B
   6  17
Direct
    0.541685     0.662189     0.555444 
    0.427167     0.543827     0.651029 
    0.524124     0.502466     0.482627 
    0.635585     0.400090     0.589187 
    0.354349     0.519345     0.424534 
    0.443285     0.368015     0.589900 
    0.450181     0.649164     0.431204 
    0.533039     0.444094     0.684878 
    0.579845     0.545920     0.652187 
    0.558080     0.641366     0.396900 
    0.649199     0.604497     0.455808 
    0.682472     0.492591     0.468907 
    0.547775     0.333233     0.484701 
    0.657150     0.559195     0.565788 
    0.479406     0.573839     0.343498 
    0.465129     0.456233     0.336335 
    0.392284     0.644147     0.532437 
    0.434871     0.377448     0.429147 
    0.337322     0.378349     0.488570 
    0.320039     0.459127     0.569201 
    0.310736     0.573292     0.561953 
    0.634509     0.390091     0.434907 
    0.541768     0.381481     0.370861 
EA31968 14.726 14.077 14.315 90.00 90.00 90.00 Sym.group:    0
1.0
   14.725792     0.000000     0.000000
    0.000000    14.077337     0.000000
    0.000000     0.000000    14.314641
   W   B
   6  17
Direct
    0.541685     0.662189     0.555444 
    0.427167     0.543827     0.651029 
    0.524124     0.502466     0.482627 
    0.635585     0.400090     0.589187 
    0.354349     0.519345     0.424534 
    0.443285     0.368015     0.589900 
    0.450181     0.649164     0.431204 
    0.533039     0.444094     0.684878 
    0.579845     0.545920     0.652187 
    0.558080     0.641366     0.396900 
    0.649199     0.604497     0.455808 
    0.682472     0.492591     0.468907 
    0.547775     0.333233     0.484701 
    0.657150     0.559195     0.565788 
    0.479406     0.573839     0.343498 
    0.465129     0.456233     0.336335 
    0.392284     0.644147     0.532437 
    0.434871     0.377448     0.429147 
    0.337322     0.378349     0.488570 
    0.320039     0.459127     0.569201 
    0.310736     0.573292     0.561953 
    0.634509     0.390091     0.434907 
    0.541768     0.381481     0.370861 
EA32068 16.253 14.957 14.328 90.00 90.00 90.00 Sym.group:    0
1.0
   16.252977     0.000000     0.000000
    0.000000    14.957334     0.000000
    0.000000     0.000000    14.328210
   W   B
   9  18
Direct
    0.507590     0.503853     0.474517 
    0.601312     0.409437     0.597102 
    0.674041     0.452686     0.444335 
    0.547054     0.355219     0.379158 
    0.601813     0.620292     0.410369 
    0.523362     0.658914     0.579251 
    0.390645     0.545046     0.587567 
    0.436272     0.356301     0.519748 
    0.382842     0.575363     0.384737 
    0.551658     0.284710     0.513499 
    0.641784     0.318205     0.481382 
    0.613221     0.560345     0.638303 
    0.693702     0.521864     0.575531 
    0.589789     0.490490     0.333618 
    0.713346     0.586410     0.482046 
    0.650856     0.633298     0.556302 
    0.423496     0.420566     0.372597 
    0.489908     0.483599     0.314400 
    0.518477     0.525558     0.649543 
    0.463793     0.430246     0.651870 
    0.392748     0.678099     0.503082 
    0.306970     0.626910     0.496411 
    0.476873     0.669284     0.439339 
    0.312192     0.425437     0.549779 
    0.287856     0.521683     0.483601 
    0.341572     0.439079     0.439388 
    0.366828     0.407103     0.642522 
EA32413 14.663 15.480 14.689 90.00 90.00 90.00 Sym.group:    0
1.0
   14.663198     0.000000     0.000000
    0.000000    15.480153     0.000000
    0.000000     0.000000    14.688747
   W   B
  10  17
Direct
    0.672934     0.542771     0.561034 
    0.447445     0.625904     0.602342 
    0.485553     0.508408     0.491735 
    0.610356     0.410734     0.400914 
    0.365882     0.519858     0.365666 
    0.630927     0.594604     0.405015 
    0.362845     0.366811     0.445028 
    0.431914     0.457941     0.665024 
    0.513750     0.339703     0.536667 
    0.498767     0.287711     0.377296 
    0.404450     0.641955     0.445201 
    0.594308     0.639398     0.638171 
    0.512170     0.666886     0.461857 
    0.554729     0.544707     0.665896 
    0.328854     0.532442     0.600149 
    0.329272     0.586359     0.499724 
    0.483391     0.611425     0.365372 
    0.465624     0.417027     0.337449 
    0.522872     0.512218     0.334150 
    0.288755     0.485525     0.488336 
    0.379341     0.345250     0.593395 
    0.738001     0.426629     0.497508 
    0.734301     0.502020     0.423934 
    0.654607     0.396296     0.557745 
    0.308329     0.425159     0.581715 
    0.578038     0.443048     0.627430 
    0.602588     0.669212     0.531245 
EA32864 14.300 14.774 14.624 90.00 90.00 90.00 Sym.group:    0
1.0
   14.300262     0.000000     0.000000
    0.000000    14.774485     0.000000
    0.000000     0.000000    14.623653
   W   B
   8  17
Direct
    0.485484     0.500648     0.511964 
    0.371344     0.362752     0.484506 
    0.594787     0.455312     0.633459 
    0.377406     0.614090     0.582443 
    0.521747     0.371882     0.380386 
    0.454947     0.536351     0.336176 
    0.582353     0.637032     0.401276 
    0.529707     0.687273     0.553372 
    0.305170     0.497173     0.506721 
    0.352412     0.457197     0.603172 
    0.515039     0.339720     0.537344 
    0.445844     0.386873     0.618453 
    0.617978     0.605766     0.643531 
    0.510270     0.582943     0.671264 
    0.440365     0.495047     0.669761 
    0.690298     0.460877     0.519597 
    0.619112     0.371108     0.506408 
    0.431633     0.655931     0.439623 
    0.320899     0.474963     0.395163 
    0.382831     0.398915     0.339186 
    0.663760     0.423385     0.413313 
    0.604306     0.494721     0.347426 
    0.685502     0.536609     0.429501 
    0.344919     0.581465     0.436534 
    0.651885     0.571966     0.539420 
