EA38841 16.914 16.574 13.918 90.00 90.00 90.00 Sym.group:    0
1.0
   16.913884     0.000000     0.000000
    0.000000    16.573757     0.000000
    0.000000     0.000000    13.917850
   W   B
  16  16
Direct
    0.478810     0.588051     0.620702 
    0.486660     0.633964     0.427109 
    0.743339     0.547573     0.475231 
    0.627387     0.643087     0.562673 
    0.639423     0.617179     0.383243 
    0.573365     0.753154     0.446951 
    0.498991     0.362167     0.444329 
    0.504015     0.419705     0.638594 
    0.657044     0.412884     0.655878 
    0.586384     0.499522     0.502586 
    0.704987     0.393501     0.488180 
    0.530957     0.490848     0.331059 
    0.288328     0.482098     0.371760 
    0.417041     0.492960     0.490737 
    0.291700     0.432714     0.565721 
    0.332853     0.353803     0.418823 
    0.295707     0.561585     0.500182 
    0.341756     0.564788     0.609279 
    0.352832     0.600896     0.410511 
    0.511918     0.706760     0.562520 
    0.690203     0.533768     0.615408 
    0.594392     0.534022     0.661638 
    0.376638     0.626150     0.523080 
    0.408066     0.437746     0.333789 
    0.387868     0.491274     0.668146 
    0.400644     0.355716     0.557387 
    0.668058     0.481383     0.368270 
    0.615656     0.394301     0.370242 
    0.593138     0.341830     0.553864 
    0.615974     0.311339     0.440634 
    0.408191     0.543408     0.334802 
    0.377674     0.391823     0.666674 
EA38813 17.252 15.396 14.153 90.00 90.00 90.00 Sym.group:    0
1.0
   17.251522     0.000000     0.000000
    0.000000    15.395615     0.000000
    0.000000     0.000000    14.152769
   W   B
  16  17
Direct
    0.524583     0.643063     0.427887 
    0.320912     0.384848     0.434110 
    0.533196     0.626705     0.615589 
    0.471382     0.486709     0.679388 
    0.362551     0.376774     0.598531 
    0.576332     0.490227     0.511848 
    0.716843     0.557658     0.469687 
    0.697773     0.437281     0.611701 
    0.522901     0.489844     0.340407 
    0.289683     0.544117     0.401099 
    0.417892     0.516979     0.506708 
    0.301070     0.628391     0.552047 
    0.591486     0.317734     0.524910 
    0.446298     0.281612     0.489713 
    0.224848     0.476372     0.537345 
    0.313304     0.515037     0.672247 
    0.394278     0.471650     0.344583 
    0.418793     0.576961     0.353366 
    0.408660     0.615200     0.642732 
    0.426653     0.671117     0.537699 
    0.576317     0.404637     0.651300 
    0.687031     0.410822     0.462526 
    0.655893     0.478289     0.370009 
    0.523885     0.343365     0.394911 
    0.628733     0.580554     0.349778 
    0.434697     0.374464     0.367095 
    0.633934     0.652930     0.523172 
    0.651463     0.667848     0.410465 
    0.610536     0.385985     0.392481 
    0.491823     0.356508     0.613136 
    0.600881     0.510525     0.676224 
    0.387179     0.650041     0.431656 
    0.658188     0.575752     0.605645 
EA30283 18.131 16.205 14.366 90.00 90.00 90.00 Sym.group:    0
1.0
   18.131085     0.000000     0.000000
    0.000000    16.204520     0.000000
    0.000000     0.000000    14.366375
   W   B
  16  18
Direct
    0.502525     0.628520     0.568227 
    0.513219     0.347629     0.543422 
    0.583443     0.496369     0.498719 
    0.655482     0.578072     0.361393 
    0.769312     0.500741     0.484687 
    0.684148     0.431330     0.376899 
    0.506768     0.468673     0.665986 
    0.688821     0.507715     0.629843 
    0.435586     0.489021     0.499417 
    0.344276     0.630181     0.526607 
    0.313078     0.551631     0.381758 
    0.517361     0.633882     0.386161 
    0.525495     0.487749     0.325919 
    0.380043     0.295347     0.516845 
    0.445100     0.348588     0.380160 
    0.311313     0.400363     0.422031 
    0.609656     0.648923     0.482649 
    0.387436     0.466062     0.667446 
    0.410076     0.564298     0.639717 
    0.622546     0.394692     0.604143 
    0.697974     0.406404     0.529041 
    0.626112     0.354276     0.490276 
    0.687340     0.595601     0.509546 
    0.581541     0.570120     0.671736 
    0.626297     0.621054     0.594003 
    0.414152     0.377358     0.625707 
    0.333672     0.418617     0.574631 
    0.324209     0.524876     0.619035 
    0.286381     0.501805     0.518154 
    0.393104     0.652422     0.381277 
    0.423487     0.567399     0.320419 
    0.433473     0.699148     0.470031 
    0.567345     0.374365     0.402806 
    0.399233     0.466764     0.331307 
EA38722 17.017 15.479 15.516 90.00 90.00 90.00 Sym.group:    0
1.0
   17.017415     0.000000     0.000000
    0.000000    15.478880     0.000000
    0.000000     0.000000    15.515822
   W   B
  16  19
Direct
    0.410670     0.495866     0.500708 
    0.422135     0.365360     0.382932 
    0.419692     0.326956     0.557268 
    0.418111     0.460798     0.672464 
    0.416004     0.630187     0.617684 
    0.416708     0.669006     0.442993 
    0.420186     0.533395     0.324334 
    0.579816     0.329117     0.559234 
    0.242178     0.495673     0.496342 
    0.589154     0.498999     0.506521 
    0.576541     0.632961     0.623079 
    0.583309     0.670223     0.448397 
    0.586190     0.534894     0.328345 
    0.582892     0.367213     0.386719 
    0.576439     0.460521     0.675674 
    0.758102     0.500192     0.510377 
    0.316479     0.531227     0.604078 
    0.317423     0.606573     0.518894 
    0.319915     0.572306     0.412720 
    0.319901     0.461860     0.391235 
    0.319591     0.385608     0.475846 
    0.317852     0.420093     0.582707 
    0.501613     0.286596     0.457900 
    0.497568     0.351182     0.663502 
    0.504222     0.432161     0.297618 
    0.684583     0.465265     0.401406 
    0.682228     0.389509     0.485131 
    0.680310     0.423177     0.592098 
    0.679492     0.534750     0.614362 
    0.680609     0.610176     0.529667 
    0.682978     0.575531     0.423497 
    0.497591     0.709054     0.543705 
    0.502791     0.643338     0.338983 
    0.495707     0.565795     0.704554 
    0.501024     0.564443     0.429025 
EA38655 17.725 16.054 14.707 90.00 90.00 90.00 Sym.group:    0
1.0
   17.725069     0.000000     0.000000
    0.000000    16.054409     0.000000
    0.000000     0.000000    14.707444
   W   B
  16  20
Direct
    0.491701     0.628122     0.426362 
    0.600611     0.514752     0.499757 
    0.729572     0.465427     0.474969 
    0.653503     0.367399     0.594993 
    0.638199     0.340957     0.437675 
    0.507479     0.429779     0.388983 
    0.425459     0.535984     0.307256 
    0.607276     0.679964     0.544396 
    0.353720     0.359272     0.545967 
    0.401147     0.510853     0.496082 
    0.251083     0.463731     0.478911 
    0.362033     0.581866     0.681314 
    0.372936     0.670592     0.547912 
    0.495870     0.575667     0.619962 
    0.352805     0.401670     0.377426 
    0.504131     0.402575     0.586238 
    0.636774     0.457223     0.358415 
    0.577806     0.545048     0.345184 
    0.675463     0.551606     0.371722 
    0.615044     0.631544     0.404273 
    0.697890     0.612067     0.459277 
    0.704290     0.585012     0.567809 
    0.627568     0.580411     0.640296 
    0.522378     0.298944     0.444446 
    0.562080     0.281078     0.547292 
    0.690348     0.496020     0.622056 
    0.280876     0.568127     0.571174 
    0.401084     0.456148     0.642548 
    0.490905     0.705078     0.552977 
    0.290620     0.595513     0.461441 
    0.366598     0.625765     0.399577 
    0.314170     0.537214     0.370122 
    0.429572     0.311559     0.432748 
    0.595635     0.479758     0.653638 
    0.465088     0.279740     0.534123 
    0.308286     0.473538     0.612676 
EA30322 16.549 15.466 14.886 90.00 90.00 90.00 Sym.group:    0
1.0
   16.548996     0.000000     0.000000
    0.000000    15.466296     0.000000
    0.000000     0.000000    14.885798
   W   B
  17  16
Direct
    0.504010     0.637164     0.416736 
    0.321755     0.362557     0.461965 
    0.529421     0.634929     0.600876 
    0.693255     0.607367     0.610053 
    0.477800     0.491943     0.670370 
    0.370122     0.376810     0.613540 
    0.581238     0.498596     0.511846 
    0.717039     0.570965     0.444543 
    0.712653     0.452867     0.599329 
    0.511094     0.474286     0.351166 
    0.275608     0.525394     0.407007 
    0.411314     0.516857     0.500392 
    0.288354     0.624139     0.553893 
    0.609058     0.325375     0.530147 
    0.447624     0.274787     0.509637 
    0.616309     0.537206     0.724558 
    0.343473     0.667479     0.409229 
    0.378253     0.444677     0.359748 
    0.397903     0.552068     0.347600 
    0.281555     0.479469     0.554191 
    0.400249     0.608534     0.634107 
    0.412187     0.670828     0.537791 
    0.588721     0.415457     0.644263 
    0.695331     0.420885     0.455452 
    0.651222     0.476569     0.365810 
    0.526080     0.337216     0.415565 
    0.612283     0.572985     0.344526 
    0.431393     0.354425     0.386986 
    0.620890     0.663053     0.495027 
    0.635738     0.666949     0.386168 
    0.612424     0.384109     0.398664 
    0.342597     0.517914     0.641182 
    0.503047     0.356140     0.617633 
EA38778 17.691 15.778 14.223 90.00 90.00 90.00 Sym.group:    0
1.0
   17.690856     0.000000     0.000000
    0.000000    15.778386     0.000000
    0.000000     0.000000    14.222848
   W   B
  17  17
Direct
    0.545040     0.492094     0.669756 
    0.454857     0.371040     0.580120 
    0.587591     0.455074     0.496443 
    0.737113     0.431812     0.524429 
    0.686935     0.557365     0.612295 
    0.551495     0.628773     0.571230 
    0.434665     0.526195     0.511122 
    0.679042     0.586844     0.437448 
    0.287581     0.528142     0.480787 
    0.450036     0.380798     0.401290 
    0.318852     0.424736     0.619305 
    0.462291     0.718707     0.453880 
    0.328268     0.585537     0.639412 
    0.537540     0.602503     0.381433 
    0.383363     0.626520     0.362535 
    0.564072     0.286769     0.490473 
    0.598854     0.353947     0.346473 
    0.652542     0.423419     0.641687 
    0.576854     0.359482     0.629197 
    0.657692     0.338205     0.569956 
    0.418171     0.490946     0.674421 
    0.453817     0.590148     0.666565 
    0.427409     0.666383     0.591111 
    0.353897     0.654732     0.507697 
    0.532120     0.465830     0.327245 
    0.606043     0.701786     0.453354 
    0.360739     0.483240     0.362421 
    0.263844     0.388363     0.493367 
    0.447155     0.510520     0.334715 
    0.664545     0.683520     0.542928 
    0.620199     0.500272     0.337193 
    0.318610     0.398625     0.402762 
    0.690363     0.447777     0.388629 
    0.348403     0.339896     0.498322 
EA30912 16.996 15.994 14.693 90.00 90.00 90.00 Sym.group:    0
1.0
   16.996479     0.000000     0.000000
    0.000000    15.994230     0.000000
    0.000000     0.000000    14.693461
   W   B
  17  18
Direct
    0.599276     0.465394     0.328450 
    0.580119     0.523363     0.505228 
    0.690491     0.655071     0.494039 
    0.693199     0.565509     0.637856 
    0.326564     0.685922     0.508952 
    0.463880     0.636137     0.593815 
    0.450741     0.644027     0.419656 
    0.592408     0.629049     0.354210 
    0.422343     0.492190     0.504948 
    0.461526     0.493553     0.679477 
    0.442413     0.421172     0.307393 
    0.319101     0.584001     0.627482 
    0.307672     0.451711     0.393970 
    0.628578     0.265924     0.518425 
    0.534868     0.365422     0.610141 
    0.679627     0.403064     0.567393 
    0.529802     0.362333     0.436498 
    0.700295     0.451233     0.427018 
    0.690397     0.551269     0.396337 
    0.725180     0.525302     0.503485 
    0.597331     0.650557     0.598755 
    0.565925     0.576167     0.672607 
    0.562186     0.675674     0.494721 
    0.395211     0.541484     0.337224 
    0.329379     0.587887     0.403267 
    0.492760     0.547702     0.310692 
    0.281042     0.469662     0.545587 
    0.337964     0.447236     0.634569 
    0.429132     0.332060     0.527800 
    0.337291     0.382475     0.526107 
    0.272020     0.560854     0.490723 
    0.405300     0.373144     0.626895 
    0.393851     0.353167     0.425123 
    0.665582     0.355548     0.421624 
    0.596547     0.474735     0.669531 
EA30501 16.647 16.845 14.165 90.00 90.00 90.00 Sym.group:    0
1.0
   16.646771     0.000000     0.000000
    0.000000    16.845312     0.000000
    0.000000     0.000000    14.164821
   W   B
  17  19
Direct
    0.486720     0.389783     0.400976 
    0.343519     0.384535     0.644464 
    0.412582     0.506713     0.520037 
    0.290230     0.404660     0.483857 
    0.291047     0.516009     0.643245 
    0.450711     0.529982     0.345340 
    0.353692     0.653009     0.544869 
    0.486098     0.727229     0.497738 
    0.582367     0.508710     0.492794 
    0.500293     0.387836     0.600023 
    0.654157     0.426761     0.638011 
    0.598391     0.665919     0.589775 
    0.536483     0.536660     0.668166 
    0.552108     0.274881     0.485994 
    0.694855     0.531869     0.380983 
    0.634592     0.362753     0.377523 
    0.629944     0.668064     0.420805 
    0.406976     0.580097     0.662699 
    0.278147     0.543190     0.488647 
    0.315530     0.501830     0.384936 
    0.417781     0.649655     0.409118 
    0.361872     0.420545     0.347968 
    0.510195     0.653819     0.367409 
    0.400041     0.326958     0.509638 
    0.367224     0.332116     0.398612 
    0.337971     0.594213     0.411261 
    0.469762     0.650812     0.623639 
    0.417054     0.482143     0.691121 
    0.575407     0.579192     0.333012 
    0.579748     0.479575     0.327369 
    0.700570     0.421682     0.488420 
    0.663449     0.333378     0.523409 
    0.605121     0.309520     0.614932 
    0.703538     0.602132     0.521662 
    0.668548     0.556907     0.622249 
    0.723280     0.506861     0.539297 
EA28743 17.139 16.062 14.828 90.00 90.00 90.00 Sym.group:    0
1.0
   17.139181     0.000000     0.000000
    0.000000    16.061699     0.000000
    0.000000     0.000000    14.828047
   W   B
  17  20
Direct
    0.363711     0.568164     0.651967 
    0.326687     0.344830     0.517475 
    0.416770     0.474593     0.503722 
    0.337737     0.410752     0.352039 
    0.599026     0.614333     0.354284 
    0.462193     0.542420     0.345173 
    0.486833     0.383211     0.345944 
    0.623104     0.465973     0.309359 
    0.410281     0.647826     0.502733 
    0.311415     0.567209     0.376819 
    0.593657     0.467717     0.478773 
    0.746131     0.494916     0.536505 
    0.488601     0.317008     0.497728 
    0.550088     0.395313     0.637037 
    0.655339     0.521397     0.661524 
    0.513584     0.551292     0.624043 
    0.638767     0.626566     0.525257 
    0.457019     0.671463     0.646678 
    0.347046     0.423506     0.644070 
    0.390486     0.298351     0.401449 
    0.275352     0.466645     0.467984 
    0.286418     0.471396     0.578705 
    0.518900     0.582791     0.474354 
    0.483522     0.683922     0.371973 
    0.392031     0.662929     0.353305 
    0.542481     0.698574     0.459673 
    0.302394     0.563420     0.521379 
    0.717302     0.441380     0.404817 
    0.701125     0.371619     0.484308 
    0.699609     0.544752     0.410306 
    0.618773     0.326870     0.526235 
    0.421197     0.357026     0.621287 
    0.597830     0.339345     0.413570 
    0.435533     0.453009     0.674271 
    0.530677     0.697249     0.574600 
    0.585069     0.657108     0.658451 
    0.673311     0.395128     0.592202 
EA38781 17.651 15.741 14.238 90.00 90.00 90.00 Sym.group:    0
1.0
   17.651062     0.000000     0.000000
    0.000000    15.741499     0.000000
    0.000000     0.000000    14.237984
   W   B
  18  16
Direct
    0.469341     0.475559     0.687085 
    0.549020     0.609829     0.616577 
    0.355681     0.645381     0.436895 
    0.422027     0.520107     0.523255 
    0.267805     0.535785     0.538963 
    0.335770     0.401388     0.615096 
    0.463334     0.353762     0.554241 
    0.571543     0.479025     0.505501 
    0.324660     0.420023     0.424853 
    0.705210     0.481304     0.441939 
    0.522045     0.661914     0.455804 
    0.250607     0.551867     0.367534 
    0.651695     0.710278     0.506917 
    0.694541     0.559202     0.606642 
    0.540644     0.298420     0.416103 
    0.689201     0.403979     0.608021 
    0.471882     0.440857     0.366427 
    0.658211     0.630628     0.364060 
    0.353621     0.539261     0.662709 
    0.427755     0.608454     0.664436 
    0.348059     0.630849     0.594406 
    0.600191     0.483649     0.673168 
    0.564568     0.384551     0.647700 
    0.589882     0.323765     0.555761 
    0.649134     0.355449     0.468761 
    0.612427     0.398649     0.367738 
    0.449532     0.586063     0.355306 
    0.416297     0.316680     0.411243 
    0.612098     0.498862     0.336225 
    0.735072     0.613728     0.474842 
    0.542332     0.568190     0.343926 
    0.354334     0.305562     0.502068 
    0.368066     0.534349     0.341102 
    0.433416     0.672633     0.564695 
EA30567 17.303 16.628 14.518 90.00 90.00 90.00 Sym.group:    0
1.0
   17.302830     0.000000     0.000000
    0.000000    16.627553     0.000000
    0.000000     0.000000    14.517546
   W   B
  18  17
Direct
    0.582826     0.627155     0.594825 
    0.588309     0.494090     0.501640 
    0.646357     0.641573     0.437478 
    0.522603     0.350891     0.435697 
    0.724957     0.503125     0.405966 
    0.734288     0.431552     0.546667 
    0.508155     0.382552     0.610981 
    0.362892     0.337793     0.478604 
    0.497578     0.486185     0.328328 
    0.423278     0.478263     0.479697 
    0.404332     0.370092     0.315902 
    0.334626     0.603324     0.530894 
    0.261977     0.469081     0.525814 
    0.526376     0.723114     0.437339 
    0.407328     0.671227     0.661104 
    0.459727     0.537292     0.641065 
    0.413456     0.621813     0.378130 
    0.353830     0.420372     0.640156 
    0.618694     0.441801     0.353782 
    0.703789     0.563819     0.544513 
    0.667774     0.515733     0.635791 
    0.632891     0.418230     0.634188 
    0.613502     0.543172     0.345925 
    0.462454     0.275490     0.536769 
    0.660174     0.383458     0.434156 
    0.310941     0.434743     0.389311 
    0.306759     0.537422     0.401965 
    0.540544     0.611136     0.358269 
    0.332046     0.550640     0.673387 
    0.576299     0.495697     0.668198 
    0.405782     0.301380     0.620720 
    0.369216     0.499747     0.325095 
    0.423741     0.692272     0.510244 
    0.626305     0.359573     0.538520 
    0.496196     0.726189     0.578878 
EA30499 16.912 15.780 14.797 90.00 90.00 90.00 Sym.group:    0
1.0
   16.912292     0.000000     0.000000
    0.000000    15.779813     0.000000
    0.000000     0.000000    14.797014
   W   B
  18  18
Direct
    0.586939     0.370284     0.359965 
    0.453451     0.471133     0.358949 
    0.580265     0.656799     0.540435 
    0.595261     0.493120     0.511176 
    0.739631     0.615976     0.524620 
    0.647185     0.613089     0.392609 
    0.715161     0.437545     0.582520 
    0.400318     0.627846     0.370350 
    0.675490     0.586745     0.661538 
    0.518230     0.567255     0.673562 
    0.488678     0.410324     0.659180 
    0.428038     0.527026     0.527613 
    0.301309     0.427199     0.459511 
    0.496063     0.356009     0.493472 
    0.337828     0.395470     0.624521 
    0.283294     0.544034     0.597804 
    0.619265     0.332772     0.639189 
    0.335912     0.670927     0.527739 
    0.632313     0.340403     0.496598 
    0.695192     0.403427     0.434773 
    0.731171     0.504001     0.442532 
    0.666124     0.476495     0.359616 
    0.577401     0.506082     0.323784 
    0.527785     0.673677     0.400797 
    0.522018     0.592368     0.327793 
    0.461071     0.690516     0.481845 
    0.454184     0.670101     0.593161 
    0.611277     0.464511     0.677597 
    0.390674     0.512989     0.688207 
    0.388803     0.614618     0.653679 
    0.295431     0.566435     0.441835 
    0.325469     0.515228     0.344528 
    0.344244     0.412636     0.325979 
    0.366775     0.311062     0.504441 
    0.388873     0.344076     0.397587 
    0.418875     0.297823     0.600492 
EA38581 18.390 16.400 14.293 90.00 90.00 90.00 Sym.group:    0
1.0
   18.390275     0.000000     0.000000
    0.000000    16.400280     0.000000
    0.000000     0.000000    14.292994
   W   B
  18  19
Direct
    0.422466     0.369538     0.615025 
    0.636707     0.314616     0.537575 
    0.533419     0.420922     0.484482 
    0.423400     0.325241     0.446756 
    0.451903     0.462246     0.331675 
    0.416775     0.616687     0.374540 
    0.403550     0.501086     0.508825 
    0.302476     0.607483     0.485985 
    0.533775     0.583597     0.500913 
    0.494661     0.734535     0.443568 
    0.685799     0.601811     0.525605 
    0.640380     0.461418     0.613102 
    0.427666     0.658247     0.585036 
    0.506860     0.500690     0.660176 
    0.538099     0.622148     0.309538 
    0.669337     0.454824     0.433816 
    0.589280     0.718229     0.575170 
    0.284679     0.464507     0.614317 
    0.513554     0.293682     0.558353 
    0.540704     0.285392     0.442360 
    0.519532     0.346017     0.348607 
    0.608350     0.340993     0.391178 
    0.345371     0.413991     0.392850 
    0.330791     0.515652     0.371572 
    0.284085     0.472823     0.461510 
    0.386716     0.496832     0.672395 
    0.324613     0.383632     0.510301 
    0.731020     0.392819     0.550173 
    0.748012     0.491640     0.546258 
    0.633294     0.581659     0.391905 
    0.608138     0.589935     0.641468 
    0.374083     0.714049     0.464377 
    0.337670     0.578036     0.626492 
    0.528083     0.635946     0.658815 
    0.608491     0.678684     0.426042 
    0.548376     0.366772     0.636087 
    0.567885     0.503623     0.363159 
EA30397 16.537 15.361 17.206 90.00 90.00 90.00 Sym.group:    0
1.0
   16.536833     0.000000     0.000000
    0.000000    15.360969     0.000000
    0.000000     0.000000    17.206384
   W   B
  18  20
Direct
    0.524159     0.380087     0.466872 
    0.256708     0.471167     0.449891 
    0.365197     0.370080     0.524674 
    0.393450     0.419404     0.371822 
    0.427231     0.260894     0.427101 
    0.416429     0.536963     0.475833 
    0.264309     0.635602     0.447851 
    0.657348     0.305224     0.498130 
    0.546331     0.496152     0.361323 
    0.607012     0.422665     0.608780 
    0.741027     0.471275     0.526363 
    0.646630     0.705339     0.479162 
    0.587985     0.541522     0.507166 
    0.506620     0.666117     0.412125 
    0.509220     0.672449     0.560778 
    0.450271     0.510809     0.615692 
    0.293891     0.537355     0.588574 
    0.322573     0.406954     0.661530 
    0.455915     0.273720     0.551346 
    0.243313     0.407830     0.565799 
    0.536401     0.232361     0.501093 
    0.328322     0.547868     0.362356 
    0.428879     0.561846     0.339237 
    0.373204     0.647289     0.386225 
    0.728084     0.391425     0.425214 
    0.633742     0.603186     0.389535 
    0.632986     0.389618     0.391291 
    0.682128     0.496753     0.408721 
    0.675998     0.545923     0.618757 
    0.554363     0.293704     0.583203 
    0.577522     0.567919     0.637695 
    0.715584     0.593539     0.454670 
    0.717561     0.612925     0.547594 
    0.637985     0.649883     0.596627 
    0.477569     0.366090     0.606242 
    0.304438     0.677250     0.555639 
    0.390309     0.690514     0.492854 
    0.389308     0.640302     0.602235 
EA38360 17.586 15.823 15.241 90.00 90.00 90.00 Sym.group:    0
1.0
   17.585958     0.000000     0.000000
    0.000000    15.822858     0.000000
    0.000000     0.000000    15.241282
   W   B
  19  16
Direct
    0.532461     0.441271     0.636862 
    0.478168     0.618455     0.591682 
    0.590366     0.278868     0.605509 
    0.634021     0.586132     0.640094 
    0.429367     0.479536     0.501575 
    0.447818     0.312210     0.604990 
    0.335353     0.552772     0.624535 
    0.494010     0.615028     0.410254 
    0.350339     0.606305     0.374388 
    0.593933     0.506985     0.491717 
    0.668797     0.352271     0.483534 
    0.524740     0.347608     0.466965 
    0.750764     0.507441     0.518425 
    0.276840     0.508148     0.477556 
    0.678915     0.428290     0.624997 
    0.587834     0.696027     0.531816 
    0.426972     0.370917     0.343891 
    0.605782     0.537581     0.313337 
    0.315485     0.379375     0.571274 
    0.444964     0.522861     0.697694 
    0.367628     0.676677     0.585435 
    0.309022     0.641504     0.508365 
    0.327010     0.385868     0.427437 
    0.404015     0.434760     0.657202 
    0.394478     0.324264     0.474008 
    0.697221     0.568335     0.401368 
    0.685726     0.621912     0.499316 
    0.516485     0.464361     0.374956 
    0.344140     0.471083     0.360299 
    0.433375     0.508701     0.333161 
    0.692701     0.461133     0.394799 
    0.398901     0.681165     0.482751 
    0.607960     0.412294     0.369599 
    0.531488     0.562494     0.712059 
    0.622921     0.637369     0.408148 
EA38656 16.223 15.398 18.107 90.00 90.00 90.00 Sym.group:    0
1.0
   16.223441     0.000000     0.000000
    0.000000    15.398480     0.000000
    0.000000     0.000000    18.107148
   W   B
  19  17
Direct
    0.406803     0.266276     0.537165 
    0.491881     0.406547     0.493927 
    0.637694     0.341806     0.473249 
    0.439158     0.448611     0.366907 
    0.601230     0.456124     0.367336 
    0.545345     0.610047     0.395205 
    0.399241     0.616495     0.342139 
    0.320580     0.390667     0.451927 
    0.616137     0.408079     0.608188 
    0.603736     0.527164     0.509650 
    0.673182     0.674693     0.485933 
    0.422302     0.560057     0.494866 
    0.421531     0.721667     0.441740 
    0.253002     0.537354     0.514319 
    0.344935     0.405817     0.585679 
    0.522490     0.672436     0.561187 
    0.475406     0.505033     0.624512 
    0.316760     0.684275     0.547045 
    0.729143     0.542818     0.606135 
    0.542967     0.288123     0.558586 
    0.518126     0.263781     0.466333 
    0.531472     0.330976     0.389882 
    0.431012     0.304298     0.419260 
    0.710945     0.456841     0.433598 
    0.687805     0.563662     0.408319 
    0.744915     0.542802     0.488201 
    0.723696     0.438340     0.526842 
    0.318377     0.525404     0.405720 
    0.598983     0.557881     0.638435 
    0.223696     0.399519     0.531435 
    0.342679     0.550913     0.604229 
    0.559940     0.735786     0.456842 
    0.646445     0.646594     0.601658 
    0.409243     0.633181     0.616747 
    0.308406     0.632349     0.431736 
    0.480734     0.353582     0.615067 
EA38582 18.005 16.382 14.702 90.00 90.00 90.00 Sym.group:    0
1.0
   18.005479     0.000000     0.000000
    0.000000    16.381696     0.000000
    0.000000     0.000000    14.702064
   W   B
  19  18
Direct
    0.582263     0.617155     0.624754 
    0.363204     0.681757     0.537043 
    0.471822     0.576901     0.491764 
    0.585011     0.675536     0.458478 
    0.440050     0.518486     0.334942 
    0.580970     0.559930     0.332696 
    0.573733     0.403347     0.368995 
    0.602261     0.502437     0.504728 
    0.698100     0.390920     0.485604 
    0.458603     0.416155     0.492298 
    0.493817     0.274687     0.438391 
    0.303786     0.399307     0.519525 
    0.351296     0.538416     0.609294 
    0.572177     0.351449     0.581504 
    0.489468     0.492236     0.652285 
    0.447628     0.359826     0.305830 
    0.322286     0.543408     0.440097 
    0.397416     0.281942     0.568132 
    0.718848     0.525243     0.623370 
    0.491119     0.701580     0.562652 
    0.462301     0.710948     0.448005 
    0.488631     0.650796     0.357272 
    0.396249     0.648802     0.393713 
    0.676971     0.594889     0.410336 
    0.684153     0.491351     0.381327 
    0.729009     0.528993     0.477605 
    0.610677     0.478831     0.666980 
    0.684175     0.616256     0.525241 
    0.260498     0.611483     0.549670 
    0.240229     0.511656     0.548671 
    0.355336     0.417705     0.385602 
    0.385942     0.409387     0.631550 
    0.617159     0.299616     0.453166 
    0.674457     0.408401     0.630451 
    0.464886     0.358357     0.648268 
    0.374713     0.320979     0.423023 
    0.450754     0.630837     0.636735 
EA26995 17.174 16.410 15.206 90.00 90.00 90.00 Sym.group:    0
1.0
   17.173762     0.000000     0.000000
    0.000000    16.410180     0.000000
    0.000000     0.000000    15.206209
   W   B
  19  19
Direct
    0.504600     0.631713     0.328036 
    0.603599     0.637903     0.470759 
    0.706324     0.515291     0.401554 
    0.593498     0.469441     0.497549 
    0.748395     0.475819     0.575652 
    0.589929     0.497472     0.297226 
    0.505338     0.383202     0.377128 
    0.723177     0.359648     0.484298 
    0.580574     0.310663     0.522912 
    0.393437     0.506069     0.658072 
    0.302869     0.499528     0.527217 
    0.536264     0.397777     0.657784 
    0.532044     0.572712     0.626595 
    0.405095     0.274246     0.575911 
    0.441185     0.410913     0.532181 
    0.443374     0.699717     0.516315 
    0.453904     0.555747     0.461289 
    0.358694     0.438892     0.379741 
    0.650560     0.633489     0.311217 
    0.387137     0.566092     0.323346 
    0.720898     0.593734     0.515427 
    0.638190     0.394480     0.381661 
    0.658446     0.572220     0.594420 
    0.459787     0.499289     0.306681 
    0.385275     0.314866     0.432931 
    0.472160     0.274346     0.458480 
    0.658499     0.389613     0.609553 
    0.419703     0.645294     0.653247 
    0.495149     0.702189     0.651520 
    0.635439     0.485057     0.648176 
    0.317729     0.356339     0.502992 
    0.327916     0.387034     0.611464 
    0.406275     0.372932     0.676746 
    0.562891     0.708177     0.581075 
    0.382362     0.653655     0.387292 
    0.350372     0.615614     0.583565 
    0.329927     0.633078     0.479670 
    0.318986     0.565749     0.400318 
EA38527 17.696 15.770 16.216 90.00 90.00 90.00 Sym.group:    0
1.0
   17.695659     0.000000     0.000000
    0.000000    15.770251     0.000000
    0.000000     0.000000    16.215706
   W   B
  19  20
Direct
    0.578497     0.689886     0.497105 
    0.490331     0.621419     0.609788 
    0.592968     0.521367     0.507555 
    0.473323     0.455167     0.620290 
    0.649620     0.389841     0.594451 
    0.607193     0.537559     0.675888 
    0.752371     0.503408     0.500207 
    0.438040     0.538623     0.464176 
    0.268826     0.512079     0.490799 
    0.575616     0.594434     0.361231 
    0.587537     0.426092     0.333052 
    0.436432     0.416145     0.335526 
    0.341572     0.637054     0.546561 
    0.420948     0.588804     0.317922 
    0.698169     0.630307     0.579563 
    0.688665     0.378742     0.440951 
    0.537721     0.358708     0.483098 
    0.602963     0.702077     0.660476 
    0.370270     0.392468     0.480392 
    0.679076     0.513787     0.388677 
    0.607738     0.296519     0.383427 
    0.713747     0.502476     0.625428 
    0.371592     0.368603     0.614126 
    0.565804     0.401659     0.690301 
    0.440180     0.303331     0.408855 
    0.448510     0.323551     0.574862 
    0.518139     0.308255     0.351928 
    0.356651     0.458765     0.662474 
    0.293405     0.426879     0.589182 
    0.511675     0.512089     0.276299 
    0.390389     0.676982     0.423580 
    0.484084     0.681805     0.398434 
    0.324857     0.602519     0.409382 
    0.536939     0.329927     0.617695 
    0.383111     0.561472     0.649996 
    0.678250     0.610764     0.439953 
    0.294907     0.530570     0.619824 
    0.336893     0.497813     0.376060 
    0.452989     0.698054     0.500484 
EA38657 17.731 16.580 15.214 90.00 90.00 90.00 Sym.group:    0
1.0
   17.730935     0.000000     0.000000
    0.000000    16.579874     0.000000
    0.000000     0.000000    15.214057
   W   B
  20  16
Direct
    0.426778     0.379945     0.397966 
    0.569697     0.347926     0.352249 
    0.684055     0.431889     0.406905 
    0.512728     0.282361     0.488469 
    0.621873     0.574107     0.490019 
    0.540955     0.438297     0.511447 
    0.609546     0.527663     0.671328 
    0.685580     0.429051     0.578047 
    0.694109     0.570936     0.343511 
    0.563763     0.510217     0.342201 
    0.468799     0.466146     0.663228 
    0.504601     0.613589     0.593951 
    0.381813     0.361097     0.576106 
    0.257976     0.472048     0.525525 
    0.396643     0.507603     0.499464 
    0.402069     0.522718     0.317498 
    0.481060     0.631086     0.421857 
    0.584174     0.720077     0.503918 
    0.321376     0.460404     0.674480 
    0.360953     0.663683     0.527825 
    0.631622     0.331083     0.481038 
    0.708464     0.561397     0.592656 
    0.597312     0.327595     0.584710 
    0.738847     0.523438     0.490736 
    0.578512     0.399404     0.660661 
    0.504641     0.340845     0.619380 
    0.483417     0.428583     0.282579 
    0.636811     0.644180     0.611646 
    0.391503     0.574737     0.639405 
    0.302799     0.570388     0.604423 
    0.314957     0.453048     0.386967 
    0.360737     0.621886     0.395729 
    0.314961     0.376591     0.456588 
    0.296026     0.551141     0.408983 
    0.605385     0.656331     0.373876 
    0.465461     0.728512     0.524630 
EA38586 16.954 16.373 15.869 90.00 90.00 90.00 Sym.group:    0
1.0
   16.953806     0.000000     0.000000
    0.000000    16.372553     0.000000
    0.000000     0.000000    15.869123
   W   B
  20  17
Direct
    0.524234     0.484426     0.647974 
    0.315586     0.387861     0.578668 
    0.339459     0.638976     0.561737 
    0.407469     0.509312     0.511436 
    0.492505     0.641412     0.589898 
    0.363381     0.649188     0.397121 
    0.572456     0.536001     0.489368 
    0.617352     0.444727     0.368866 
    0.481036     0.563039     0.351374 
    0.718563     0.571852     0.551953 
    0.680722     0.488057     0.684233 
    0.526537     0.370553     0.517018 
    0.631075     0.365406     0.636275 
    0.535816     0.687668     0.433327 
    0.620193     0.607646     0.320133 
    0.377846     0.365999     0.424441 
    0.328874     0.499650     0.343701 
    0.508835     0.319042     0.350138 
    0.408992     0.274750     0.540963 
    0.449374     0.430554     0.273000 
    0.394980     0.458213     0.660923 
    0.319288     0.518925     0.635419 
    0.424860     0.715063     0.497079 
    0.281026     0.565419     0.456142 
    0.408384     0.561492     0.657718 
    0.267129     0.517375     0.548495 
    0.611746     0.588999     0.622427 
    0.718130     0.433071     0.567313 
    0.698457     0.554842     0.410008 
    0.662147     0.646021     0.447730 
    0.490061     0.442952     0.408972 
    0.663794     0.377928     0.492483 
    0.618575     0.662646     0.543744 
    0.616055     0.319024     0.423496 
    0.280246     0.456857     0.462367 
    0.706820     0.471117     0.469132 
    0.437999     0.373937     0.624929 
EA38558 17.767 16.660 14.294 90.00 90.00 90.00 Sym.group:    0
1.0
   17.766780     0.000000     0.000000
    0.000000    16.659567     0.000000
    0.000000     0.000000    14.294028
   W   B
  20  18
Direct
    0.521802     0.400310     0.456124 
    0.269465     0.482339     0.436884 
    0.373724     0.375468     0.504860 
    0.399312     0.444519     0.339003 
    0.453352     0.290838     0.361205 
    0.416538     0.540527     0.477471 
    0.280050     0.629567     0.458249 
    0.657206     0.335420     0.480944 
    0.539220     0.518145     0.340850 
    0.597866     0.412324     0.623292 
    0.720160     0.480042     0.542369 
    0.633672     0.692819     0.510077 
    0.581678     0.545460     0.514861 
    0.503812     0.663557     0.408527 
    0.492698     0.646252     0.597935 
    0.450898     0.476868     0.636285 
    0.303984     0.515330     0.610195 
    0.339807     0.378324     0.672213 
    0.442572     0.246609     0.514841 
    0.736594     0.611676     0.453225 
    0.260580     0.398666     0.563129 
    0.555401     0.263826     0.449603 
    0.336092     0.564015     0.344407 
    0.429429     0.580501     0.318406 
    0.378888     0.654295     0.375831 
    0.713128     0.428477     0.403108 
    0.625083     0.613488     0.381705 
    0.624821     0.423995     0.367129 
    0.666624     0.518659     0.383398 
    0.652417     0.530544     0.658398 
    0.555648     0.296330     0.563131 
    0.558598     0.541992     0.674445 
    0.692967     0.602591     0.594715 
    0.610723     0.627904     0.646550 
    0.482228     0.348735     0.609159 
    0.350521     0.644237     0.580209 
    0.397997     0.683855     0.487269 
    0.394446     0.591494     0.659994 
EA38528 17.213 17.003 16.158 90.00 90.00 90.00 Sym.group:    0
1.0
   17.213129     0.000000     0.000000
    0.000000    17.003432     0.000000
    0.000000     0.000000    16.157728
   W   B
  20  19
Direct
    0.560279     0.548489     0.682666 
    0.467194     0.670457     0.643433 
    0.417433     0.664244     0.488937 
    0.328200     0.622568     0.619478 
    0.458018     0.430144     0.640186 
    0.372303     0.516540     0.510868 
    0.336008     0.381163     0.561336 
    0.333022     0.486325     0.334826 
    0.500308     0.397732     0.478779 
    0.445987     0.285893     0.576009 
    0.531844     0.560036     0.531645 
    0.690749     0.565186     0.578991 
    0.624564     0.491587     0.412980 
    0.648242     0.662475     0.467434 
    0.542675     0.743054     0.530659 
    0.468578     0.543676     0.374506 
    0.625739     0.426573     0.578505 
    0.445250     0.386210     0.330386 
    0.592442     0.354127     0.356797 
    0.553388     0.466534     0.273188 
    0.427061     0.552615     0.676880 
    0.293953     0.627466     0.484983 
    0.344316     0.600302     0.395780 
    0.550414     0.339133     0.653514 
    0.348447     0.499543     0.646981 
    0.573614     0.297317     0.565564 
    0.264695     0.547660     0.434035 
    0.570338     0.422395     0.701804 
    0.396422     0.316724     0.459343 
    0.273367     0.451769     0.447169 
    0.336107     0.384505     0.419074 
    0.590597     0.609881     0.356270 
    0.731254     0.560891     0.450108 
    0.601703     0.660207     0.606829 
    0.728030     0.468179     0.498152 
    0.527682     0.660180     0.419759 
    0.688756     0.386115     0.460720 
    0.685732     0.593926     0.364667 
    0.625287     0.318180     0.486762 
EA38523 16.944 16.722 15.674 90.00 90.00 90.00 Sym.group:    0
1.0
   16.943636     0.000000     0.000000
    0.000000    16.722010     0.000000
    0.000000     0.000000    15.673637
   W   B
  20  20
Direct
    0.531995     0.314527     0.596077 
    0.435360     0.329056     0.463791 
    0.364919     0.324098     0.604135 
    0.365668     0.470021     0.528269 
    0.309761     0.511753     0.339048 
    0.556227     0.440470     0.485899 
    0.659257     0.342605     0.372532 
    0.569531     0.255267     0.452978 
    0.449214     0.474317     0.368684 
    0.416033     0.637479     0.384640 
    0.706873     0.458460     0.460331 
    0.620499     0.677574     0.497768 
    0.647003     0.549323     0.587990 
    0.543966     0.632905     0.670061 
    0.493964     0.587215     0.513310 
    0.331397     0.627336     0.539140 
    0.513390     0.468323     0.653748 
    0.398890     0.565643     0.668816 
    0.595489     0.560169     0.366853 
    0.739084     0.561827     0.352535 
    0.450441     0.362750     0.693968 
    0.304108     0.352439     0.481861 
    0.341975     0.395873     0.393538 
    0.383134     0.434781     0.671078 
    0.260529     0.435344     0.441437 
    0.261813     0.532330     0.466587 
    0.288947     0.613308     0.410657 
    0.573450     0.434776     0.324829 
    0.651082     0.336016     0.516213 
    0.530140     0.353243     0.366879 
    0.672359     0.460425     0.311915 
    0.649991     0.406640     0.592981 
    0.720209     0.593145     0.480662 
    0.609301     0.531843     0.723886 
    0.513588     0.721565     0.565530 
    0.642166     0.449357     0.686357 
    0.543832     0.674906     0.382974 
    0.502544     0.727011     0.457322 
    0.420565     0.711080     0.509864 
    0.431305     0.684801     0.614859 
