EA9    17.828 15.617 12.554 90.00 90.00 90.00 Sym.group:    0
1.0
   17.828254     0.000000     0.000000
    0.000000    15.617440     0.000000
    0.000000     0.000000    12.554036
   W   B
  20  20
Direct
    0.683673     0.364321     0.392001 
    0.314867     0.366065     0.609328 
    0.683879     0.635751     0.391834 
    0.315223     0.634246     0.608206 
    0.697937     0.418351     0.598880 
    0.302070     0.418743     0.402894 
    0.698035     0.581541     0.599409 
    0.301677     0.581296     0.402063 
    0.570360     0.500148     0.564223 
    0.429812     0.500520     0.433690 
    0.229639     0.500224     0.566780 
    0.770422     0.500412     0.432962 
    0.449168     0.584845     0.650292 
    0.551941     0.584556     0.348494 
    0.448703     0.415589     0.650890 
    0.552023     0.415676     0.348633 
    0.537259     0.259234     0.590140 
    0.462324     0.259097     0.410720 
    0.538111     0.740104     0.589887 
    0.462407     0.740361     0.410078 
    0.782034     0.373255     0.485747 
    0.217047     0.373354     0.514378 
    0.781996     0.626819     0.486371 
    0.217267     0.626963     0.513834 
    0.399215     0.357482     0.489161 
    0.600456     0.356883     0.512676 
    0.399604     0.641971     0.488002 
    0.600610     0.642064     0.512507 
    0.500152     0.626593     0.499199 
    0.499789     0.373010     0.499978 
    0.422664     0.716110     0.596337 
    0.578380     0.717296     0.401356 
    0.421679     0.284622     0.595733 
    0.578517     0.282763     0.401870 
    0.338942     0.500066     0.657213 
    0.662163     0.500241     0.342704 
    0.579843     0.624010     0.666893 
    0.420175     0.624415     0.333820 
    0.579824     0.375651     0.666996 
    0.420111     0.375350     0.333821 
EA546  21.017 13.702 14.294 90.00 90.00 90.00 Sym.group:    0
1.0
   21.016622     0.000000     0.000000
    0.000000    13.702149     0.000000
    0.000000     0.000000    14.293659
   W   B
  20  16
Direct
    0.232762     0.526099     0.403584 
    0.229105     0.476893     0.585615 
    0.770460     0.477420     0.413175 
    0.767277     0.526697     0.595970 
    0.253874     0.640421     0.521678 
    0.255800     0.361227     0.471931 
    0.745185     0.361330     0.528497 
    0.746428     0.640908     0.477054 
    0.341543     0.616677     0.384001 
    0.336800     0.385911     0.617034 
    0.663031     0.388038     0.382350 
    0.657854     0.613960     0.617235 
    0.468274     0.360220     0.655900 
    0.466655     0.638250     0.346891 
    0.533164     0.636109     0.656303 
    0.532729     0.361259     0.340386 
    0.430999     0.476464     0.406542 
    0.425411     0.513532     0.587062 
    0.574733     0.514101     0.413424 
    0.568872     0.476037     0.592073 
    0.422399     0.640005     0.481155 
    0.422813     0.354433     0.522888 
    0.578236     0.354171     0.475228 
    0.576577     0.638995     0.519518 
    0.645986     0.626315     0.465755 
    0.644705     0.376887     0.531726 
    0.355513     0.378224     0.466820 
    0.353733     0.626723     0.538165 
    0.678410     0.544566     0.391979 
    0.674671     0.456859     0.611176 
    0.325879     0.458640     0.389365 
    0.321058     0.543522     0.610586 
    0.499833     0.376362     0.497868 
    0.496374     0.500543     0.704650 
    0.498791     0.629670     0.500986 
    0.504066     0.502528     0.295431 
EA907  17.899 13.968 13.816 90.00 90.00 90.00 Sym.group:    0
1.0
   17.899497     0.000000     0.000000
    0.000000    13.968143     0.000000
    0.000000     0.000000    13.815619
   W   B
  16  19
Direct
    0.609765     0.503104     0.500744 
    0.390966     0.502585     0.501235 
    0.416208     0.464491     0.307154 
    0.418021     0.649204     0.374898 
    0.416132     0.680842     0.566014 
    0.417351     0.534382     0.691711 
    0.415738     0.351501     0.627308 
    0.416573     0.316681     0.431124 
    0.583311     0.466468     0.306240 
    0.582150     0.648003     0.373439 
    0.584045     0.680411     0.566085 
    0.581776     0.534912     0.693501 
    0.582292     0.350246     0.626154 
    0.582907     0.317128     0.435028 
    0.758074     0.502697     0.499279 
    0.243178     0.500233     0.500065 
    0.317390     0.591525     0.592993 
    0.316716     0.467324     0.625456 
    0.319167     0.373579     0.532574 
    0.318228     0.405628     0.406276 
    0.317575     0.530404     0.371357 
    0.316180     0.624495     0.467058 
    0.682905     0.589160     0.600442 
    0.681863     0.466225     0.632014 
    0.682260     0.372040     0.535817 
    0.680632     0.406988     0.404936 
    0.682503     0.533043     0.370547 
    0.685535     0.627083     0.460606 
    0.498976     0.576060     0.288632 
    0.501011     0.716979     0.459516 
    0.500341     0.644820     0.670851 
    0.500435     0.426687     0.710325 
    0.498243     0.285863     0.539947 
    0.501432     0.357317     0.330740 
    0.500117     0.501894     0.499934 
EA1292 18.487 14.824 15.318 90.00 90.00 90.00 Sym.group:    0
1.0
   18.486880     0.000000     0.000000
    0.000000    14.824470     0.000000
    0.000000     0.000000    15.317514
   W   B
  16  19
Direct
    0.586686     0.509073     0.497288 
    0.416788     0.506964     0.497511 
    0.418469     0.312159     0.496991 
    0.424465     0.408414     0.341125 
    0.423723     0.594765     0.343259 
    0.423228     0.684314     0.498137 
    0.423282     0.592795     0.654917 
    0.424887     0.409014     0.654099 
    0.580533     0.308745     0.494984 
    0.574462     0.410532     0.341378 
    0.576589     0.595859     0.343181 
    0.575212     0.685753     0.495945 
    0.579832     0.597834     0.652092 
    0.576926     0.409453     0.658110 
    0.738327     0.506694     0.500346 
    0.260813     0.509842     0.499461 
    0.327034     0.606994     0.442966 
    0.326578     0.602005     0.559059 
    0.330465     0.500796     0.610288 
    0.332472     0.403787     0.554020 
    0.331378     0.404115     0.442123 
    0.330254     0.505229     0.386722 
    0.672134     0.608305     0.443891 
    0.674475     0.600781     0.562314 
    0.668311     0.502128     0.610992 
    0.668200     0.403432     0.557366 
    0.669525     0.404125     0.442205 
    0.667735     0.505470     0.384439 
    0.500427     0.307401     0.389548 
    0.499651     0.499148     0.281767 
    0.499569     0.688194     0.391967 
    0.499981     0.688125     0.604237 
    0.500635     0.508041     0.713892 
    0.499137     0.309528     0.608620 
    0.497819     0.410186     0.544761 
EA1581 17.017 15.479 15.516 90.00 90.00 90.00 Sym.group:    0
1.0
   17.017415     0.000000     0.000000
    0.000000    15.478880     0.000000
    0.000000     0.000000    15.515822
   W   B
  16  19
Direct
    0.410670     0.495866     0.500708 
    0.422135     0.365360     0.382932 
    0.419692     0.326956     0.557268 
    0.418111     0.460798     0.672464 
    0.416004     0.630187     0.617684 
    0.416708     0.669006     0.442993 
    0.420186     0.533395     0.324334 
    0.579816     0.329117     0.559234 
    0.242178     0.495673     0.496342 
    0.589154     0.498999     0.506521 
    0.576541     0.632961     0.623079 
    0.583309     0.670223     0.448397 
    0.586190     0.534894     0.328345 
    0.582892     0.367213     0.386719 
    0.576439     0.460521     0.675674 
    0.758102     0.500192     0.510377 
    0.316479     0.531227     0.604078 
    0.317423     0.606573     0.518894 
    0.319915     0.572306     0.412720 
    0.319901     0.461860     0.391235 
    0.319591     0.385608     0.475846 
    0.317852     0.420093     0.582707 
    0.501613     0.286596     0.457900 
    0.497568     0.351182     0.663502 
    0.504222     0.432161     0.297618 
    0.684583     0.465265     0.401406 
    0.682228     0.389509     0.485131 
    0.680310     0.423177     0.592098 
    0.679492     0.534750     0.614362 
    0.680609     0.610176     0.529667 
    0.682978     0.575531     0.423497 
    0.497591     0.709054     0.543705 
    0.502791     0.643338     0.338983 
    0.495707     0.565795     0.704554 
    0.501024     0.564443     0.429025 
EA1811 16.071 16.333 11.800 90.00 90.00 90.00 Sym.group:    0
1.0
   16.071111     0.000000     0.000000
    0.000000    16.332944     0.000000
    0.000000     0.000000    11.800098
   W   B
  18  19
Direct
    0.577750     0.633485     0.714392 
    0.419996     0.632850     0.284505 
    0.343495     0.498467     0.715463 
    0.422116     0.366444     0.285078 
    0.580000     0.367221     0.715608 
    0.656509     0.501844     0.284550 
    0.691395     0.628590     0.567057 
    0.483272     0.727720     0.433596 
    0.291263     0.599878     0.566735 
    0.308462     0.371610     0.433390 
    0.516714     0.272412     0.566594 
    0.708711     0.400490     0.433874 
    0.448126     0.589579     0.613975 
    0.396040     0.502504     0.384902 
    0.446691     0.412256     0.615558 
    0.551768     0.410123     0.385313 
    0.603767     0.497194     0.615302 
    0.553344     0.587558     0.384097 
    0.310816     0.379937     0.621785 
    0.510848     0.279198     0.377581 
    0.701142     0.398397     0.623042 
    0.689301     0.620190     0.378114 
    0.489278     0.720749     0.622358 
    0.298871     0.601504     0.377178 
    0.356695     0.676030     0.438536 
    0.273313     0.465732     0.560320 
    0.416831     0.289956     0.438561 
    0.643341     0.323809     0.561614 
    0.726614     0.534410     0.439739 
    0.583175     0.709804     0.561267 
    0.608176     0.290820     0.435760 
    0.737445     0.487727     0.564612 
    0.630246     0.695952     0.435646 
    0.391963     0.708986     0.564241 
    0.262566     0.512529     0.435597 
    0.369850     0.304082     0.564210 
    0.500112     0.499964     0.499851 
EA2267 17.957 15.502 16.087 90.00 90.00 90.00 Sym.group:    0
1.0
   17.957032     0.000000     0.000000
    0.000000    15.501821     0.000000
    0.000000     0.000000    16.086626
   W   B
  19  17
Direct
    0.689242     0.478050     0.360396 
    0.544373     0.422892     0.719476 
    0.546843     0.362543     0.574350 
    0.495956     0.295098     0.428839 
    0.758288     0.574048     0.442706 
    0.419479     0.417718     0.641699 
    0.636540     0.302600     0.441435 
    0.597364     0.540993     0.607937 
    0.565063     0.685549     0.525972 
    0.617196     0.622886     0.368958 
    0.379484     0.630309     0.398594 
    0.451833     0.389519     0.310678 
    0.486533     0.549516     0.335477 
    0.458085     0.550619     0.540876 
    0.394667     0.426570     0.463128 
    0.671061     0.292053     0.596204 
    0.584666     0.366856     0.304461 
    0.561109     0.464635     0.436868 
    0.692830     0.436704     0.522434 
    0.297932     0.405421     0.565907 
    0.643873     0.564642     0.484935 
    0.350927     0.324323     0.561304 
    0.437061     0.306519     0.550579 
    0.649676     0.415730     0.649633 
    0.492213     0.539363     0.681295 
    0.450462     0.706218     0.483674 
    0.302376     0.520533     0.414037 
    0.273483     0.483051     0.503463 
    0.450803     0.696821     0.587721 
    0.503409     0.671063     0.404395 
    0.368807     0.498850     0.342513 
    0.511770     0.640100     0.643747 
    0.337098     0.502307     0.581508 
    0.374734     0.668769     0.534793 
    0.679760     0.667727     0.481161 
    0.325009     0.579405     0.508844 
EA2535 16.713 16.505 15.939 90.00 90.00 90.00 Sym.group:    0
1.0
   16.712749     0.000000     0.000000
    0.000000    16.505379     0.000000
    0.000000     0.000000    15.939176
   W   B
  20  17
Direct
    0.502963     0.492603     0.507370 
    0.542137     0.469613     0.340595 
    0.607150     0.585997     0.587769 
    0.399344     0.395064     0.429544 
    0.446257     0.563310     0.652218 
    0.416016     0.565010     0.367452 
    0.570784     0.619287     0.402552 
    0.450337     0.660063     0.512844 
    0.423135     0.369372     0.591850 
    0.595963     0.409448     0.619139 
    0.338905     0.531892     0.529322 
    0.550284     0.337577     0.465153 
    0.670644     0.475066     0.478854 
    0.313297     0.664852     0.445197 
    0.537736     0.273829     0.617154 
    0.704424     0.337623     0.538603 
    0.445695     0.723542     0.375753 
    0.708793     0.615811     0.461848 
    0.480359     0.321891     0.319121 
    0.275969     0.397380     0.554050 
    0.416619     0.439789     0.299479 
    0.665178     0.535616     0.351280 
    0.561831     0.562607     0.731268 
    0.346073     0.465545     0.652780 
    0.550938     0.652974     0.696499 
    0.538409     0.697603     0.610695 
    0.607549     0.351683     0.331984 
    0.522804     0.473906     0.728213 
    0.324432     0.468581     0.342302 
    0.676186     0.350512     0.411062 
    0.273998     0.447415     0.431086 
    0.502669     0.373896     0.708433 
    0.670407     0.433138     0.341914 
    0.546544     0.747229     0.450601 
    0.602318     0.697166     0.516509 
    0.286130     0.551019     0.390846 
    0.427727     0.442090     0.708662 
EA2986 14.506 14.804 15.568 90.00 90.00 90.00 Sym.group:    0
1.0
   14.506172     0.000000     0.000000
    0.000000    14.804181     0.000000
    0.000000     0.000000    15.568117
   W   B
  18  16
Direct
    0.387933     0.501945     0.498195 
    0.589620     0.500845     0.496951 
    0.606028     0.649114     0.387837 
    0.602058     0.473853     0.324767 
    0.602224     0.321838     0.435771 
    0.604445     0.349505     0.614042 
    0.600687     0.525720     0.674909 
    0.606894     0.676337     0.565420 
    0.416228     0.648586     0.390145 
    0.420367     0.475898     0.329936 
    0.414312     0.332866     0.439716 
    0.407873     0.350083     0.613206 
    0.418060     0.525099     0.669074 
    0.418279     0.668493     0.562215 
    0.256860     0.594477     0.622075 
    0.244647     0.645705     0.484247 
    0.250334     0.544569     0.361548 
    0.257022     0.391445     0.390210 
    0.284107     0.379605     0.524265 
    0.288004     0.452446     0.608478 
    0.712849     0.569017     0.584546 
    0.714437     0.611529     0.484333 
    0.714583     0.540633     0.399647 
    0.712733     0.428335     0.416538 
    0.711313     0.386107     0.516992 
    0.711918     0.457132     0.600980 
    0.509594     0.358275     0.335236 
    0.508962     0.281161     0.535849 
    0.509058     0.412088     0.696701 
    0.510897     0.640865     0.666298 
    0.512475     0.725420     0.467322 
    0.512318     0.588232     0.298970 
    0.748124     0.498139     0.500845 
    0.234756     0.494638     0.502738 
EA3137 18.177 15.948 15.674 90.00 90.00 90.00 Sym.group:    0
1.0
   18.176968     0.000000     0.000000
    0.000000    15.947737     0.000000
    0.000000     0.000000    15.674019
   W   B
  18  20
Direct
    0.562085     0.525635     0.466741 
    0.451640     0.599001     0.365277 
    0.746822     0.501398     0.625908 
    0.483507     0.417650     0.367152 
    0.620093     0.617290     0.360799 
    0.628469     0.381171     0.455868 
    0.540669     0.657611     0.592691 
    0.684859     0.593955     0.522797 
    0.604355     0.486778     0.621457 
    0.759816     0.445652     0.490607 
    0.388643     0.708234     0.493665 
    0.340252     0.495895     0.376258 
    0.325642     0.459366     0.539273 
    0.382500     0.600148     0.615158 
    0.387406     0.297456     0.494214 
    0.487354     0.521150     0.716460 
    0.281563     0.616630     0.496688 
    0.482285     0.395164     0.556121 
    0.442044     0.285364     0.371000 
    0.688128     0.388563     0.581332 
    0.682506     0.508197     0.404557 
    0.508916     0.294336     0.439896 
    0.601064     0.348422     0.592257 
    0.541674     0.529176     0.305179 
    0.608274     0.691971     0.482493 
    0.610160     0.471854     0.342151 
    0.557660     0.287758     0.525165 
    0.523426     0.678997     0.444399 
    0.371769     0.348477     0.362057 
    0.378161     0.366641     0.617427 
    0.464227     0.649453     0.709369 
    0.310498     0.374994     0.435237 
    0.392129     0.462637     0.658790 
    0.441150     0.720881     0.635465 
    0.339825     0.636606     0.384226 
    0.486611     0.534848     0.582274 
    0.460641     0.604415     0.502991 
    0.433184     0.496225     0.466599 
EA3605 17.677 15.578 15.516 90.00 90.00 90.00 Sym.group:    0
1.0
   17.676576     0.000000     0.000000
    0.000000    15.577789     0.000000
    0.000000     0.000000    15.516412
   W   B
  20  16
Direct
    0.609179     0.507760     0.494690 
    0.455220     0.441576     0.684259 
    0.637827     0.360140     0.619147 
    0.588072     0.654152     0.583152 
    0.609671     0.503555     0.667151 
    0.742813     0.521916     0.448723 
    0.715887     0.598208     0.602571 
    0.712916     0.356839     0.488952 
    0.445563     0.696231     0.578869 
    0.552414     0.623821     0.399196 
    0.312250     0.705717     0.558660 
    0.437762     0.466862     0.456568 
    0.379525     0.552542     0.600205 
    0.570951     0.352078     0.452542 
    0.335305     0.349185     0.474979 
    0.294915     0.507446     0.411038 
    0.451793     0.335154     0.349323 
    0.410450     0.522062     0.303823 
    0.404594     0.639760     0.424589 
    0.540735     0.465463     0.327283 
    0.650497     0.533422     0.342412 
    0.679403     0.652692     0.480189 
    0.722231     0.460618     0.584511 
    0.662435     0.429482     0.376232 
    0.495228     0.583489     0.671597 
    0.506699     0.345810     0.587530 
    0.511670     0.481454     0.578580 
    0.491294     0.583259     0.514638 
    0.266201     0.574208     0.530433 
    0.411351     0.341592     0.586648 
    0.456241     0.311220     0.492602 
    0.284565     0.464672     0.544809 
    0.343331     0.411221     0.610470 
    0.349483     0.402345     0.345608 
    0.281321     0.641348     0.446556 
    0.680205     0.622704     0.381463 
EA3813 16.654 15.970 15.565 90.00 90.00 90.00 Sym.group:    0
1.0
   16.653815     0.000000     0.000000
    0.000000    15.970476     0.000000
    0.000000     0.000000    15.564754
   W   B
  19  18
Direct
    0.425467     0.531961     0.506183 
    0.617641     0.540713     0.393384 
    0.429313     0.587157     0.343979 
    0.443900     0.419293     0.378108 
    0.312976     0.654245     0.554798 
    0.283547     0.488743     0.572240 
    0.321395     0.680457     0.403992 
    0.461817     0.689721     0.475456 
    0.396065     0.368325     0.559670 
    0.663322     0.412544     0.637491 
    0.506982     0.525164     0.658220 
    0.510300     0.364313     0.669095 
    0.737974     0.466474     0.487250 
    0.643595     0.560434     0.574031 
    0.622579     0.702655     0.488969 
    0.736836     0.617060     0.442858 
    0.702010     0.320937     0.505061 
    0.555800     0.427956     0.515159 
    0.570198     0.297346     0.418353 
    0.541173     0.663542     0.367071 
    0.524592     0.496470     0.291904 
    0.345480     0.341607     0.430466 
    0.276678     0.373910     0.500926 
    0.572947     0.412497     0.340516 
    0.440265     0.295741     0.449105 
    0.545532     0.595356     0.287342 
    0.294410     0.558572     0.448089 
    0.594865     0.298487     0.584307 
    0.383542     0.462816     0.664276 
    0.374146     0.565864     0.648610 
    0.532897     0.670349     0.602627 
    0.631125     0.694800     0.623807 
    0.433540     0.643665     0.608572 
    0.588079     0.626497     0.687171 
    0.500690     0.290453     0.541503 
    0.322588     0.450024     0.439683 
    0.655730     0.403850     0.399730 
EA4178 16.854 16.092 15.499 90.00 90.00 90.00 Sym.group:    0
1.0
   16.853653     0.000000     0.000000
    0.000000    16.092075     0.000000
    0.000000     0.000000    15.499399
   W   B
  19  18
Direct
    0.423958     0.525564     0.495508 
    0.618200     0.553294     0.398911 
    0.432446     0.575186     0.332166 
    0.453833     0.409882     0.376907 
    0.300900     0.635413     0.535915 
    0.282990     0.472601     0.566145 
    0.314092     0.655525     0.384585 
    0.447934     0.681736     0.466448 
    0.407308     0.369980     0.560548 
    0.667684     0.419520     0.646004 
    0.496336     0.523946     0.652872 
    0.520386     0.368230     0.672948 
    0.739791     0.492501     0.499314 
    0.641310     0.576391     0.585546 
    0.603632     0.710730     0.490402 
    0.727661     0.640416     0.454138 
    0.717040     0.343220     0.520044 
    0.564744     0.440976     0.516683 
    0.586050     0.306733     0.431385 
    0.533624     0.662557     0.362660 
    0.534201     0.492657     0.297144 
    0.360945     0.327800     0.432767 
    0.289027     0.354069     0.501721 
    0.584030     0.419104     0.354513 
    0.457511     0.292310     0.455168 
    0.548982     0.592510     0.286542 
    0.293726     0.533987     0.433709 
    0.604719     0.311417     0.579631 
    0.376170     0.459358     0.665373 
    0.363831     0.558749     0.639501 
    0.512887     0.673005     0.597320 
    0.604220     0.706715     0.626545 
    0.417757     0.637643     0.598864 
    0.563905     0.634723     0.686223 
    0.511850     0.292193     0.549264 
    0.327837     0.431008     0.436242 
    0.668480     0.418353     0.410341 
EA4635 17.213 15.995 15.651 90.00 90.00 90.00 Sym.group:    0
1.0
   17.213113     0.000000     0.000000
    0.000000    15.995146     0.000000
    0.000000     0.000000    15.650906
   W   B
  16  20
Direct
    0.634069     0.566076     0.381202 
    0.579852     0.329919     0.323401 
    0.584141     0.496075     0.525222 
    0.609667     0.668929     0.503125 
    0.660188     0.592452     0.642533 
    0.633258     0.408122     0.648206 
    0.586855     0.319837     0.482519 
    0.506770     0.616378     0.606844 
    0.479955     0.433332     0.664788 
    0.437650     0.324423     0.535750 
    0.489717     0.744623     0.464995 
    0.414790     0.498513     0.532631 
    0.388391     0.551737     0.373918 
    0.261304     0.483036     0.464098 
    0.367930     0.389128     0.397555 
    0.509862     0.458648     0.380466 
    0.477673     0.306793     0.406508 
    0.555758     0.673844     0.363872 
    0.648675     0.421046     0.412872 
    0.705190     0.576473     0.509472 
    0.716364     0.488112     0.571245 
    0.690608     0.397711     0.519551 
    0.569565     0.521619     0.694790 
    0.540154     0.327136     0.614449 
    0.713649     0.484925     0.460260 
    0.518350     0.582637     0.322414 
    0.494226     0.610537     0.430928 
    0.460710     0.344157     0.306459 
    0.318177     0.382343     0.530194 
    0.290721     0.459976     0.598998 
    0.291746     0.560408     0.582183 
    0.318247     0.599053     0.487825 
    0.416461     0.712586     0.566317 
    0.365450     0.626472     0.588081 
    0.360865     0.393341     0.627470 
    0.403010     0.649605     0.478856 
EA4757 16.866 16.043 16.436 90.00 90.00 90.00 Sym.group:    0
1.0
   16.866345     0.000000     0.000000
    0.000000    16.042507     0.000000
    0.000000     0.000000    16.436472
   W   B
  18  20
Direct
    0.427285     0.449760     0.481287 
    0.413690     0.452766     0.652629 
    0.329498     0.593412     0.423654 
    0.535983     0.402705     0.358175 
    0.549606     0.504759     0.244946 
    0.617619     0.302075     0.445719 
    0.476097     0.561923     0.366280 
    0.389561     0.351133     0.345934 
    0.461081     0.289899     0.466414 
    0.642505     0.544052     0.348552 
    0.586813     0.486748     0.491380 
    0.709784     0.478111     0.599040 
    0.576941     0.441386     0.640656 
    0.612022     0.607279     0.611027 
    0.569363     0.652044     0.449902 
    0.339257     0.716151     0.510327 
    0.445425     0.588234     0.560849 
    0.491151     0.737633     0.563476 
    0.299289     0.602091     0.558117 
    0.311741     0.513416     0.605668 
    0.313184     0.416641     0.563685 
    0.335638     0.346551     0.469375 
    0.304758     0.440327     0.418441 
    0.470163     0.347851     0.594194 
    0.285612     0.498988     0.505149 
    0.375561     0.338724     0.564575 
    0.558847     0.320380     0.559090 
    0.370135     0.484250     0.351361 
    0.723681     0.487011     0.456456 
    0.709884     0.389952     0.488607 
    0.651609     0.354877     0.564359 
    0.671197     0.417635     0.393554 
    0.505479     0.551646     0.680269 
    0.685472     0.677640     0.518242 
    0.500531     0.654043     0.664288 
    0.615450     0.737676     0.544445 
    0.439170     0.680828     0.441033 
    0.698915     0.579403     0.498846 
EA5092 17.984 17.105 14.684 90.00 90.00 90.00 Sym.group:    0
1.0
   17.984131     0.000000     0.000000
    0.000000    17.104675     0.000000
    0.000000     0.000000    14.683849
   W   B
  20  18
Direct
    0.255398     0.516942     0.533737 
    0.393064     0.325972     0.512522 
    0.266372     0.383578     0.476551 
    0.449814     0.434057     0.621319 
    0.357884     0.628541     0.565401 
    0.420444     0.517080     0.348487 
    0.508782     0.250248     0.497333 
    0.492857     0.364369     0.376968 
    0.484795     0.574384     0.514665 
    0.537361     0.724645     0.555944 
    0.493463     0.660707     0.685597 
    0.570667     0.560216     0.346786 
    0.641902     0.625593     0.483759 
    0.624048     0.320229     0.462797 
    0.583056     0.363176     0.628878 
    0.734618     0.409076     0.421920 
    0.624083     0.418054     0.316867 
    0.583676     0.464377     0.495523 
    0.714215     0.540747     0.374255 
    0.554859     0.525819     0.679412 
    0.308966     0.481474     0.402645 
    0.318070     0.575583     0.431569 
    0.326666     0.422869     0.590261 
    0.371001     0.406168     0.396298 
    0.346236     0.512414     0.628078 
    0.425038     0.557971     0.660774 
    0.388944     0.633970     0.418536 
    0.476345     0.307345     0.621059 
    0.513397     0.460002     0.280136 
    0.706999     0.507874     0.524800 
    0.450230     0.698584     0.456788 
    0.541514     0.675207     0.418317 
    0.606750     0.642334     0.633499 
    0.657105     0.559981     0.607002 
    0.469758     0.634584     0.364340 
    0.658349     0.466023     0.635503 
    0.690971     0.401820     0.558184 
    0.452304     0.447988     0.473490 
EA5465 17.784 17.326 15.313 90.00 90.00 90.00 Sym.group:    0
1.0
   17.783642     0.000000     0.000000
    0.000000    17.326098     0.000000
    0.000000     0.000000    15.313048
   W   B
  19  19
Direct
    0.404783     0.531587     0.493070 
    0.259186     0.501335     0.536249 
    0.407150     0.679910     0.526098 
    0.275943     0.629336     0.482055 
    0.464172     0.562726     0.640802 
    0.364411     0.382112     0.566669 
    0.412414     0.478669     0.340785 
    0.526455     0.740613     0.497082 
    0.491341     0.624713     0.383891 
    0.494680     0.418089     0.516105 
    0.523522     0.278369     0.560985 
    0.518716     0.392993     0.676133 
    0.561703     0.432736     0.353619 
    0.641787     0.368681     0.476751 
    0.637826     0.666642     0.456771 
    0.603502     0.633507     0.617606 
    0.740684     0.570406     0.412282 
    0.625067     0.568125     0.320013 
    0.580744     0.533720     0.492912 
    0.302693     0.528101     0.399899 
    0.313440     0.434850     0.436473 
    0.334069     0.592289     0.601443 
    0.362630     0.605530     0.381877 
    0.346886     0.499063     0.633715 
    0.412599     0.445865     0.680316 
    0.380207     0.369982     0.419975 
    0.494947     0.685735     0.619968 
    0.512460     0.533067     0.285291 
    0.699120     0.479914     0.515255 
    0.437731     0.305152     0.463845 
    0.534968     0.316689     0.423294 
    0.616234     0.334725     0.612516 
    0.578959     0.509109     0.653790 
    0.628709     0.432175     0.601787 
    0.461023     0.360977     0.368241 
    0.679165     0.468507     0.393879 
    0.665385     0.522935     0.615202 
    0.704689     0.581067     0.543357 
EA5806 17.603 15.761 15.431 90.00 90.00 90.00 Sym.group:    0
1.0
   17.603490     0.000000     0.000000
    0.000000    15.761225     0.000000
    0.000000     0.000000    15.431290
   W   B
  18  20
Direct
    0.471145     0.348629     0.318575 
    0.495464     0.414375     0.491942 
    0.400283     0.301560     0.482951 
    0.445190     0.352803     0.648658 
    0.588646     0.377895     0.620607 
    0.469775     0.505368     0.341025 
    0.594590     0.542902     0.483296 
    0.599572     0.408473     0.367781 
    0.658552     0.669401     0.397183 
    0.704698     0.535265     0.342801 
    0.420762     0.552901     0.493946 
    0.480082     0.672893     0.571366 
    0.505295     0.516772     0.642065 
    0.512442     0.667270     0.400372 
    0.365061     0.580765     0.667122 
    0.283516     0.512457     0.561179 
    0.280073     0.625540     0.434067 
    0.382727     0.641283     0.332583 
    0.381775     0.415406     0.400501 
    0.594450     0.313935     0.492223 
    0.521516     0.284202     0.427246 
    0.514600     0.278177     0.542591 
    0.629287     0.519626     0.633279 
    0.680602     0.643256     0.539757 
    0.653946     0.392999     0.502512 
    0.710179     0.466385     0.459921 
    0.587389     0.563006     0.333911 
    0.726411     0.567080     0.486146 
    0.688814     0.472599     0.566365 
    0.598859     0.621790     0.609214 
    0.416119     0.466231     0.721855 
    0.599684     0.695815     0.527880 
    0.339414     0.439631     0.668917 
    0.344421     0.659943     0.551925 
    0.392197     0.692376     0.461326 
    0.316893     0.498546     0.414876 
    0.331107     0.376929     0.582717 
    0.314468     0.405518     0.479315 
EA6295 17.575 16.511 15.421 90.00 90.00 90.00 Sym.group:    0
1.0
   17.575488     0.000000     0.000000
    0.000000    16.511303     0.000000
    0.000000     0.000000    15.421339
   W   B
  16  20
Direct
    0.459537     0.410023     0.610453 
    0.491907     0.384615     0.426360 
    0.601625     0.356238     0.577984 
    0.379597     0.306174     0.491308 
    0.708310     0.475738     0.623916 
    0.582216     0.497069     0.519217 
    0.637557     0.353082     0.404460 
    0.421317     0.524897     0.509873 
    0.397613     0.507508     0.344324 
    0.355359     0.653745     0.432046 
    0.519197     0.565384     0.280007 
    0.322452     0.604853     0.588476 
    0.514349     0.643360     0.453943 
    0.642599     0.597314     0.661314 
    0.681590     0.605712     0.502551 
    0.503216     0.586745     0.635390 
    0.332210     0.395054     0.563298 
    0.493400     0.292905     0.544980 
    0.561845     0.275353     0.471569 
    0.373280     0.379691     0.378510 
    0.585078     0.471991     0.664411 
    0.703026     0.399906     0.505389 
    0.594537     0.466264     0.352536 
    0.676606     0.488014     0.409407 
    0.742475     0.492845     0.490685 
    0.296304     0.541141     0.449296 
    0.321292     0.435479     0.449974 
    0.335340     0.471054     0.632556 
    0.438312     0.644577     0.333282 
    0.286373     0.486165     0.540107 
    0.606520     0.568650     0.385865 
    0.511203     0.514565     0.404009 
    0.507158     0.711422     0.578689 
    0.593693     0.685877     0.558432 
    0.422272     0.679021     0.552610 
    0.400635     0.527573     0.672770 
EA6570 16.820 18.129 15.893 90.00 90.00 90.00 Sym.group:    0
1.0
   16.819898     0.000000     0.000000
    0.000000    18.129125     0.000000
    0.000000     0.000000    15.893256
   W   B
  20  16
Direct
    0.575718     0.505783     0.478877 
    0.552110     0.464393     0.640877 
    0.629572     0.589499     0.613301 
    0.419019     0.493977     0.696734 
    0.473883     0.614780     0.575225 
    0.425663     0.346673     0.587495 
    0.435937     0.550292     0.389731 
    0.332887     0.448319     0.349870 
    0.411896     0.685156     0.385060 
    0.258870     0.462488     0.482673 
    0.469739     0.397633     0.406857 
    0.556218     0.502210     0.299649 
    0.558873     0.645779     0.391832 
    0.319959     0.609855     0.498781 
    0.536409     0.292686     0.507296 
    0.681552     0.549291     0.368305 
    0.408351     0.478787     0.538344 
    0.719737     0.423302     0.466197 
    0.749491     0.542768     0.517564 
    0.271093     0.565772     0.366387 
    0.619730     0.384226     0.557206 
    0.671153     0.468662     0.584067 
    0.650378     0.432283     0.352422 
    0.582499     0.672603     0.524560 
    0.481986     0.380697     0.702063 
    0.522869     0.570554     0.694401 
    0.656395     0.622189     0.479436 
    0.496945     0.712141     0.487847 
    0.289093     0.524135     0.592087 
    0.415750     0.299310     0.463402 
    0.347907     0.369420     0.467055 
    0.568453     0.387931     0.327305 
    0.401335     0.705880     0.514641 
    0.359921     0.578040     0.623917 
    0.597589     0.378455     0.437459 
    0.551018     0.344031     0.631080 
EA6793 16.770 16.712 16.179 90.00 90.00 90.00 Sym.group:    0
1.0
   16.770046     0.000000     0.000000
    0.000000    16.711759     0.000000
    0.000000     0.000000    16.179430
   W   B
  20  18
Direct
    0.584896     0.529626     0.510337 
    0.726147     0.534086     0.593255 
    0.491185     0.534555     0.655318 
    0.665429     0.388089     0.569932 
    0.636922     0.517352     0.363691 
    0.430791     0.702909     0.501602 
    0.503303     0.619812     0.386010 
    0.512346     0.391071     0.559599 
    0.420370     0.399818     0.690099 
    0.495110     0.448555     0.366818 
    0.373031     0.377632     0.444770 
    0.342498     0.612346     0.394561 
    0.416690     0.519600     0.498646 
    0.597162     0.285357     0.469329 
    0.564889     0.385765     0.705438 
    0.533952     0.686954     0.617668 
    0.596487     0.342561     0.336265 
    0.674731     0.669168     0.557863 
    0.332204     0.521281     0.633188 
    0.414537     0.569103     0.265196 
    0.711617     0.577574     0.462346 
    0.716088     0.476622     0.472567 
    0.615142     0.590553     0.647985 
    0.634355     0.637127     0.431528 
    0.618563     0.490125     0.653781 
    0.660752     0.400202     0.434718 
    0.533514     0.544429     0.278310 
    0.293982     0.489606     0.424368 
    0.486283     0.319621     0.405111 
    0.397259     0.320690     0.568223 
    0.333179     0.393420     0.582273 
    0.362904     0.485458     0.351240 
    0.286130     0.455378     0.520980 
    0.277503     0.553267     0.504645 
    0.332755     0.627819     0.542919 
    0.457652     0.283116     0.496577 
    0.561561     0.685909     0.486089 
    0.408080     0.633444     0.616752 
EA7157 16.447 16.281 16.309 90.00 90.00 90.00 Sym.group:    0
1.0
   16.446878     0.000000     0.000000
    0.000000    16.281100     0.000000
    0.000000     0.000000    16.308880
   W   B
  18  19
Direct
    0.495131     0.500349     0.502460 
    0.365212     0.486854     0.599127 
    0.631150     0.513938     0.596938 
    0.627856     0.532804     0.406453 
    0.369539     0.462415     0.399839 
    0.513123     0.397676     0.361887 
    0.568363     0.652430     0.494442 
    0.476066     0.604116     0.637463 
    0.379033     0.616571     0.504607 
    0.483885     0.606188     0.363174 
    0.620705     0.383932     0.501619 
    0.525576     0.397511     0.637884 
    0.429242     0.348436     0.495630 
    0.441553     0.271083     0.639734 
    0.555898     0.729454     0.642179 
    0.632969     0.306893     0.350530 
    0.364402     0.692921     0.360445 
    0.733200     0.391033     0.406721 
    0.601654     0.608097     0.684779 
    0.655034     0.651231     0.600934 
    0.364285     0.563906     0.316810 
    0.301809     0.577515     0.400193 
    0.630981     0.438346     0.309068 
    0.342597     0.351276     0.600749 
    0.397707     0.390570     0.683540 
    0.456191     0.719458     0.447586 
    0.540498     0.283604     0.446691 
    0.461281     0.720715     0.552588 
    0.536154     0.277362     0.551316 
    0.285877     0.514117     0.487564 
    0.445214     0.497903     0.289464 
    0.304676     0.407356     0.510871 
    0.548898     0.515894     0.709253 
    0.721000     0.496461     0.493996 
    0.448049     0.482762     0.708082 
    0.693479     0.598996     0.514874 
    0.551713     0.509828     0.290508 
EA7487 16.597 16.703 16.086 90.00 90.00 90.00 Sym.group:    0
1.0
   16.597066     0.000000     0.000000
    0.000000    16.702785     0.000000
    0.000000     0.000000    16.086277
   W   B
  18  19
Direct
    0.503371     0.507634     0.501089 
    0.470075     0.594129     0.364639 
    0.514605     0.611174     0.633960 
    0.511250     0.406271     0.640612 
    0.508400     0.391212     0.361390 
    0.609476     0.377340     0.494451 
    0.377815     0.486798     0.605188 
    0.385889     0.626009     0.503116 
    0.360000     0.491385     0.411729 
    0.416282     0.363351     0.507986 
    0.640107     0.521540     0.589503 
    0.591138     0.643494     0.495186 
    0.623147     0.499286     0.391044 
    0.287068     0.627562     0.609974 
    0.728964     0.389211     0.598894 
    0.298919     0.340675     0.411708 
    0.625712     0.308199     0.651171 
    0.420634     0.277715     0.356652 
    0.408289     0.683699     0.624681 
    0.391841     0.597352     0.686292 
    0.377628     0.397584     0.315561 
    0.589919     0.598737     0.306102 
    0.569105     0.681855     0.367670 
    0.293190     0.428403     0.514815 
    0.715532     0.472049     0.488794 
    0.278429     0.529679     0.525704 
    0.701392     0.573965     0.467891 
    0.433233     0.482728     0.295889 
    0.515570     0.284270     0.455607 
    0.535173     0.509999     0.286250 
    0.481848     0.710137     0.546315 
    0.567451     0.508294     0.706951 
    0.489057     0.706087     0.438067 
    0.460881     0.518318     0.711095 
    0.524075     0.294551     0.560354 
    0.657721     0.626947     0.380786 
    0.636817     0.432360     0.692881 
EA7903 17.476 15.928 14.191 90.00 90.00 90.00 Sym.group:    0
1.0
   17.475964     0.000000     0.000000
    0.000000    15.927744     0.000000
    0.000000     0.000000    14.191482
   W   B
  17  19
Direct
    0.430665     0.466705     0.489621 
    0.351547     0.322682     0.456617 
    0.517784     0.393890     0.652178 
    0.611843     0.319136     0.514351 
    0.484862     0.560921     0.642732 
    0.579984     0.474472     0.499168 
    0.665846     0.620745     0.471835 
    0.661037     0.503962     0.333800 
    0.548353     0.611945     0.358860 
    0.510736     0.462487     0.319627 
    0.384906     0.554125     0.342378 
    0.417678     0.650016     0.491486 
    0.288910     0.540983     0.495839 
    0.235758     0.401801     0.494980 
    0.540862     0.704404     0.557695 
    0.491306     0.321749     0.385964 
    0.721401     0.370800     0.411221 
    0.324022     0.436239     0.595609 
    0.312228     0.441453     0.386344 
    0.435367     0.677975     0.343395 
    0.405485     0.449832     0.663023 
    0.472619     0.315074     0.537943 
    0.393620     0.403745     0.340034 
    0.606309     0.378514     0.366322 
    0.678302     0.517333     0.588374 
    0.598336     0.499893     0.663955 
    0.438842     0.695510     0.639708 
    0.724357     0.497213     0.475541 
    0.497974     0.732577     0.412500 
    0.643793     0.410701     0.634828 
    0.355086     0.534584     0.628381 
    0.594778     0.724625     0.420069 
    0.400441     0.361432     0.598309 
    0.362949     0.636262     0.633069 
    0.705633     0.412993     0.548916 
    0.606386     0.593223     0.605325 
EA8258 17.796 15.972 14.156 90.00 90.00 90.00 Sym.group:    0
1.0
   17.795797     0.000000     0.000000
    0.000000    15.972248     0.000000
    0.000000     0.000000    14.156265
   W   B
  17  19
Direct
    0.568229     0.474299     0.488002 
    0.649825     0.335195     0.455300 
    0.491705     0.397018     0.662957 
    0.395592     0.316473     0.530206 
    0.521669     0.562490     0.640605 
    0.423078     0.471140     0.506692 
    0.333174     0.612391     0.481252 
    0.333684     0.492456     0.345062 
    0.442256     0.604821     0.363427 
    0.481229     0.458343     0.321714 
    0.604469     0.556239     0.330908 
    0.578417     0.663800     0.473371 
    0.701132     0.553596     0.481713 
    0.763703     0.418907     0.474193 
    0.458929     0.703238     0.552210 
    0.508349     0.324851     0.398613 
    0.284058     0.359971     0.429230 
    0.677373     0.437092     0.580127 
    0.682533     0.450046     0.371983 
    0.546384     0.677488     0.327054 
    0.603210     0.452733     0.664760 
    0.530681     0.317045     0.547953 
    0.600371     0.407727     0.336143 
    0.393029     0.369335     0.375367 
    0.327670     0.511638     0.600028 
    0.412062     0.501549     0.672030 
    0.563532     0.693423     0.624110 
    0.282843     0.486737     0.491221 
    0.486997     0.732046     0.400993 
    0.367849     0.410440     0.648936 
    0.648953     0.533461     0.622453 
    0.393408     0.717835     0.421407 
    0.603807     0.364636     0.599194 
    0.638592     0.633787     0.603830 
    0.303031     0.406852     0.567156 
    0.398174     0.590903     0.609800 
EA8519 16.268 16.776 15.150 90.00 90.00 90.00 Sym.group:    0
1.0
   16.268126     0.000000     0.000000
    0.000000    16.776050     0.000000
    0.000000     0.000000    15.149632
   W   B
  16  20
Direct
    0.376130     0.443802     0.571910 
    0.531525     0.441674     0.534330 
    0.572451     0.283629     0.486091 
    0.648257     0.415683     0.424325 
    0.463915     0.385296     0.395521 
    0.483414     0.510337     0.270607 
    0.695671     0.491632     0.576169 
    0.481331     0.688477     0.472315 
    0.587343     0.579236     0.475779 
    0.560287     0.688705     0.624601 
    0.660543     0.335210     0.595893 
    0.630922     0.535276     0.315934 
    0.490477     0.325853     0.642181 
    0.586406     0.546246     0.673958 
    0.644628     0.718484     0.504845 
    0.419216     0.538097     0.413146 
    0.277389     0.495781     0.413661 
    0.329232     0.416642     0.425840 
    0.482657     0.453085     0.676854 
    0.355021     0.338423     0.480994 
    0.371619     0.313011     0.586761 
    0.442922     0.294995     0.510220 
    0.580873     0.326044     0.351736 
    0.586542     0.417631     0.674755 
    0.570838     0.414920     0.304167 
    0.327971     0.655570     0.432280 
    0.306386     0.569537     0.502376 
    0.362634     0.654237     0.530661 
    0.728569     0.604795     0.505102 
    0.523244     0.607683     0.352351 
    0.432696     0.653116     0.608206 
    0.453613     0.546666     0.643061 
    0.274840     0.585787     0.394501 
    0.716848     0.529969     0.435198 
    0.679300     0.621905     0.599533 
    0.364290     0.572564     0.594138 
EA8827 18.352 16.830 15.048 90.00 90.00 90.00 Sym.group:    0
1.0
   18.352354     0.000000     0.000000
    0.000000    16.830330     0.000000
    0.000000     0.000000    15.048345
   W   B
  20  16
Direct
    0.556068     0.339563     0.578269 
    0.500056     0.539517     0.687792 
    0.650414     0.414178     0.472810 
    0.679942     0.649474     0.518619 
    0.321866     0.604204     0.508325 
    0.378635     0.479735     0.635523 
    0.407643     0.334150     0.577209 
    0.355500     0.634622     0.662568 
    0.632418     0.515207     0.606207 
    0.544615     0.634782     0.542489 
    0.461671     0.385420     0.350077 
    0.368086     0.462659     0.448871 
    0.674713     0.378133     0.657144 
    0.736284     0.528012     0.461675 
    0.495268     0.559512     0.380384 
    0.644870     0.521205     0.324710 
    0.364421     0.303468     0.433773 
    0.602679     0.662285     0.384446 
    0.503996     0.471693     0.520899 
    0.528960     0.477558     0.251221 
    0.554915     0.343509     0.431055 
    0.479450     0.406771     0.670855 
    0.569016     0.431408     0.693623 
    0.740774     0.444471     0.572566 
    0.584722     0.405871     0.349434 
    0.461142     0.666181     0.638077 
    0.369965     0.575499     0.371452 
    0.404820     0.659581     0.413912 
    0.488976     0.692834     0.428981 
    0.406401     0.500643     0.311188 
    0.431376     0.580511     0.567144 
    0.609353     0.542587     0.457902 
    0.305955     0.396015     0.556476 
    0.278576     0.486907     0.547062 
    0.479303     0.292769     0.462305 
    0.427152     0.679068     0.524957 
EA9347 16.974 16.439 15.173 90.00 90.00 90.00 Sym.group:    0
1.0
   16.973586     0.000000     0.000000
    0.000000    16.438506     0.000000
    0.000000     0.000000    15.173417
   W   B
  16  17
Direct
    0.541690     0.491654     0.646551 
    0.282397     0.530752     0.488810 
    0.651175     0.396600     0.570683 
    0.323279     0.584269     0.649004 
    0.570200     0.272719     0.526884 
    0.362878     0.381533     0.488824 
    0.602494     0.565515     0.503391 
    0.468348     0.684878     0.464590 
    0.499451     0.565101     0.356658 
    0.376753     0.475665     0.350028 
    0.470176     0.639771     0.628902 
    0.625994     0.613259     0.671322 
    0.585732     0.716601     0.562048 
    0.535325     0.410595     0.454685 
    0.436307     0.522974     0.516984 
    0.409479     0.495225     0.722068 
    0.429091     0.403822     0.614359 
    0.338190     0.455216     0.609206 
    0.439616     0.356892     0.368125 
    0.461501     0.294825     0.454293 
    0.369479     0.604409     0.408726 
    0.281881     0.558101     0.355939 
    0.632286     0.589836     0.355862 
    0.699807     0.531843     0.399927 
    0.721750     0.496123     0.500506 
    0.663529     0.440043     0.437358 
    0.695012     0.527649     0.600816 
    0.356173     0.638451     0.520338 
    0.531181     0.355713     0.622317 
    0.583498     0.666742     0.408122 
    0.493318     0.431142     0.316854 
    0.454862     0.313445     0.563602 
    0.607151     0.488640     0.362215 
EA9505 17.690 16.738 15.472 90.00 90.00 90.00 Sym.group:    0
1.0
   17.689799     0.000000     0.000000
    0.000000    16.737964     0.000000
    0.000000     0.000000    15.472295
   W   B
  20  16
Direct
    0.338446     0.553380     0.560614 
    0.310027     0.648672     0.430961 
    0.449715     0.604064     0.440809 
    0.408422     0.324484     0.627413 
    0.266035     0.439825     0.479007 
    0.422349     0.439219     0.498146 
    0.341576     0.507682     0.366755 
    0.538521     0.386443     0.384934 
    0.573002     0.539604     0.340491 
    0.450349     0.285117     0.480754 
    0.672908     0.377202     0.458424 
    0.645506     0.639477     0.570454 
    0.739279     0.528753     0.532803 
    0.409883     0.697513     0.567076 
    0.560683     0.396787     0.570306 
    0.533872     0.250138     0.596599 
    0.413775     0.471944     0.681222 
    0.418159     0.622738     0.695989 
    0.636846     0.524195     0.668584 
    0.512939     0.558584     0.592144 
    0.414227     0.394187     0.361386 
    0.325633     0.341582     0.528238 
    0.379959     0.627745     0.323064 
    0.454963     0.572342     0.298717 
    0.324403     0.421166     0.603579 
    0.530199     0.496926     0.462355 
    0.644156     0.438111     0.341593 
    0.528466     0.686587     0.520599 
    0.695186     0.498836     0.402650 
    0.573667     0.615320     0.461021 
    0.530751     0.694103     0.629019 
    0.662484     0.584472     0.443341 
    0.578906     0.289495     0.474405 
    0.677502     0.433473     0.582221 
    0.461634     0.474900     0.326456 
    0.575572     0.634933     0.697871 
EA9842 17.536 16.903 15.607 90.00 90.00 90.00 Sym.group:    0
1.0
   17.536208     0.000000     0.000000
    0.000000    16.903252     0.000000
    0.000000     0.000000    15.606517
   W   B
  20  16
Direct
    0.493841     0.415799     0.349535 
    0.639914     0.381230     0.402794 
    0.354664     0.364504     0.433148 
    0.494021     0.296713     0.426991 
    0.562972     0.533653     0.434949 
    0.704147     0.509949     0.418976 
    0.544675     0.702487     0.442412 
    0.467080     0.725785     0.568603 
    0.363171     0.626021     0.568358 
    0.538075     0.578554     0.592230 
    0.764624     0.397692     0.500509 
    0.699876     0.400008     0.645726 
    0.332066     0.386012     0.617640 
    0.420140     0.515165     0.682089 
    0.417694     0.487050     0.508433 
    0.556150     0.453021     0.697922 
    0.355194     0.599792     0.392099 
    0.666067     0.539409     0.678247 
    0.242586     0.427787     0.515532 
    0.551730     0.401754     0.541714 
    0.380695     0.475596     0.356475 
    0.445357     0.541645     0.313110 
    0.607281     0.474491     0.310066 
    0.478426     0.625197     0.361388 
    0.636373     0.640398     0.483550 
    0.286879     0.548420     0.496599 
    0.300298     0.485094     0.411449 
    0.451966     0.622150     0.472802 
    0.732988     0.502729     0.563057 
    0.307737     0.510862     0.602895 
    0.453897     0.398449     0.632548 
    0.452335     0.641514     0.668688 
    0.662415     0.338611     0.535577 
    0.665360     0.568957     0.540712 
    0.535687     0.534471     0.292393 
    0.433622     0.349028     0.540788 
EA10336 17.151 15.518 15.365 90.00 90.00 90.00 Sym.group:    0
1.0
   17.151011     0.000000     0.000000
    0.000000    15.518031     0.000000
    0.000000     0.000000    15.364666
   W   B
  16  16
Direct
    0.439393     0.484480     0.477178 
    0.409514     0.572993     0.344247 
    0.489663     0.591531     0.602754 
    0.302389     0.435600     0.520121 
    0.500985     0.330878     0.403368 
    0.420809     0.413868     0.641003 
    0.534734     0.486855     0.722476 
    0.612609     0.390145     0.513862 
    0.559620     0.491225     0.366320 
    0.712739     0.458312     0.391834 
    0.640449     0.616489     0.436595 
    0.647394     0.542781     0.607086 
    0.547355     0.740416     0.477287 
    0.288595     0.452618     0.679711 
    0.345914     0.624508     0.509141 
    0.769502     0.562219     0.488700 
    0.375608     0.365243     0.409945 
    0.337842     0.451758     0.365627 
    0.438603     0.711239     0.532531 
    0.404459     0.340107     0.510133 
    0.433300     0.431261     0.333124 
    0.540810     0.363449     0.641458 
    0.360695     0.540075     0.618475 
    0.495545     0.331648     0.548126 
    0.521392     0.640102     0.378343 
    0.724539     0.446372     0.530266 
    0.602503     0.666382     0.566697 
    0.563775     0.522299     0.506669 
    0.440250     0.678263     0.430629 
    0.620194     0.417130     0.658303 
    0.301549     0.536547     0.414295 
    0.617270     0.363205     0.373698 
EA10533 18.245 16.120 15.020 90.00 90.00 90.00 Sym.group:    0
1.0
   18.245389     0.000000     0.000000
    0.000000    16.120006     0.000000
    0.000000     0.000000    15.020060
   W   B
  16  20
Direct
    0.497469     0.585295     0.490848 
    0.577330     0.696151     0.543714 
    0.384162     0.669386     0.412802 
    0.639970     0.573125     0.428554 
    0.427373     0.635557     0.622918 
    0.489814     0.593906     0.326242 
    0.618795     0.562822     0.628121 
    0.482621     0.312238     0.505258 
    0.336450     0.369634     0.505842 
    0.335816     0.536612     0.488294 
    0.443816     0.467279     0.599044 
    0.666363     0.401759     0.371798 
    0.350284     0.545429     0.326577 
    0.408520     0.319285     0.641173 
    0.451633     0.444945     0.407953 
    0.590415     0.430583     0.525026 
    0.687375     0.628748     0.544895 
    0.720420     0.410210     0.504295 
    0.498163     0.718711     0.419074 
    0.508522     0.547717     0.694087 
    0.705529     0.516297     0.541922 
    0.454083     0.723969     0.516392 
    0.550771     0.455805     0.669207 
    0.574579     0.676156     0.390936 
    0.533480     0.646457     0.675731 
    0.732567     0.490035     0.437102 
    0.255616     0.448105     0.588586 
    0.229186     0.449496     0.489896 
    0.331633     0.445966     0.636792 
    0.265649     0.445185     0.395623 
    0.343716     0.412606     0.364438 
    0.565753     0.474964     0.357244 
    0.549689     0.372059     0.383175 
    0.596901     0.303930     0.443980 
    0.521834     0.362348     0.630935 
    0.673703     0.327226     0.491530 
EA10718 16.982 17.885 15.500 90.00 90.00 90.00 Sym.group:    0
1.0
   16.982240     0.000000     0.000000
    0.000000    17.885485     0.000000
    0.000000     0.000000    15.499633
   W   B
  19  20
Direct
    0.332042     0.362457     0.545160 
    0.412076     0.504285     0.494650 
    0.424565     0.550006     0.670820 
    0.684683     0.500325     0.589034 
    0.543035     0.578400     0.569482 
    0.572632     0.444673     0.492837 
    0.327982     0.263493     0.437158 
    0.470985     0.472669     0.339851 
    0.302872     0.556699     0.357343 
    0.599083     0.656322     0.421070 
    0.628909     0.502345     0.343043 
    0.331224     0.403860     0.390513 
    0.438724     0.627958     0.393360 
    0.462490     0.337401     0.431229 
    0.253413     0.497416     0.488548 
    0.614345     0.302989     0.482388 
    0.300985     0.642109     0.475878 
    0.570660     0.372742     0.322205 
    0.503400     0.340461     0.589746 
    0.712913     0.471656     0.452758 
    0.640962     0.376526     0.600197 
    0.677800     0.391489     0.404146 
    0.672154     0.617406     0.541551 
    0.590323     0.435702     0.659110 
    0.403936     0.430712     0.633067 
    0.548399     0.513356     0.699396 
    0.537810     0.584812     0.318781 
    0.316264     0.572113     0.586155 
    0.619044     0.687001     0.562434 
    0.545345     0.728869     0.525988 
    0.412863     0.706789     0.498723 
    0.534922     0.550802     0.430887 
    0.492964     0.727716     0.441397 
    0.321491     0.480677     0.613368 
    0.400816     0.628892     0.564339 
    0.688278     0.561314     0.458693 
    0.496836     0.459997     0.625315 
    0.412650     0.265413     0.535789 
    0.700125     0.392148     0.513590 
EA11261 16.657 16.729 15.830 90.00 90.00 90.00 Sym.group:    0
1.0
   16.656598     0.000000     0.000000
    0.000000    16.729309     0.000000
    0.000000     0.000000    15.829569
   W   B
  18  17
Direct
    0.568892     0.504176     0.525887 
    0.633057     0.651819     0.518519 
    0.488360     0.641598     0.577775 
    0.349463     0.592183     0.639068 
    0.483970     0.517608     0.670110 
    0.462668     0.375015     0.605930 
    0.698009     0.417883     0.570482 
    0.659990     0.312105     0.470064 
    0.667091     0.444992     0.400555 
    0.497717     0.454655     0.374987 
    0.597801     0.554587     0.299206 
    0.596873     0.415160     0.266447 
    0.603814     0.694584     0.360626 
    0.469992     0.612812     0.404812 
    0.404742     0.501324     0.511065 
    0.322263     0.373564     0.522340 
    0.258174     0.482484     0.433640 
    0.516937     0.745675     0.461084 
    0.354207     0.454172     0.636802 
    0.675910     0.581669     0.406625 
    0.706929     0.536370     0.498724 
    0.597729     0.596083     0.642499 
    0.684975     0.557220     0.600493 
    0.627456     0.502706     0.665556 
    0.583979     0.416393     0.650555 
    0.588301     0.347970     0.573406 
    0.524330     0.337249     0.484385 
    0.376064     0.514988     0.367887 
    0.431075     0.350704     0.433122 
    0.366268     0.417435     0.395374 
    0.431231     0.291558     0.514916 
    0.371736     0.639358     0.507086 
    0.286330     0.579467     0.516711 
    0.334693     0.591941     0.419019 
    0.278978     0.492490     0.574247 
EA11614 16.897 18.132 15.406 90.00 90.00 90.00 Sym.group:    0
1.0
   16.897111     0.000000     0.000000
    0.000000    18.132018     0.000000
    0.000000     0.000000    15.405852
   W   B
  18  17
Direct
    0.576434     0.491875     0.519890 
    0.687463     0.601149     0.552755 
    0.537572     0.626621     0.578502 
    0.389211     0.633224     0.624407 
    0.476433     0.520632     0.668149 
    0.408664     0.408051     0.591184 
    0.656213     0.378405     0.570450 
    0.590035     0.308878     0.424318 
    0.697371     0.406367     0.422250 
    0.480473     0.425480     0.398056 
    0.619602     0.500899     0.338374 
    0.577645     0.371342     0.294688 
    0.678768     0.630428     0.376259 
    0.520148     0.595380     0.400532 
    0.411588     0.531240     0.506221 
    0.275530     0.454419     0.512140 
    0.278564     0.563826     0.408604 
    0.597358     0.703440     0.460481 
    0.334966     0.513135     0.626578 
    0.710807     0.527730     0.442487 
    0.726261     0.481337     0.535407 
    0.611201     0.553066     0.661758 
    0.683705     0.493438     0.631754 
    0.599613     0.461039     0.674906 
    0.534842     0.402806     0.632133 
    0.519407     0.356467     0.532835 
    0.429509     0.333381     0.482369 
    0.401934     0.537492     0.356921 
    0.356487     0.382221     0.434894 
    0.349972     0.465788     0.389276 
    0.327709     0.339528     0.519707 
    0.437304     0.661289     0.489694 
    0.336977     0.641718     0.491163 
    0.391011     0.623827     0.397902 
    0.289223     0.574081     0.552955 
EA11829 16.989 15.654 16.412 90.00 90.00 90.00 Sym.group:    0
1.0
   16.988909     0.000000     0.000000
    0.000000    15.654320     0.000000
    0.000000     0.000000    16.412095
   W   B
  20  16
Direct
    0.533244     0.584633     0.377024 
    0.655076     0.465009     0.352607 
    0.492279     0.417313     0.362190 
    0.314721     0.341075     0.514011 
    0.419754     0.476916     0.484356 
    0.342270     0.570879     0.616871 
    0.501126     0.733337     0.416204 
    0.372245     0.619607     0.387478 
    0.463667     0.632427     0.540984 
    0.455723     0.321750     0.583085 
    0.566448     0.615435     0.652545 
    0.479808     0.483527     0.645972 
    0.437512     0.616642     0.719012 
    0.591234     0.502054     0.497607 
    0.618835     0.674842     0.514146 
    0.683684     0.620361     0.393739 
    0.744973     0.450982     0.575745 
    0.532361     0.259135     0.473755 
    0.614843     0.345658     0.562771 
    0.723321     0.367625     0.455427 
    0.596842     0.368790     0.428625 
    0.363651     0.472086     0.347328 
    0.294724     0.461732     0.430348 
    0.354810     0.379135     0.394516 
    0.429161     0.333340     0.454822 
    0.360397     0.429551     0.604113 
    0.285127     0.468868     0.538338 
    0.294941     0.561462     0.486095 
    0.329378     0.658541     0.509449 
    0.388043     0.730565     0.467970 
    0.742214     0.506283     0.449627 
    0.721323     0.580298     0.519930 
    0.676985     0.561871     0.612565 
    0.620292     0.473252     0.642189 
    0.434816     0.530058     0.311694 
    0.564172     0.384960     0.676861 
EA12223 17.811 16.120 15.490 90.00 90.00 90.00 Sym.group:    0
1.0
   17.811474     0.000000     0.000000
    0.000000    16.120470     0.000000
    0.000000     0.000000    15.489833
   W   B
  20  16
Direct
    0.524396     0.450333     0.642404 
    0.364299     0.692985     0.535535 
    0.378299     0.479461     0.672263 
    0.297246     0.540008     0.566816 
    0.419509     0.466479     0.493352 
    0.534224     0.329233     0.514480 
    0.509905     0.406064     0.355332 
    0.446074     0.509702     0.257056 
    0.391189     0.323474     0.459242 
    0.452321     0.629749     0.397985 
    0.599376     0.648409     0.450947 
    0.607704     0.600191     0.652572 
    0.564226     0.554892     0.318803 
    0.586847     0.486395     0.492443 
    0.712607     0.560669     0.532605 
    0.734400     0.429992     0.429369 
    0.625964     0.349713     0.636025 
    0.489701     0.750680     0.475415 
    0.483191     0.603259     0.575137 
    0.261863     0.386213     0.495053 
    0.436713     0.358820     0.598019 
    0.343367     0.587228     0.448001 
    0.273086     0.416524     0.629984 
    0.346104     0.364063     0.591484 
    0.363759     0.536500     0.357612 
    0.384345     0.431893     0.352107 
    0.571040     0.706323     0.580355 
    0.663650     0.681923     0.564376 
    0.675723     0.542560     0.394168 
    0.621547     0.362033     0.408784 
    0.662888     0.346145     0.504777 
    0.636234     0.448698     0.350884 
    0.705328     0.426164     0.560223 
    0.659039     0.481540     0.632917 
    0.373962     0.619070     0.646112 
    0.299872     0.492616     0.427361 
EA12579 17.667 16.054 15.679 90.00 90.00 90.00 Sym.group:    0
1.0
   17.666898     0.000000     0.000000
    0.000000    16.054314     0.000000
    0.000000     0.000000    15.678625
   W   B
  20  16
Direct
    0.476245     0.463409     0.648733 
    0.634706     0.692607     0.504608 
    0.623092     0.498679     0.660283 
    0.712986     0.565932     0.545517 
    0.586675     0.478810     0.495410 
    0.466919     0.328856     0.536693 
    0.496727     0.403524     0.375111 
    0.545630     0.487527     0.256552 
    0.609337     0.323495     0.479406 
    0.537841     0.613398     0.391573 
    0.390919     0.642806     0.448788 
    0.392024     0.602358     0.651361 
    0.426160     0.541420     0.312112 
    0.413105     0.485638     0.499363 
    0.282869     0.553277     0.535314 
    0.268714     0.411370     0.439056 
    0.378054     0.351867     0.651160 
    0.497963     0.744015     0.459397 
    0.514759     0.612891     0.573399 
    0.734278     0.394996     0.486097 
    0.568587     0.373923     0.605825 
    0.661998     0.594529     0.418571 
    0.732906     0.448608     0.611118 
    0.661404     0.382136     0.597093 
    0.624922     0.522140     0.353048 
    0.637681     0.417256     0.373481 
    0.419537     0.710496     0.566660 
    0.328267     0.677146     0.564474 
    0.321561     0.529071     0.400026 
    0.385074     0.351743     0.427408 
    0.335938     0.335629     0.521956 
    0.366520     0.433216     0.362059 
    0.293062     0.420027     0.570667 
    0.340330     0.481271     0.639030 
    0.632703     0.628469     0.623792 
    0.700509     0.497466     0.414858 
EA12874 15.820 16.429 15.945 90.00 90.00 90.00 Sym.group:    0
1.0
   15.820214     0.000000     0.000000
    0.000000    16.429358     0.000000
    0.000000     0.000000    15.944880
   W   B
  16  20
Direct
    0.391872     0.421395     0.330708 
    0.397655     0.378108     0.571801 
    0.288296     0.431050     0.457393 
    0.406739     0.523018     0.492736 
    0.453639     0.687638     0.472740 
    0.410758     0.615349     0.625017 
    0.464283     0.572014     0.353620 
    0.251852     0.558429     0.586017 
    0.572963     0.580750     0.521025 
    0.534920     0.431212     0.426825 
    0.696699     0.449295     0.459965 
    0.636209     0.550145     0.342782 
    0.502252     0.276570     0.503457 
    0.567573     0.417562     0.588517 
    0.724447     0.598683     0.558129 
    0.612267     0.308868     0.373614 
    0.453321     0.487267     0.641173 
    0.324676     0.535826     0.366111 
    0.273286     0.434481     0.597596 
    0.348393     0.489892     0.646317 
    0.348784     0.630537     0.406227 
    0.328214     0.641942     0.510728 
    0.393304     0.338825     0.438729 
    0.270142     0.568613     0.452013 
    0.529293     0.663988     0.659160 
    0.568466     0.656935     0.401783 
    0.639815     0.528903     0.649821 
    0.637967     0.322820     0.503417 
    0.667956     0.645946     0.440807 
    0.698859     0.473460     0.588197 
    0.738923     0.572817     0.424588 
    0.536920     0.551798     0.660795 
    0.471724     0.315750     0.369817 
    0.640963     0.422270     0.327656 
    0.621858     0.626918     0.655180 
    0.594712     0.290925     0.595539 
EA13265 17.655 15.877 14.693 90.00 90.00 90.00 Sym.group:    0
1.0
   17.654566     0.000000     0.000000
    0.000000    15.876509     0.000000
    0.000000     0.000000    14.692670
   W   B
  19  17
Direct
    0.533359     0.465981     0.645809 
    0.363801     0.695264     0.503661 
    0.383921     0.499700     0.668527 
    0.276793     0.561085     0.558603 
    0.406390     0.475973     0.495397 
    0.538935     0.347733     0.509338 
    0.449391     0.428459     0.335031 
    0.393182     0.321480     0.472237 
    0.449442     0.600691     0.387128 
    0.594096     0.651909     0.424123 
    0.610632     0.618234     0.645569 
    0.560541     0.529263     0.302007 
    0.586376     0.501849     0.479554 
    0.708788     0.569264     0.528314 
    0.745331     0.432651     0.436310 
    0.632544     0.353012     0.659175 
    0.480079     0.611081     0.579398 
    0.260727     0.382638     0.497575 
    0.697849     0.308254     0.532426 
    0.439920     0.371883     0.608077 
    0.323507     0.592778     0.421654 
    0.275709     0.439816     0.626447 
    0.347107     0.374089     0.605240 
    0.351304     0.514431     0.347964 
    0.325338     0.414270     0.376506 
    0.563729     0.719073     0.550456 
    0.656395     0.698689     0.543588 
    0.681919     0.547301     0.376779 
    0.639670     0.363775     0.417991 
    0.652259     0.446922     0.345849 
    0.717549     0.432455     0.582362 
    0.661121     0.491528     0.648092 
    0.363735     0.629964     0.627236 
    0.276477     0.496322     0.425344 
    0.564445     0.398959     0.362497 
    0.487637     0.713223     0.473733 
EA13693 17.518 14.625 14.804 90.00 90.00 90.00 Sym.group:    0
1.0
   17.517514     0.000000     0.000000
    0.000000    14.624564     0.000000
    0.000000     0.000000    14.804034
   W   B
  16  17
Direct
    0.390825     0.568888     0.362692 
    0.300787     0.432515     0.415750 
    0.435568     0.488770     0.511297 
    0.479750     0.390055     0.703781 
    0.394610     0.648509     0.587260 
    0.510283     0.337332     0.521930 
    0.510530     0.437910     0.352044 
    0.281457     0.546388     0.552736 
    0.591965     0.495369     0.493935 
    0.521207     0.547015     0.653019 
    0.715500     0.551002     0.399333 
    0.509259     0.653709     0.471585 
    0.592617     0.591390     0.330329 
    0.730114     0.451979     0.568439 
    0.360479     0.477547     0.679073 
    0.617986     0.400492     0.656080 
    0.399486     0.701182     0.443651 
    0.373007     0.335192     0.498213 
    0.270952     0.574372     0.409982 
    0.314247     0.661425     0.459213 
    0.398440     0.351536     0.605086 
    0.390148     0.426383     0.317742 
    0.316843     0.402656     0.562889 
    0.648633     0.545601     0.631369 
    0.693234     0.406219     0.436772 
    0.604725     0.357582     0.414153 
    0.515454     0.689818     0.610995 
    0.636955     0.646235     0.462071 
    0.605029     0.639476     0.576761 
    0.694477     0.594362     0.540483 
    0.415019     0.354609     0.402901 
    0.637564     0.446405     0.348326 
    0.642848     0.348073     0.520108 
EA13844 16.627 16.343 14.655 90.00 90.00 90.00 Sym.group:    0
1.0
   16.626585     0.000000     0.000000
    0.000000    16.343088     0.000000
    0.000000     0.000000    14.655248
   W   B
  17  20
Direct
    0.549172     0.717853     0.534287 
    0.640320     0.640507     0.642716 
    0.669408     0.539798     0.392749 
    0.558022     0.542740     0.527032 
    0.567424     0.339420     0.597238 
    0.659350     0.471016     0.645972 
    0.376864     0.617688     0.362682 
    0.605465     0.310090     0.432033 
    0.516426     0.518676     0.349575 
    0.330625     0.356828     0.398083 
    0.461304     0.399656     0.477802 
    0.413396     0.521575     0.626449 
    0.328751     0.376626     0.592525 
    0.307516     0.494090     0.477222 
    0.407116     0.654456     0.532806 
    0.279066     0.619215     0.612946 
    0.711103     0.343943     0.551921 
    0.572843     0.646849     0.404482 
    0.651385     0.645905     0.485639 
    0.481066     0.702073     0.407499 
    0.692691     0.406117     0.420376 
    0.714005     0.470050     0.507658 
    0.697524     0.566986     0.539430 
    0.549295     0.549755     0.689972 
    0.616657     0.422345     0.348880 
    0.528531     0.378541     0.335051 
    0.434949     0.402621     0.322086 
    0.498744     0.646876     0.317296 
    0.433586     0.535279     0.467793 
    0.379465     0.285618     0.501615 
    0.447980     0.387184     0.649563 
    0.529092     0.450844     0.669761 
    0.278929     0.493228     0.627505 
    0.380440     0.485890     0.346840 
    0.505265     0.632312     0.640419 
    0.282644     0.631030     0.472130 
    0.443586     0.296320     0.591970 
EA14390 17.354 14.662 14.892 90.00 90.00 90.00 Sym.group:    0
1.0
   17.353641     0.000000     0.000000
    0.000000    14.662464     0.000000
    0.000000     0.000000    14.891503
   W   B
  17  16
Direct
    0.404309     0.392587     0.361247 
    0.427741     0.507768     0.503795 
    0.487771     0.644196     0.703881 
    0.390155     0.356293     0.606524 
    0.517624     0.663140     0.511849 
    0.508194     0.542200     0.339663 
    0.279905     0.457642     0.570575 
    0.589749     0.501892     0.488102 
    0.516225     0.472152     0.650399 
    0.712237     0.429986     0.399547 
    0.504303     0.344525     0.489044 
    0.583955     0.387761     0.337386 
    0.733405     0.547678     0.558120 
    0.374054     0.543280     0.673555 
    0.620251     0.612268     0.639252 
    0.392736     0.703912     0.599227 
    0.361137     0.558764     0.335523 
    0.394608     0.285215     0.471411 
    0.365931     0.642592     0.457655 
    0.294830     0.444109     0.417851 
    0.316375     0.346435     0.469671 
    0.315519     0.602364     0.553182 
    0.646606     0.464967     0.631613 
    0.694904     0.576616     0.421050 
    0.608846     0.628533     0.395255 
    0.513512     0.326693     0.632871 
    0.633028     0.348136     0.472642 
    0.600745     0.367285     0.589450 
    0.689937     0.409023     0.544922 
    0.444825     0.656834     0.387029 
    0.637138     0.531301     0.337694 
    0.649733     0.648944     0.496101 
    0.289713     0.554911     0.453914 
EA14466 17.533 16.769 15.724 90.00 90.00 90.00 Sym.group:    0
1.0
   17.532827     0.000000     0.000000
    0.000000    16.769460     0.000000
    0.000000     0.000000    15.724321
   W   B
  19  19
Direct
    0.434133     0.541373     0.508658 
    0.456956     0.450887     0.369088 
    0.289920     0.576920     0.455489 
    0.514313     0.600678     0.358625 
    0.354048     0.411111     0.513368 
    0.292823     0.532779     0.605055 
    0.437911     0.301328     0.419560 
    0.404135     0.685980     0.440761 
    0.462169     0.704162     0.575673 
    0.394092     0.597652     0.684621 
    0.521568     0.247916     0.525284 
    0.516879     0.406815     0.589942 
    0.580517     0.353351     0.400163 
    0.696818     0.455143     0.362086 
    0.582086     0.501497     0.472366 
    0.533081     0.585831     0.629002 
    0.633527     0.655690     0.561088 
    0.662171     0.424991     0.613105 
    0.579635     0.468351     0.287138 
    0.334111     0.490320     0.361996 
    0.402662     0.469725     0.637873 
    0.233300     0.467259     0.509432 
    0.343901     0.649933     0.567230 
    0.264789     0.446169     0.413417 
    0.392960     0.570594     0.368354 
    0.341363     0.391186     0.373504 
    0.539414     0.685769     0.464875 
    0.423704     0.311140     0.556985 
    0.479198     0.483754     0.698947 
    0.680786     0.383564     0.480686 
    0.719442     0.473782     0.498472 
    0.699954     0.544415     0.569778 
    0.694435     0.571425     0.457005 
    0.649167     0.547649     0.660754 
    0.643712     0.568339     0.354644 
    0.617619     0.327623     0.533531 
    0.575544     0.479277     0.694037 
    0.617156     0.635625     0.427407 
EA14908 17.773 15.944 14.738 90.00 90.00 90.00 Sym.group:    0
1.0
   17.772826     0.000000     0.000000
    0.000000    15.943775     0.000000
    0.000000     0.000000    14.738084
   W   B
  16  20
Direct
    0.574843     0.651652     0.643738 
    0.608379     0.602797     0.374826 
    0.683154     0.601690     0.529812 
    0.578021     0.493136     0.510505 
    0.634481     0.359532     0.424697 
    0.747466     0.447506     0.471145 
    0.501515     0.709940     0.395475 
    0.464250     0.537994     0.375953 
    0.379873     0.660027     0.502903 
    0.294317     0.524476     0.633665 
    0.320396     0.453463     0.373279 
    0.408607     0.505593     0.539400 
    0.309671     0.378482     0.618953 
    0.512466     0.499966     0.667062 
    0.549863     0.335847     0.578343 
    0.415368     0.357056     0.465168 
    0.579033     0.466850     0.352904 
    0.635662     0.535337     0.656307 
    0.727722     0.559165     0.396655 
    0.673371     0.480548     0.359850 
    0.619579     0.429223     0.650700 
    0.667256     0.380153     0.565008 
    0.583169     0.677593     0.498308 
    0.700766     0.477993     0.600097 
    0.512727     0.388350     0.368147 
    0.496232     0.694604     0.542896 
    0.398784     0.657453     0.358346 
    0.339492     0.585110     0.386569 
    0.292853     0.556830     0.481176 
    0.290744     0.362039     0.475279 
    0.263921     0.457263     0.508173 
    0.393413     0.456805     0.688204 
    0.457709     0.619216     0.611865 
    0.436734     0.380843     0.622277 
    0.424416     0.411890     0.329559 
    0.523750     0.303573     0.442754 
EA15147 17.759 16.782 15.433 90.00 90.00 90.00 Sym.group:    0
1.0
   17.759474     0.000000     0.000000
    0.000000    16.782248     0.000000
    0.000000     0.000000    15.432527
   W   B
  19  19
Direct
    0.433341     0.540376     0.497497 
    0.457227     0.414541     0.391978 
    0.289282     0.553117     0.440359 
    0.507797     0.554872     0.328070 
    0.359554     0.415176     0.547588 
    0.297024     0.555995     0.602180 
    0.442988     0.287205     0.491081 
    0.395954     0.657088     0.385815 
    0.455123     0.715574     0.510804 
    0.397070     0.643655     0.651591 
    0.530164     0.268663     0.606625 
    0.519815     0.439098     0.617439 
    0.582704     0.333610     0.448191 
    0.693029     0.421773     0.373808 
    0.580384     0.495792     0.468816 
    0.533919     0.619802     0.592352 
    0.629649     0.670038     0.502360 
    0.664524     0.465964     0.626572 
    0.576154     0.410699     0.299950 
    0.334233     0.445956     0.375385 
    0.407389     0.509053     0.647985 
    0.239113     0.464150     0.531294 
    0.341739     0.655664     0.521030 
    0.268515     0.417419     0.443154 
    0.389753     0.525857     0.352718 
    0.345098     0.355578     0.419601 
    0.530717     0.663571     0.408068 
    0.433270     0.335846     0.621513 
    0.484207     0.543328     0.698475 
    0.680899     0.389068     0.512791 
    0.716655     0.480478     0.497528 
    0.698182     0.567933     0.543560 
    0.688741     0.560702     0.426091 
    0.649932     0.595542     0.632801 
    0.636197     0.526599     0.330001 
    0.620716     0.349959     0.584525 
    0.579515     0.539558     0.690395 
    0.609432     0.610699     0.380006 
EA15455 17.432 17.175 15.714 90.00 90.00 90.00 Sym.group:    0
1.0
   17.431788     0.000000     0.000000
    0.000000    17.174825     0.000000
    0.000000     0.000000    15.714431
   W   B
  20  19
Direct
    0.462162     0.432174     0.504084 
    0.318145     0.385870     0.574902 
    0.333221     0.511257     0.412692 
    0.361276     0.352660     0.415567 
    0.447615     0.398127     0.660992 
    0.549541     0.306334     0.582763 
    0.467529     0.260129     0.437067 
    0.546269     0.480936     0.358082 
    0.590166     0.345671     0.434947 
    0.678220     0.366854     0.588622 
    0.535755     0.551841     0.629771 
    0.606803     0.638849     0.475957 
    0.446730     0.597101     0.481366 
    0.366134     0.524169     0.611283 
    0.539861     0.631239     0.322831 
    0.619769     0.486379     0.503430 
    0.695593     0.583885     0.607538 
    0.509603     0.716965     0.564844 
    0.399500     0.664583     0.349585 
    0.670780     0.563503     0.348112 
    0.422040     0.445303     0.341109 
    0.259080     0.419688     0.462228 
    0.416591     0.307412     0.547171 
    0.262209     0.494544     0.530601 
    0.571173     0.422437     0.639118 
    0.435564     0.546117     0.325751 
    0.481421     0.368403     0.361993 
    0.710162     0.391448     0.457300 
    0.667415     0.435799     0.372088 
    0.292618     0.586717     0.515829 
    0.432890     0.593730     0.705568 
    0.647019     0.479275     0.651275 
    0.504635     0.707691     0.425013 
    0.429217     0.638057     0.615256 
    0.737366     0.482914     0.431403 
    0.442528     0.504893     0.729591 
    0.609236     0.665179     0.616517 
    0.314164     0.638608     0.433958 
    0.719997     0.573266     0.473798 
EA15935 17.076 15.935 14.231 90.00 90.00 90.00 Sym.group:    0
1.0
   17.075772     0.000000     0.000000
    0.000000    15.935192     0.000000
    0.000000     0.000000    14.230703
   W   B
  16  20
Direct
    0.582666     0.368840     0.340557 
    0.597186     0.394208     0.624190 
    0.683410     0.413296     0.458473 
    0.580862     0.522889     0.489696 
    0.534940     0.675037     0.409548 
    0.616545     0.647244     0.596550 
    0.515067     0.535880     0.315746 
    0.739729     0.570039     0.550203 
    0.420233     0.585394     0.487503 
    0.455337     0.418288     0.423747 
    0.316246     0.432810     0.513002 
    0.358631     0.501282     0.326325 
    0.454633     0.457972     0.607669 
    0.294624     0.618074     0.562442 
    0.384108     0.271904     0.453886 
    0.365744     0.312270     0.613638 
    0.561110     0.530025     0.653822 
    0.639516     0.493198     0.334151 
    0.717057     0.449060     0.606312 
    0.657789     0.521244     0.651728 
    0.627326     0.598415     0.348804 
    0.659032     0.639999     0.451434 
    0.580499     0.333214     0.486881 
    0.703030     0.546552     0.409288 
    0.492293     0.688422     0.558526 
    0.419532     0.635199     0.335709 
    0.390213     0.577836     0.660183 
    0.330184     0.631274     0.385542 
    0.325583     0.505693     0.638558 
    0.283332     0.551955     0.433730 
    0.486339     0.601203     0.639373 
    0.507042     0.283857     0.430479 
    0.336702     0.372574     0.372700 
    0.407605     0.673399     0.614558 
    0.482672     0.332796     0.665121 
    0.493182     0.308658     0.549926 
EA16321 17.184 15.931 14.219 90.00 90.00 90.00 Sym.group:    0
1.0
   17.184145     0.000000     0.000000
    0.000000    15.931253     0.000000
    0.000000     0.000000    14.218500
   W   B
  16  20
Direct
    0.578632     0.367719     0.340149 
    0.600421     0.393483     0.622521 
    0.681535     0.413331     0.455088 
    0.579160     0.522346     0.483848 
    0.530677     0.672811     0.406731 
    0.618343     0.646914     0.590290 
    0.508121     0.536982     0.312898 
    0.740356     0.569119     0.541093 
    0.420661     0.585057     0.489335 
    0.453606     0.419120     0.423267 
    0.317379     0.434008     0.518130 
    0.351147     0.503107     0.332070 
    0.460523     0.457884     0.606710 
    0.297228     0.616907     0.573594 
    0.382880     0.272714     0.459548 
    0.369448     0.317151     0.619610 
    0.566039     0.530181     0.650982 
    0.634052     0.492384     0.329129 
    0.719779     0.448627     0.600736 
    0.662022     0.521806     0.645821 
    0.622524     0.597390     0.343237 
    0.656984     0.639529     0.444388 
    0.579707     0.333048     0.486128 
    0.699589     0.545831     0.401072 
    0.493440     0.689129     0.558753 
    0.413717     0.633596     0.335712 
    0.396769     0.576410     0.662728 
    0.327690     0.631471     0.391854 
    0.332382     0.503405     0.645259 
    0.281754     0.553850     0.443668 
    0.491022     0.600899     0.638863 
    0.504826     0.284526     0.431825 
    0.334468     0.372869     0.379159 
    0.411100     0.672502     0.617118 
    0.487880     0.333701     0.667330 
    0.494136     0.310190     0.551357 
EA16621 17.528 16.103 15.473 90.00 90.00 90.00 Sym.group:    0
1.0
   17.528432     0.000000     0.000000
    0.000000    16.102570     0.000000
    0.000000     0.000000    15.472971
   W   B
  18  18
Direct
    0.511743     0.685275     0.396055 
    0.581797     0.507132     0.492057 
    0.575109     0.370583     0.379389 
    0.658771     0.374819     0.530859 
    0.493249     0.525708     0.343698 
    0.745205     0.505394     0.508440 
    0.375751     0.632807     0.393718 
    0.436209     0.382891     0.311528 
    0.441127     0.623477     0.642616 
    0.587932     0.577712     0.677959 
    0.416803     0.533778     0.512465 
    0.463751     0.372284     0.573934 
    0.264778     0.466982     0.560317 
    0.353753     0.384354     0.447869 
    0.587754     0.420276     0.675672 
    0.370030     0.464482     0.669027 
    0.324017     0.334504     0.601351 
    0.559321     0.662660     0.544124 
    0.605455     0.599519     0.364799 
    0.676705     0.595572     0.579079 
    0.677467     0.491719     0.620809 
    0.618154     0.497496     0.340415 
    0.681730     0.443675     0.405410 
    0.687904     0.549038     0.393118 
    0.556768     0.295397     0.496436 
    0.437382     0.688469     0.510973 
    0.478169     0.428964     0.441559 
    0.290657     0.590481     0.500406 
    0.493457     0.497525     0.639616 
    0.318824     0.585777     0.608819 
    0.301248     0.511803     0.429328 
    0.350701     0.661059     0.541156 
    0.570934     0.306054     0.603687 
    0.367735     0.498581     0.352623 
    0.668505     0.614591     0.471921 
    0.471103     0.319160     0.438769 
EA16833 17.311 17.005 16.056 90.00 90.00 90.00 Sym.group:    0
1.0
   17.310776     0.000000     0.000000
    0.000000    17.005435     0.000000
    0.000000     0.000000    16.056209
   W   B
  19  20
Direct
    0.480535     0.440094     0.531945 
    0.329807     0.422061     0.607456 
    0.364263     0.466610     0.426124 
    0.383442     0.309275     0.518282 
    0.453350     0.490438     0.678512 
    0.570526     0.378622     0.668125 
    0.506386     0.266414     0.585664 
    0.551517     0.414142     0.375222 
    0.616983     0.350905     0.515950 
    0.694217     0.447930     0.632930 
    0.528848     0.602828     0.596359 
    0.362408     0.571389     0.565931 
    0.533401     0.553232     0.306297 
    0.617234     0.508434     0.494180 
    0.675382     0.651477     0.527505 
    0.376028     0.576481     0.323642 
    0.669438     0.513637     0.327183 
    0.430052     0.451437     0.279371 
    0.470777     0.605347     0.445001 
    0.431002     0.356089     0.400357 
    0.281940     0.385757     0.490379 
    0.437402     0.356269     0.641969 
    0.266426     0.490114     0.512862 
    0.582187     0.505128     0.666503 
    0.505550     0.316022     0.458484 
    0.726315     0.421892     0.506587 
    0.679989     0.413390     0.412466 
    0.286466     0.567544     0.450655 
    0.427746     0.685658     0.607367 
    0.650380     0.566666     0.625276 
    0.393764     0.694833     0.507097 
    0.740046     0.495326     0.441796 
    0.424554     0.616550     0.677033 
    0.572648     0.697154     0.492106 
    0.333563     0.345705     0.406607 
    0.707773     0.588729     0.423227 
    0.339917     0.645279     0.444922 
    0.611726     0.618012     0.403101 
    0.486012     0.713134     0.525531 
EA17301 17.633 15.587 15.215 90.00 90.00 90.00 Sym.group:    0
1.0
   17.632911     0.000000     0.000000
    0.000000    15.586779     0.000000
    0.000000     0.000000    15.215450
   W   B
  18  18
Direct
    0.499104     0.295962     0.595159 
    0.583464     0.490980     0.499519 
    0.589131     0.616622     0.630097 
    0.667364     0.620259     0.466200 
    0.501134     0.458296     0.655184 
    0.744168     0.481149     0.473456 
    0.370296     0.366698     0.608054 
    0.455568     0.612334     0.702409 
    0.426221     0.387096     0.349187 
    0.572384     0.426083     0.310752 
    0.417596     0.470845     0.490211 
    0.467157     0.637550     0.438543 
    0.264202     0.556302     0.458380 
    0.367561     0.626493     0.570959 
    0.581873     0.589319     0.322759 
    0.363744     0.556100     0.341353 
    0.328022     0.689663     0.422462 
    0.543188     0.338064     0.446733 
    0.602429     0.379848     0.603290 
    0.664806     0.394734     0.401270 
    0.670076     0.504475     0.365708 
    0.625502     0.479037     0.651118 
    0.689624     0.539054     0.589568 
    0.691108     0.429506     0.589952 
    0.569691     0.702568     0.516584 
    0.423031     0.310278     0.481388 
    0.487389     0.569002     0.566114 
    0.286517     0.423093     0.507860 
    0.484289     0.513275     0.354573 
    0.309033     0.433536     0.397782 
    0.307379     0.499162     0.583699 
    0.338785     0.348684     0.458301 
    0.577101     0.700380     0.407663 
    0.378982     0.500950     0.657048 
    0.664104     0.368472     0.507636 
    0.487977     0.684133     0.579027 
EA17543 17.881 16.155 14.295 90.00 90.00 90.00 Sym.group:    0
1.0
   17.881157     0.000000     0.000000
    0.000000    16.154829     0.000000
    0.000000     0.000000    14.295319
   W   B
  18  20
Direct
    0.503597     0.410584     0.515076 
    0.494112     0.587568     0.364537 
    0.590387     0.441097     0.369329 
    0.706245     0.652185     0.439184 
    0.707589     0.602177     0.615152 
    0.602988     0.544749     0.502316 
    0.607055     0.461479     0.668107 
    0.583276     0.706970     0.404227 
    0.500442     0.664663     0.537494 
    0.478172     0.538968     0.650993 
    0.276225     0.469939     0.537413 
    0.367090     0.692603     0.470682 
    0.395271     0.530495     0.496943 
    0.364853     0.340799     0.570347 
    0.585597     0.307327     0.613211 
    0.366328     0.385254     0.402926 
    0.250874     0.605658     0.438169 
    0.484699     0.380742     0.695608 
    0.621255     0.334345     0.468386 
    0.548368     0.300470     0.418168 
    0.480000     0.345287     0.362991 
    0.468596     0.447622     0.338792 
    0.692614     0.527511     0.381571 
    0.734660     0.524898     0.486618 
    0.619971     0.583915     0.345690 
    0.652504     0.410418     0.531066 
    0.714081     0.474800     0.583395 
    0.623519     0.683825     0.556282 
    0.589736     0.615385     0.644784 
    0.392121     0.506147     0.332185 
    0.360645     0.599509     0.361324 
    0.348148     0.549265     0.647047 
    0.371255     0.450508     0.656573 
    0.303845     0.612127     0.569930 
    0.450296     0.289428     0.459343 
    0.391132     0.637558     0.607761 
    0.469200     0.280688     0.578150 
    0.303254     0.503039     0.378233 
EA17995 17.703 15.578 15.199 90.00 90.00 90.00 Sym.group:    0
1.0
   17.703202     0.000000     0.000000
    0.000000    15.577676     0.000000
    0.000000     0.000000    15.199239
   W   B
  19  17
Direct
    0.495721     0.705474     0.601569 
    0.584736     0.510013     0.499290 
    0.592019     0.378549     0.620269 
    0.664147     0.377016     0.458615 
    0.500347     0.541492     0.652907 
    0.742604     0.529822     0.471874 
    0.369149     0.633588     0.611100 
    0.463374     0.387693     0.703480 
    0.423147     0.615228     0.352021 
    0.566444     0.575088     0.307076 
    0.414424     0.528465     0.491679 
    0.470432     0.364433     0.438258 
    0.266889     0.441103     0.461598 
    0.368392     0.371564     0.572215 
    0.578269     0.411526     0.316895 
    0.363733     0.446913     0.341781 
    0.334880     0.309792     0.422590 
    0.540277     0.660313     0.450574 
    0.723925     0.447417     0.601685 
    0.600268     0.623828     0.598842 
    0.655259     0.606826     0.398126 
    0.664806     0.495894     0.363257 
    0.626516     0.524271     0.649996 
    0.690499     0.580916     0.590495 
    0.569129     0.292704     0.510545 
    0.420867     0.688736     0.486066 
    0.486573     0.431301     0.566698 
    0.286503     0.573196     0.512405 
    0.481857     0.488749     0.353242 
    0.307312     0.566002     0.401228 
    0.307216     0.498118     0.589177 
    0.336402     0.650640     0.463308 
    0.575431     0.296571     0.401242 
    0.380087     0.495353     0.658452 
    0.659975     0.637962     0.504290 
    0.488393     0.313447     0.577155 
EA18227 17.653 16.565 14.489 90.00 90.00 90.00 Sym.group:    0
1.0
   17.653376     0.000000     0.000000
    0.000000    16.564943     0.000000
    0.000000     0.000000    14.489400
   W   B
  19  19
Direct
    0.516906     0.401911     0.509477 
    0.468318     0.584051     0.352848 
    0.571728     0.448667     0.348804 
    0.580158     0.551668     0.497326 
    0.635343     0.438145     0.651533 
    0.548852     0.692180     0.425627 
    0.504717     0.530180     0.652460 
    0.288686     0.482118     0.580166 
    0.394684     0.679082     0.471192 
    0.407127     0.514621     0.500870 
    0.382475     0.346950     0.585550 
    0.620703     0.304534     0.578297 
    0.356566     0.379878     0.420309 
    0.256072     0.628053     0.472536 
    0.503169     0.371690     0.690920 
    0.682414     0.429453     0.484349 
    0.493591     0.247868     0.591445 
    0.629229     0.602977     0.669117 
    0.252580     0.498663     0.409797 
    0.617981     0.335319     0.423260 
    0.536991     0.288039     0.420309 
    0.468487     0.347531     0.364404 
    0.446758     0.444435     0.342543 
    0.670118     0.528747     0.377132 
    0.716970     0.560083     0.469710 
    0.596916     0.588447     0.340877 
    0.706434     0.535365     0.581935 
    0.603877     0.686840     0.563175 
    0.366282     0.498318     0.345703 
    0.340701     0.592960     0.372190 
    0.376901     0.552172     0.659067 
    0.395594     0.454321     0.674213 
    0.331012     0.612643     0.585626 
    0.445885     0.288054     0.455891 
    0.425084     0.628158     0.604370 
    0.513361     0.659733     0.577723 
    0.683850     0.636488     0.534815 
    0.663483     0.629655     0.414437 
EA18705 17.575 16.212 16.138 90.00 90.00 90.00 Sym.group:    0
1.0
   17.574819     0.000000     0.000000
    0.000000    16.211644     0.000000
    0.000000     0.000000    16.138428
   W   B
  18  18
Direct
    0.503980     0.730649     0.435973 
    0.404348     0.490595     0.494443 
    0.393400     0.520628     0.658751 
    0.313715     0.397434     0.582925 
    0.479462     0.629781     0.555457 
    0.268950     0.457163     0.449443 
    0.623512     0.677402     0.499330 
    0.614677     0.502141     0.319881 
    0.491358     0.423186     0.375354 
    0.583573     0.523190     0.482105 
    0.530536     0.366298     0.537561 
    0.730986     0.446419     0.534586 
    0.620192     0.460171     0.640409 
    0.423006     0.287437     0.447038 
    0.640931     0.376315     0.415561 
    0.665549     0.322954     0.567282 
    0.464210     0.585313     0.372270 
    0.579953     0.663921     0.335268 
    0.380530     0.632845     0.465240 
    0.371693     0.481356     0.354378 
    0.363847     0.386102     0.391765 
    0.351705     0.609822     0.567089 
    0.288389     0.526918     0.573378 
    0.294215     0.584500     0.485384 
    0.436525     0.399196     0.633774 
    0.500456     0.488847     0.588032 
    0.714077     0.573870     0.486777 
    0.535966     0.297756     0.411102 
    0.703708     0.498198     0.413400 
    0.680346     0.568578     0.583935 
    0.673636     0.599977     0.397371 
    0.416934     0.318598     0.573249 
    0.593343     0.598603     0.614488 
    0.337470     0.567974     0.393746 
    0.504303     0.451681     0.691638 
    0.520521     0.554184     0.671620 
EA19005 17.360 16.425 15.240 90.00 90.00 90.00 Sym.group:    0
1.0
   17.360189     0.000000     0.000000
    0.000000    16.425189     0.000000
    0.000000     0.000000    15.239573
   W   B
  20  16
Direct
    0.531105     0.731008     0.525929 
    0.406429     0.497542     0.485069 
    0.381551     0.477995     0.665765 
    0.292786     0.398675     0.545420 
    0.489052     0.600711     0.600131 
    0.272734     0.503804     0.426698 
    0.645245     0.646389     0.565890 
    0.622448     0.554622     0.324331 
    0.491664     0.475261     0.341473 
    0.589245     0.515044     0.490560 
    0.510026     0.358433     0.489208 
    0.725079     0.410806     0.515701 
    0.609438     0.400456     0.622800 
    0.402756     0.336589     0.362704 
    0.633223     0.394492     0.377298 
    0.645195     0.292863     0.498060 
    0.481952     0.624455     0.407400 
    0.607668     0.695298     0.398968 
    0.350575     0.623943     0.641508 
    0.487230     0.365932     0.698800 
    0.392913     0.655973     0.509073 
    0.382542     0.552008     0.342294 
    0.361464     0.454154     0.335441 
    0.285533     0.526803     0.573341 
    0.302728     0.610756     0.510241 
    0.410496     0.361004     0.590755 
    0.491456     0.457673     0.587163 
    0.725773     0.546287     0.514160 
    0.519253     0.338466     0.342004 
    0.710338     0.503895     0.412568 
    0.688234     0.513143     0.608253 
    0.693120     0.606456     0.435418 
    0.385583     0.320292     0.497893 
    0.602952     0.541147     0.649632 
    0.350366     0.617303     0.415326 
    0.521848     0.490325     0.692726 
EA19377 17.073 16.462 14.877 90.00 90.00 90.00 Sym.group:    0
1.0
   17.072541     0.000000     0.000000
    0.000000    16.461509     0.000000
    0.000000     0.000000    14.876988
   W   B
  20  16
Direct
    0.532071     0.729922     0.534899 
    0.408761     0.493954     0.477221 
    0.377385     0.477380     0.660336 
    0.288464     0.404602     0.546190 
    0.490754     0.598148     0.603476 
    0.273101     0.511583     0.421177 
    0.651369     0.641196     0.573486 
    0.624802     0.556019     0.323025 
    0.492671     0.477027     0.332200 
    0.591124     0.512372     0.490997 
    0.506521     0.357631     0.489023 
    0.726566     0.404177     0.515209 
    0.609500     0.396896     0.624875 
    0.392482     0.345111     0.355976 
    0.632609     0.391891     0.375699 
    0.641122     0.288403     0.498050 
    0.486630     0.624928     0.408471 
    0.612919     0.695745     0.408092 
    0.352041     0.626668     0.645299 
    0.482391     0.366424     0.702008 
    0.396200     0.662086     0.510754 
    0.384565     0.559457     0.335335 
    0.359134     0.463587     0.322285 
    0.283340     0.532623     0.571998 
    0.304344     0.615915     0.510003 
    0.402228     0.345386     0.597371 
    0.492480     0.458361     0.587168 
    0.729670     0.539015     0.517428 
    0.511989     0.342988     0.337610 
    0.713099     0.499799     0.411445 
    0.691111     0.506663     0.613313 
    0.697720     0.601576     0.438361 
    0.379713     0.325097     0.493788 
    0.605212     0.537268     0.656088 
    0.354227     0.622214     0.414325 
    0.521687     0.487887     0.697017 
EA19788 16.938 15.930 15.178 90.00 90.00 90.00 Sym.group:    0
1.0
   16.937770     0.000000     0.000000
    0.000000    15.929774     0.000000
    0.000000     0.000000    15.178422
   W   B
  17  17
Direct
    0.722274     0.598426     0.523874 
    0.686408     0.360726     0.441424 
    0.591157     0.477046     0.505360 
    0.595813     0.610600     0.610070 
    0.505712     0.689660     0.494234 
    0.611580     0.601877     0.397119 
    0.756635     0.450234     0.537958 
    0.499557     0.496525     0.669204 
    0.444391     0.611316     0.350774 
    0.429286     0.539449     0.509093 
    0.288480     0.458292     0.492641 
    0.485341     0.452892     0.369015 
    0.457856     0.379777     0.548407 
    0.654020     0.480854     0.673394 
    0.360546     0.688964     0.569480 
    0.624698     0.452117     0.320742 
    0.299089     0.616429     0.439737 
    0.636968     0.698607     0.496850 
    0.708554     0.504564     0.413107 
    0.541997     0.554027     0.283809 
    0.566722     0.385085     0.633113 
    0.383371     0.571322     0.648301 
    0.465664     0.630207     0.628313 
    0.351641     0.329230     0.482490 
    0.367420     0.396730     0.397272 
    0.333574     0.366088     0.583971 
    0.436948     0.322774     0.418996 
    0.539500     0.329332     0.435557 
    0.357616     0.467755     0.616380 
    0.660830     0.371451     0.590134 
    0.584178     0.330153     0.534545 
    0.358253     0.503305     0.378110 
    0.392530     0.709129     0.427988 
    0.301395     0.565063     0.578539 
EA19895 17.706 15.908 14.794 90.00 90.00 90.00 Sym.group:    0
1.0
   17.705718     0.000000     0.000000
    0.000000    15.908400     0.000000
    0.000000     0.000000    14.794430
   W   B
  19  20
Direct
    0.592187     0.574227     0.321057 
    0.546866     0.471435     0.469954 
    0.595825     0.310690     0.463154 
    0.642561     0.415892     0.336453 
    0.558915     0.380874     0.625703 
    0.693165     0.534137     0.448613 
    0.366977     0.355738     0.488309 
    0.446713     0.679594     0.635888 
    0.504053     0.535695     0.647528 
    0.555018     0.636016     0.505148 
    0.648372     0.538540     0.622730 
    0.661885     0.686806     0.387823 
    0.441785     0.572580     0.360674 
    0.352268     0.551532     0.657540 
    0.395095     0.509087     0.505305 
    0.252355     0.437312     0.429857 
    0.251814     0.568361     0.513870 
    0.436945     0.714464     0.462607 
    0.737422     0.370198     0.439754 
    0.440998     0.414031     0.371823 
    0.517896     0.461916     0.311767 
    0.677168     0.412377     0.654000 
    0.674819     0.347315     0.566493 
    0.724471     0.442162     0.560450 
    0.527527     0.361944     0.346319 
    0.473007     0.317633     0.422347 
    0.483967     0.304132     0.533876 
    0.569010     0.649948     0.668451 
    0.533010     0.686617     0.364697 
    0.641820     0.681987     0.616754 
    0.684879     0.656638     0.526983 
    0.341403     0.635527     0.436666 
    0.314291     0.548984     0.380406 
    0.284269     0.447742     0.574381 
    0.357244     0.406813     0.629935 
    0.437407     0.426541     0.686287 
    0.348253     0.654530     0.551941 
    0.355962     0.458918     0.356457 
    0.432375     0.341066     0.617996 
EA20517 16.561 16.531 14.428 90.00 90.00 90.00 Sym.group:    0
1.0
   16.560984     0.000000     0.000000
    0.000000    16.531341     0.000000
    0.000000     0.000000    14.428286
   W   B
  17  16
Direct
    0.620861     0.630277     0.563035 
    0.584305     0.485830     0.486135 
    0.729162     0.528773     0.629476 
    0.742919     0.540019     0.457585 
    0.659550     0.404465     0.670385 
    0.622254     0.332535     0.507478 
    0.508384     0.407587     0.627345 
    0.482573     0.366355     0.415577 
    0.635422     0.628883     0.382432 
    0.414106     0.501405     0.503738 
    0.365395     0.439422     0.667325 
    0.476771     0.578159     0.643000 
    0.280303     0.496627     0.414600 
    0.503747     0.722742     0.581645 
    0.488266     0.627393     0.438358 
    0.524055     0.504136     0.326255 
    0.611437     0.368595     0.329549 
    0.718534     0.424543     0.536474 
    0.595368     0.516376     0.651402 
    0.493432     0.300496     0.542841 
    0.702143     0.417749     0.421551 
    0.399551     0.354803     0.542333 
    0.660909     0.491175     0.346308 
    0.295463     0.589433     0.521724 
    0.343113     0.566176     0.625255 
    0.386557     0.638415     0.545540 
    0.351096     0.386530     0.429479 
    0.305395     0.405422     0.533387 
    0.394160     0.554306     0.349365 
    0.279706     0.498579     0.569412 
    0.350718     0.614219     0.430315 
    0.580319     0.727889     0.462410 
    0.394032     0.450688     0.348286 
EA20822 17.475 15.685 14.434 90.00 90.00 90.00 Sym.group:    0
1.0
   17.474968     0.000000     0.000000
    0.000000    15.685005     0.000000
    0.000000     0.000000    14.434205
   W   B
  18  16
Direct
    0.465448     0.479603     0.685758 
    0.549579     0.614517     0.613610 
    0.355626     0.640698     0.427797 
    0.423189     0.518850     0.521500 
    0.267061     0.536862     0.531065 
    0.332722     0.407619     0.619014 
    0.463276     0.354407     0.561166 
    0.575276     0.478535     0.507536 
    0.323320     0.420019     0.426308 
    0.708589     0.481704     0.445460 
    0.527563     0.657321     0.449935 
    0.249725     0.549067     0.358708 
    0.648298     0.711769     0.516266 
    0.694630     0.566093     0.606747 
    0.541778     0.296731     0.425396 
    0.690767     0.408909     0.612542 
    0.471206     0.435219     0.372208 
    0.657597     0.624412     0.360496 
    0.350071     0.545745     0.656613 
    0.425413     0.613561     0.656717 
    0.346748     0.633282     0.584408 
    0.600097     0.488713     0.673324 
    0.564536     0.388929     0.651376 
    0.591395     0.326514     0.562287 
    0.652094     0.355276     0.475347 
    0.615320     0.395011     0.373492 
    0.450200     0.579298     0.351172 
    0.414937     0.312501     0.422418 
    0.618222     0.493449     0.335014 
    0.728986     0.617046     0.475038 
    0.544048     0.558742     0.343888 
    0.351271     0.309345     0.511173 
    0.367297     0.528314     0.332219 
    0.433714     0.671941     0.554003 
EA21179 16.561 16.531 14.428 90.00 90.00 90.00 Sym.group:    0
1.0
   16.560984     0.000000     0.000000
    0.000000    16.531341     0.000000
    0.000000     0.000000    14.428286
   W   B
  16  17
Direct
    0.627864     0.633050     0.564107 
    0.586813     0.488140     0.494103 
    0.742020     0.541689     0.457062 
    0.661681     0.399061     0.664693 
    0.621553     0.334287     0.516389 
    0.512147     0.411911     0.632536 
    0.483608     0.371411     0.415994 
    0.640788     0.626516     0.380883 
    0.412956     0.496053     0.498190 
    0.366103     0.443323     0.669292 
    0.483114     0.574521     0.636969 
    0.281342     0.492282     0.410407 
    0.510301     0.722913     0.581784 
    0.491241     0.625036     0.440876 
    0.522404     0.508913     0.328642 
    0.331601     0.354487     0.403300 
    0.720751     0.427937     0.536138 
    0.604851     0.519141     0.652169 
    0.492498     0.303671     0.543761 
    0.697108     0.417517     0.422529 
    0.401279     0.356319     0.551799 
    0.608568     0.399333     0.367371 
    0.658038     0.491297     0.350971 
    0.296511     0.589167     0.521920 
    0.346782     0.567863     0.624276 
    0.388993     0.635879     0.545957 
    0.304454     0.401271     0.540396 
    0.394407     0.558417     0.348743 
    0.282164     0.499630     0.570144 
    0.352811     0.614518     0.432959 
    0.583218     0.724250     0.462634 
    0.394875     0.454422     0.336769 
    0.697157     0.515779     0.596238 
EA21521 16.869 16.193 14.155 90.00 90.00 90.00 Sym.group:    0
1.0
   16.869279     0.000000     0.000000
    0.000000    16.192725     0.000000
    0.000000     0.000000    14.155004
   W   B
  17  16
Direct
    0.632075     0.365725     0.567910 
    0.589151     0.508244     0.494514 
    0.740613     0.459702     0.470113 
    0.623633     0.667184     0.510542 
    0.507638     0.590556     0.630699 
    0.488593     0.631959     0.419807 
    0.634085     0.367066     0.385136 
    0.414355     0.502533     0.498692 
    0.366731     0.562650     0.671652 
    0.484961     0.423444     0.636711 
    0.285511     0.514798     0.406119 
    0.489839     0.274706     0.584323 
    0.484270     0.367478     0.439041 
    0.521408     0.492267     0.330309 
    0.337689     0.654988     0.401099 
    0.731952     0.605342     0.405931 
    0.591503     0.241199     0.477129 
    0.714315     0.572269     0.550502 
    0.599126     0.485795     0.659478 
    0.495636     0.703111     0.548458 
    0.402779     0.649559     0.551235 
    0.610145     0.598491     0.365338 
    0.657767     0.502960     0.350916 
    0.297245     0.412868     0.520120 
    0.347600     0.434045     0.624724 
    0.382046     0.359389     0.546831 
    0.308647     0.603178     0.537729 
    0.394095     0.443656     0.343996 
    0.285153     0.504946     0.568020 
    0.350774     0.385329     0.427862 
    0.398372     0.550219     0.335421 
    0.692523     0.484396     0.610343 
    0.639775     0.579946     0.629303 
EA21873 16.685 16.691 14.434 90.00 90.00 90.00 Sym.group:    0
1.0
   16.684572     0.000000     0.000000
    0.000000    16.690892     0.000000
    0.000000     0.000000    14.433647
   W   B
  17  16
Direct
    0.380967     0.359463     0.562722 
    0.412817     0.505892     0.497391 
    0.276341     0.454507     0.614252 
    0.262235     0.454770     0.440349 
    0.338970     0.587407     0.662384 
    0.375104     0.661174     0.513088 
    0.488484     0.586529     0.626932 
    0.527484     0.642152     0.407657 
    0.374325     0.379475     0.372739 
    0.580127     0.513688     0.495533 
    0.522423     0.418228     0.632138 
    0.498878     0.264372     0.575450 
    0.518778     0.377335     0.437638 
    0.485927     0.503270     0.324018 
    0.689368     0.609179     0.457368 
    0.626035     0.575005     0.306061 
    0.631224     0.330247     0.554182 
    0.280989     0.564652     0.528944 
    0.403423     0.472878     0.656247 
    0.491487     0.700876     0.542977 
    0.307181     0.578012     0.417306 
    0.584767     0.669132     0.543235 
    0.399340     0.602662     0.374340 
    0.352526     0.511909     0.345061 
    0.705818     0.461834     0.510361 
    0.658486     0.440246     0.622526 
    0.634511     0.608084     0.609851 
    0.605822     0.447550     0.344019 
    0.695906     0.533070     0.593472 
    0.655645     0.398399     0.430443 
    0.434027     0.277253     0.449675 
    0.607403     0.521389     0.659711 
    0.693181     0.489363     0.391929 
EA22212 16.863 16.216 14.148 90.00 90.00 90.00 Sym.group:    0
1.0
   16.863013     0.000000     0.000000
    0.000000    16.215694     0.000000
    0.000000     0.000000    14.148048
   W   B
  16  17
Direct
    0.376792     0.364327     0.569749 
    0.414177     0.510328     0.495040 
    0.260728     0.453122     0.462269 
    0.342184     0.602197     0.668515 
    0.378792     0.666897     0.517166 
    0.489658     0.591887     0.633786 
    0.513189     0.630019     0.412739 
    0.362389     0.367154     0.384062 
    0.585964     0.505391     0.495950 
    0.633946     0.560693     0.670433 
    0.519864     0.427106     0.640913 
    0.711309     0.509024     0.400984 
    0.496492     0.276074     0.590490 
    0.510956     0.371635     0.440810 
    0.474385     0.488510     0.324618 
    0.661860     0.649139     0.398497 
    0.282018     0.570590     0.539834 
    0.399915     0.480996     0.656601 
    0.505690     0.700853     0.541791 
    0.303344     0.580026     0.423523 
    0.596027     0.648864     0.550246 
    0.389394     0.598901     0.365060 
    0.341134     0.504281     0.351215 
    0.701507     0.412235     0.517919 
    0.654275     0.433656     0.623876 
    0.611955     0.362979     0.546616 
    0.691526     0.604727     0.538489 
    0.601398     0.440582     0.342981 
    0.715034     0.504399     0.565773 
    0.644789     0.384350     0.428841 
    0.422618     0.270466     0.469800 
    0.598642     0.546460     0.329723 
    0.308047     0.482132     0.601695 
EA22515 17.651 15.741 14.238 90.00 90.00 90.00 Sym.group:    0
1.0
   17.651062     0.000000     0.000000
    0.000000    15.741499     0.000000
    0.000000     0.000000    14.237984
   W   B
  18  16
Direct
    0.469341     0.475559     0.687085 
    0.549020     0.609829     0.616577 
    0.355681     0.645381     0.436895 
    0.422027     0.520107     0.523255 
    0.267805     0.535785     0.538963 
    0.335770     0.401388     0.615096 
    0.463334     0.353762     0.554241 
    0.571543     0.479025     0.505501 
    0.324660     0.420023     0.424853 
    0.705210     0.481304     0.441939 
    0.522045     0.661914     0.455804 
    0.250607     0.551867     0.367534 
    0.651695     0.710278     0.506917 
    0.694541     0.559202     0.606642 
    0.540644     0.298420     0.416103 
    0.689201     0.403979     0.608021 
    0.471882     0.440857     0.366427 
    0.658211     0.630628     0.364060 
    0.353621     0.539261     0.662709 
    0.427755     0.608454     0.664436 
    0.348059     0.630849     0.594406 
    0.600191     0.483649     0.673168 
    0.564568     0.384551     0.647700 
    0.589882     0.323765     0.555761 
    0.649134     0.355449     0.468761 
    0.612427     0.398649     0.367738 
    0.449532     0.586063     0.355306 
    0.416297     0.316680     0.411243 
    0.612098     0.498862     0.336225 
    0.735072     0.613728     0.474842 
    0.542332     0.568190     0.343926 
    0.354334     0.305562     0.502068 
    0.368066     0.534349     0.341102 
    0.433416     0.672633     0.564695 
EA22657 17.376 15.297 14.987 90.00 90.00 90.00 Sym.group:    0
1.0
   17.375610     0.000000     0.000000
    0.000000    15.297095     0.000000
    0.000000     0.000000    14.987453
   W   B
  18  19
Direct
    0.527013     0.643373     0.419170 
    0.403235     0.515868     0.507482 
    0.316629     0.377989     0.521776 
    0.590414     0.640007     0.690542 
    0.371973     0.581209     0.694114 
    0.377745     0.410505     0.671824 
    0.475242     0.646274     0.593383 
    0.299097     0.450952     0.367425 
    0.504275     0.486038     0.651596 
    0.289631     0.632096     0.435521 
    0.700838     0.614561     0.600269 
    0.449334     0.491899     0.345283 
    0.586778     0.514566     0.494980 
    0.489115     0.366895     0.493855 
    0.609630     0.370040     0.615046 
    0.400062     0.333741     0.351584 
    0.736399     0.526870     0.456073 
    0.566255     0.389996     0.342737 
    0.403748     0.631385     0.372209 
    0.338137     0.638566     0.569456 
    0.297984     0.505533     0.604911 
    0.340006     0.571027     0.319631 
    0.595494     0.675318     0.546883 
    0.409413     0.295669     0.590720 
    0.402480     0.674075     0.474921 
    0.265754     0.509301     0.496792 
    0.659496     0.647047     0.466818 
    0.660338     0.488292     0.339615 
    0.646058     0.593230     0.372415 
    0.393505     0.274131     0.481130 
    0.633307     0.506459     0.660320 
    0.487484     0.335728     0.646846 
    0.615382     0.354104     0.470818 
    0.571444     0.533895     0.329347 
    0.682763     0.402348     0.401861 
    0.704697     0.472964     0.591151 
    0.698850     0.398050     0.511496 
EA22910 17.382 16.374 15.692 90.00 90.00 90.00 Sym.group:    0
1.0
   17.381762     0.000000     0.000000
    0.000000    16.374184     0.000000
    0.000000     0.000000    15.692037
   W   B
  20  20
Direct
    0.412755     0.340021     0.614452 
    0.512360     0.313224     0.468781 
    0.568410     0.278429     0.605196 
    0.622062     0.442961     0.539690 
    0.679617     0.452244     0.339862 
    0.435539     0.447744     0.510953 
    0.292012     0.383302     0.380907 
    0.365661     0.280819     0.468384 
    0.537211     0.466136     0.380659 
    0.633854     0.606341     0.378299 
    0.294610     0.515183     0.468378 
    0.436482     0.705446     0.481483 
    0.382988     0.590161     0.584845 
    0.502642     0.653857     0.655615 
    0.535674     0.585367     0.505523 
    0.700605     0.579363     0.530397 
    0.508011     0.485494     0.656683 
    0.331444     0.626637     0.345852 
    0.391306     0.487620     0.327263 
    0.483764     0.632650     0.341211 
    0.512645     0.356256     0.699148 
    0.639834     0.301716     0.491361 
    0.614175     0.355781     0.403302 
    0.594318     0.389831     0.662052 
    0.702890     0.367002     0.447554 
    0.735311     0.460127     0.466680 
    0.740940     0.542402     0.405722 
    0.309059     0.386551     0.524591 
    0.421406     0.366196     0.381275 
    0.265695     0.508638     0.329734 
    0.326174     0.459207     0.599260 
    0.319685     0.649621     0.479597 
    0.423451     0.568881     0.715839 
    0.551273     0.725135     0.540489 
    0.379241     0.486597     0.682086 
    0.558063     0.709486     0.430270 
    0.636519     0.687437     0.490897 
    0.619933     0.666935     0.594677 
    0.607469     0.569145     0.631343 
    0.414912     0.570062     0.439678 
EA23331 17.388 15.819 15.135 90.00 90.00 90.00 Sym.group:    0
1.0
   17.387810     0.000000     0.000000
    0.000000    15.818857     0.000000
    0.000000     0.000000    15.135315
   W   B
  17  20
Direct
    0.473283     0.520642     0.652934 
    0.669907     0.632600     0.572007 
    0.667372     0.377499     0.571821 
    0.591405     0.501182     0.513884 
    0.518181     0.359702     0.606363 
    0.640026     0.352432     0.403393 
    0.435256     0.452705     0.491487 
    0.391216     0.538225     0.354892 
    0.522961     0.430255     0.341378 
    0.291440     0.414006     0.551688 
    0.336194     0.507985     0.706032 
    0.462551     0.632912     0.507839 
    0.343705     0.629299     0.622108 
    0.477284     0.302919     0.441405 
    0.390550     0.372124     0.317407 
    0.604754     0.643985     0.407494 
    0.656765     0.501649     0.335856 
    0.598719     0.561225     0.668738 
    0.566397     0.701793     0.534347 
    0.677267     0.505318     0.641327 
    0.587047     0.287240     0.512018 
    0.716551     0.452671     0.453063 
    0.593587     0.453304     0.669820 
    0.726976     0.508087     0.547856 
    0.393791     0.404154     0.630646 
    0.264123     0.538176     0.589011 
    0.316949     0.437344     0.415461 
    0.351419     0.337477     0.450577 
    0.509116     0.550993     0.409926 
    0.340352     0.634655     0.448068 
    0.395672     0.324843     0.553779 
    0.482664     0.648052     0.344271 
    0.539798     0.570813     0.301826 
    0.398015     0.675349     0.378299 
    0.706738     0.565172     0.452239 
    0.312965     0.537621     0.483214 
    0.549002     0.635594     0.617527 
EA23876 17.192 16.326 14.201 90.00 90.00 90.00 Sym.group:    0
1.0
   17.191809     0.000000     0.000000
    0.000000    16.326071     0.000000
    0.000000     0.000000    14.200606
   W   B
  16  17
Direct
    0.474557     0.630401     0.581475 
    0.277547     0.550987     0.463737 
    0.533596     0.611581     0.384744 
    0.384527     0.602804     0.354438 
    0.393128     0.341722     0.561513 
    0.297424     0.459479     0.625381 
    0.417033     0.493810     0.510432 
    0.484666     0.456004     0.351110 
    0.266903     0.399318     0.476937 
    0.536021     0.375188     0.626418 
    0.576168     0.495130     0.503232 
    0.670458     0.426234     0.657959 
    0.655410     0.352037     0.508302 
    0.686403     0.586209     0.440156 
    0.620698     0.665624     0.582395 
    0.554853     0.528364     0.676389 
    0.531208     0.718355     0.488580 
    0.362058     0.646797     0.500669 
    0.341283     0.588348     0.597423 
    0.440210     0.691907     0.450801 
    0.347914     0.471029     0.365203 
    0.454264     0.322308     0.426092 
    0.426973     0.439090     0.673812 
    0.406141     0.541019     0.672121 
    0.379342     0.381303     0.407388 
    0.718685     0.472062     0.518637 
    0.618039     0.702179     0.439652 
    0.685668     0.452933     0.408314 
    0.612259     0.507810     0.344289 
    0.608012     0.404958     0.368810 
    0.509681     0.286669     0.511895 
    0.545127     0.349961     0.430024 
    0.683743     0.548378     0.591675 
EA24214 17.008 15.389 14.041 90.00 90.00 90.00 Sym.group:    0
1.0
   17.007583     0.000000     0.000000
    0.000000    15.389421     0.000000
    0.000000     0.000000    14.041269
   W   B
  16  17
Direct
    0.492561     0.634740     0.407440 
    0.705612     0.383111     0.462839 
    0.465412     0.640445     0.596544 
    0.303310     0.628756     0.594350 
    0.513004     0.499759     0.679688 
    0.636959     0.373868     0.617737 
    0.491041     0.360275     0.562907 
    0.412387     0.506625     0.513387 
    0.286118     0.568808     0.429343 
    0.278102     0.473436     0.602709 
    0.498062     0.454849     0.363626 
    0.723872     0.541526     0.418076 
    0.581554     0.509886     0.510841 
    0.699370     0.628059     0.562112 
    0.342451     0.332851     0.566080 
    0.592636     0.254825     0.508536 
    0.633338     0.451849     0.358912 
    0.600053     0.556059     0.353353 
    0.627904     0.641573     0.427232 
    0.711304     0.489910     0.569319 
    0.590241     0.612281     0.638430 
    0.382791     0.538860     0.675825 
    0.578786     0.668218     0.527117 
    0.396419     0.427961     0.659622 
    0.305982     0.419254     0.454495 
    0.362046     0.457095     0.364904 
    0.502508     0.315375     0.412932 
    0.397356     0.553157     0.336818 
    0.591209     0.361572     0.403242 
    0.375496     0.668092     0.476031 
    0.369527     0.653657     0.358992 
    0.403850     0.370007     0.428409 
    0.648737     0.523263     0.658150 
EA24344 16.652 15.665 16.469 90.00 90.00 90.00 Sym.group:    0
1.0
   16.651796     0.000000     0.000000
    0.000000    15.665198     0.000000
    0.000000     0.000000    16.469347
   W   B
  16  20
Direct
    0.504171     0.380354     0.415617 
    0.608842     0.488671     0.510614 
    0.743889     0.548352     0.511660 
    0.649510     0.628359     0.615266 
    0.639258     0.677845     0.479279 
    0.516450     0.581380     0.411938 
    0.441794     0.490139     0.316073 
    0.616916     0.315723     0.527175 
    0.335595     0.631228     0.551817 
    0.396880     0.487437     0.483702 
    0.238592     0.530915     0.457842 
    0.343888     0.384313     0.629183 
    0.369939     0.314661     0.498100 
    0.491739     0.403735     0.592256 
    0.347229     0.616020     0.396129 
    0.491950     0.582966     0.593185 
    0.657108     0.567830     0.399054 
    0.600803     0.475642     0.366545 
    0.701063     0.472223     0.401550 
    0.637576     0.383549     0.412474 
    0.719386     0.399650     0.472657 
    0.714484     0.412574     0.571921 
    0.628209     0.403759     0.629628 
    0.507878     0.708959     0.473848 
    0.547539     0.714124     0.570183 
    0.692770     0.493989     0.631771 
    0.268494     0.409935     0.525795 
    0.382736     0.515605     0.623798 
    0.494771     0.283461     0.514105 
    0.287366     0.403195     0.426210 
    0.375636     0.384603     0.377236 
    0.320216     0.476937     0.358718 
    0.402239     0.715306     0.468117 
    0.590050     0.503004     0.650142 
    0.446744     0.711481     0.557882 
    0.288288     0.502079     0.578528 
EA24883 16.821 15.602 14.054 90.00 90.00 90.00 Sym.group:    0
1.0
   16.821473     0.000000     0.000000
    0.000000    15.601886     0.000000
    0.000000     0.000000    14.054324
   W   B
  16  17
Direct
    0.484513     0.629781     0.398969 
    0.692970     0.381101     0.474033 
    0.453148     0.639152     0.586595 
    0.297502     0.598273     0.595856 
    0.515318     0.507654     0.681176 
    0.635132     0.401719     0.634862 
    0.421355     0.491097     0.510762 
    0.284353     0.540056     0.425987 
    0.294976     0.433388     0.596822 
    0.498163     0.462320     0.344624 
    0.721394     0.549629     0.416807 
    0.584462     0.521561     0.505083 
    0.695540     0.645401     0.548662 
    0.407566     0.316606     0.545457 
    0.575277     0.286918     0.533292 
    0.370511     0.539292     0.720393 
    0.632092     0.453291     0.361763 
    0.600901     0.556420     0.348757 
    0.620714     0.645228     0.416350 
    0.711917     0.504600     0.566608 
    0.580775     0.627549     0.628675 
    0.571240     0.675551     0.516954 
    0.416779     0.417193     0.656950 
    0.318225     0.396843     0.448866 
    0.361620     0.449275     0.353787 
    0.495563     0.349299     0.439325 
    0.389825     0.546701     0.327935 
    0.587726     0.361673     0.395714 
    0.364221     0.653054     0.470796 
    0.354052     0.639378     0.356522 
    0.406413     0.364794     0.400795 
    0.648268     0.547360     0.652588 
    0.507491     0.367845     0.638234 
EA25036 16.122 16.154 16.344 90.00 90.00 90.00 Sym.group:    0
1.0
   16.121665     0.000000     0.000000
    0.000000    16.153861     0.000000
    0.000000     0.000000    16.343837
   W   B
  20  16
Direct
    0.601901     0.415983     0.382857 
    0.450438     0.383092     0.318596 
    0.313010     0.442423     0.378946 
    0.510975     0.290153     0.428237 
    0.355688     0.567949     0.496690 
    0.458275     0.435624     0.488208 
    0.367194     0.472582     0.649023 
    0.299611     0.394501     0.529072 
    0.295825     0.599346     0.362389 
    0.444173     0.541284     0.352985 
    0.526966     0.424863     0.640351 
    0.478831     0.585781     0.614241 
    0.636966     0.353369     0.540608 
    0.767225     0.479025     0.545188 
    0.612735     0.513310     0.511613 
    0.616395     0.576776     0.351408 
    0.508569     0.648666     0.466443 
    0.384755     0.708846     0.561869 
    0.689937     0.429001     0.665422 
    0.634240     0.661834     0.580345 
    0.374908     0.328572     0.422145 
    0.259896     0.516728     0.578684 
    0.405369     0.301015     0.517073 
    0.236607     0.505679     0.473687 
    0.413393     0.353257     0.606043 
    0.502636     0.314302     0.560466 
    0.542958     0.483594     0.283553 
    0.328987     0.600328     0.624849 
    0.602887     0.544745     0.655617 
    0.701981     0.555602     0.631058 
    0.717611     0.503022     0.409163 
    0.640589     0.660641     0.450564 
    0.719160     0.407480     0.447552 
    0.719203     0.595882     0.455005 
    0.365791     0.688311     0.432331 
    0.514310     0.716437     0.587724 
EA25596 16.630 15.482 14.864 90.00 90.00 90.00 Sym.group:    0
1.0
   16.630343     0.000000     0.000000
    0.000000    15.481660     0.000000
    0.000000     0.000000    14.863614
   W   B
  16  17
Direct
    0.489801     0.358716     0.574365 
    0.679053     0.629483     0.541070 
    0.466967     0.370693     0.392006 
    0.309001     0.397658     0.386485 
    0.524160     0.515839     0.330317 
    0.630747     0.629068     0.389322 
    0.418605     0.500681     0.488339 
    0.282226     0.424356     0.551335 
    0.288732     0.549427     0.400446 
    0.488124     0.515531     0.648896 
    0.726868     0.461876     0.584591 
    0.587800     0.490038     0.491991 
    0.707760     0.377650     0.441815 
    0.393604     0.674507     0.478301 
    0.546660     0.724071     0.502365 
    0.763967     0.529720     0.445738 
    0.621463     0.541384     0.640730 
    0.597993     0.434523     0.637066 
    0.596694     0.394968     0.360608 
    0.581812     0.337470     0.462628 
    0.412678     0.592648     0.358957 
    0.305560     0.574716     0.547226 
    0.348345     0.515744     0.634623 
    0.474813     0.658537     0.597741 
    0.384539     0.417919     0.655261 
    0.569365     0.634978     0.621530 
    0.374870     0.333761     0.497776 
    0.360578     0.326464     0.607202 
    0.388992     0.607933     0.604466 
    0.659361     0.483834     0.352459 
    0.497286     0.649840     0.387057 
    0.392813     0.488846     0.324738 
    0.628765     0.357121     0.562551 
EA25918 17.252 15.396 14.153 90.00 90.00 90.00 Sym.group:    0
1.0
   17.251522     0.000000     0.000000
    0.000000    15.395615     0.000000
    0.000000     0.000000    14.152769
   W   B
  16  17
Direct
    0.524583     0.643063     0.427887 
    0.320912     0.384848     0.434110 
    0.533196     0.626705     0.615589 
    0.471382     0.486709     0.679388 
    0.362551     0.376774     0.598531 
    0.576332     0.490227     0.511848 
    0.716843     0.557658     0.469687 
    0.697773     0.437281     0.611701 
    0.522901     0.489844     0.340407 
    0.289683     0.544117     0.401099 
    0.417892     0.516979     0.506708 
    0.301070     0.628391     0.552047 
    0.591486     0.317734     0.524910 
    0.446298     0.281612     0.489713 
    0.224848     0.476372     0.537345 
    0.313304     0.515037     0.672247 
    0.394278     0.471650     0.344583 
    0.418793     0.576961     0.353366 
    0.408660     0.615200     0.642732 
    0.426653     0.671117     0.537699 
    0.576317     0.404637     0.651300 
    0.687031     0.410822     0.462526 
    0.655893     0.478289     0.370009 
    0.523885     0.343365     0.394911 
    0.628733     0.580554     0.349778 
    0.434697     0.374464     0.367095 
    0.633934     0.652930     0.523172 
    0.651463     0.667848     0.410465 
    0.610536     0.385985     0.392481 
    0.491823     0.356508     0.613136 
    0.600881     0.510525     0.676224 
    0.387179     0.650041     0.431656 
    0.658188     0.575752     0.605645 
EA26297 16.853 16.206 15.141 90.00 90.00 90.00 Sym.group:    0
1.0
   16.852879     0.000000     0.000000
    0.000000    16.205851     0.000000
    0.000000     0.000000    15.141498
   W   B
  16  16
Direct
    0.471737     0.570922     0.624608 
    0.467942     0.644463     0.458711 
    0.736527     0.579784     0.486409 
    0.611061     0.650771     0.577310 
    0.623245     0.649981     0.414442 
    0.538638     0.772719     0.492332 
    0.513123     0.367936     0.424227 
    0.517380     0.399955     0.608760 
    0.671252     0.411311     0.623336 
    0.587938     0.508491     0.502613 
    0.717802     0.417921     0.467081 
    0.528439     0.516887     0.348990 
    0.289467     0.476337     0.380478 
    0.416641     0.483955     0.492212 
    0.301363     0.397516     0.549732 
    0.345710     0.345186     0.402016 
    0.289185     0.535992     0.513665 
    0.337406     0.530381     0.613565 
    0.339943     0.595521     0.439155 
    0.489902     0.702796     0.592103 
    0.687283     0.543249     0.612339 
    0.592976     0.524481     0.652595 
    0.362044     0.608339     0.545620 
    0.411967     0.449620     0.339761 
    0.394599     0.453663     0.651081 
    0.418254     0.334036     0.524989 
    0.667863     0.518766     0.377410 
    0.625316     0.424917     0.363137 
    0.613284     0.343976     0.519356 
    0.635920     0.331753     0.411359 
    0.400794     0.555487     0.359561 
    0.394997     0.352891     0.631048 
EA26394 16.954 16.373 15.869 90.00 90.00 90.00 Sym.group:    0
1.0
   16.953806     0.000000     0.000000
    0.000000    16.372553     0.000000
    0.000000     0.000000    15.869123
   W   B
  20  17
Direct
    0.524234     0.484426     0.647974 
    0.315586     0.387861     0.578668 
    0.339459     0.638976     0.561737 
    0.407469     0.509312     0.511436 
    0.492505     0.641412     0.589898 
    0.363381     0.649188     0.397121 
    0.572456     0.536001     0.489368 
    0.617352     0.444727     0.368866 
    0.481036     0.563039     0.351374 
    0.718563     0.571852     0.551953 
    0.680722     0.488057     0.684233 
    0.526537     0.370553     0.517018 
    0.631075     0.365406     0.636275 
    0.535816     0.687668     0.433327 
    0.620193     0.607646     0.320133 
    0.377846     0.365999     0.424441 
    0.328874     0.499650     0.343701 
    0.508835     0.319042     0.350138 
    0.408992     0.274750     0.540963 
    0.449374     0.430554     0.273000 
    0.394980     0.458213     0.660923 
    0.319288     0.518925     0.635419 
    0.424860     0.715063     0.497079 
    0.281026     0.565419     0.456142 
    0.408384     0.561492     0.657718 
    0.267129     0.517375     0.548495 
    0.611746     0.588999     0.622427 
    0.718130     0.433071     0.567313 
    0.698457     0.554842     0.410008 
    0.662147     0.646021     0.447730 
    0.490061     0.442952     0.408972 
    0.663794     0.377928     0.492483 
    0.618575     0.662646     0.543744 
    0.616055     0.319024     0.423496 
    0.280246     0.456857     0.462367 
    0.706820     0.471117     0.469132 
    0.437999     0.373937     0.624929 
EA26732 15.865 15.964 16.290 90.00 90.00 90.00 Sym.group:    0
1.0
   15.865233     0.000000     0.000000
    0.000000    15.964123     0.000000
    0.000000     0.000000    16.289899
   W   B
  18  18
Direct
    0.587329     0.614573     0.360239 
    0.445315     0.524457     0.374555 
    0.584227     0.337203     0.538536 
    0.601612     0.497335     0.501047 
    0.751917     0.377839     0.517226 
    0.645337     0.373662     0.398758 
    0.733749     0.554650     0.554670 
    0.381396     0.370692     0.401262 
    0.690361     0.416558     0.640712 
    0.525894     0.444565     0.652227 
    0.500584     0.603304     0.641279 
    0.421204     0.486504     0.532699 
    0.284402     0.581998     0.474941 
    0.505019     0.645717     0.490336 
    0.337082     0.617552     0.617446 
    0.272222     0.473810     0.604735 
    0.641185     0.669135     0.604921 
    0.322893     0.340467     0.543229 
    0.648284     0.649644     0.476132 
    0.707929     0.580915     0.420142 
    0.741585     0.481087     0.431384 
    0.668702     0.507322     0.358062 
    0.571864     0.477067     0.335953 
    0.516854     0.318358     0.419009 
    0.508804     0.397162     0.351055 
    0.453095     0.302417     0.497868 
    0.452483     0.338486     0.595136 
    0.629586     0.542336     0.648009 
    0.396329     0.503446     0.675287 
    0.387988     0.401487     0.647954 
    0.272837     0.442709     0.465600 
    0.306519     0.485986     0.376489 
    0.328975     0.584829     0.350863 
    0.366653     0.694063     0.505056 
    0.382775     0.652476     0.410586 
    0.427011     0.710190     0.586597 
EA27025 16.149 16.368 16.229 90.00 90.00 90.00 Sym.group:    0
1.0
   16.148595     0.000000     0.000000
    0.000000    16.367746     0.000000
    0.000000     0.000000    16.229388
   W   B
  19  18
Direct
    0.510995     0.333686     0.651010 
    0.374330     0.383194     0.607567 
    0.587529     0.277228     0.522209 
    0.507872     0.414338     0.500884 
    0.357602     0.365381     0.453483 
    0.563463     0.472188     0.354611 
    0.402026     0.485880     0.345946 
    0.459014     0.631519     0.396641 
    0.391161     0.528018     0.507674 
    0.321131     0.672405     0.494553 
    0.577518     0.561487     0.493813 
    0.579512     0.712228     0.494291 
    0.744057     0.528531     0.526988 
    0.645360     0.422306     0.605834 
    0.454444     0.658335     0.583325 
    0.512321     0.507178     0.633769 
    0.608884     0.625060     0.334184 
    0.716356     0.660764     0.429505 
    0.677006     0.404669     0.447577 
    0.445749     0.283834     0.535278 
    0.477911     0.289805     0.435579 
    0.467172     0.367832     0.366355 
    0.566839     0.336954     0.395044 
    0.284893     0.475754     0.416911 
    0.316679     0.580938     0.393305 
    0.246770     0.555573     0.467210 
    0.314733     0.499897     0.626658 
    0.258849     0.566194     0.565537 
    0.270178     0.461732     0.526241 
    0.714391     0.317414     0.545574 
    0.676298     0.643673     0.563271 
    0.771182     0.400803     0.549391 
    0.690102     0.531609     0.395838 
    0.649904     0.557149     0.621237 
    0.439058     0.738218     0.476830 
    0.333680     0.607308     0.619806 
    0.585028     0.640922     0.616071 
EA27382 17.309 15.668 14.651 90.00 90.00 90.00 Sym.group:    0
1.0
   17.308774     0.000000     0.000000
    0.000000    15.668269     0.000000
    0.000000     0.000000    14.650919
   W   B
  19  18
Direct
    0.641948     0.571312     0.645667 
    0.667588     0.336632     0.513237 
    0.586018     0.476707     0.505985 
    0.653034     0.399454     0.347646 
    0.401068     0.611959     0.348535 
    0.535923     0.535008     0.344162 
    0.498953     0.374647     0.354249 
    0.377251     0.457539     0.305851 
    0.593103     0.651486     0.492035 
    0.683591     0.559888     0.364178 
    0.407187     0.473927     0.490212 
    0.255072     0.495273     0.542081 
    0.507890     0.312420     0.506289 
    0.454831     0.403512     0.652375 
    0.348360     0.536758     0.667559 
    0.490578     0.558798     0.628243 
    0.362468     0.638131     0.525666 
    0.275981     0.569620     0.399524 
    0.604705     0.254695     0.389217 
    0.559738     0.678945     0.635569 
    0.654608     0.423937     0.642184 
    0.722393     0.459594     0.460115 
    0.714798     0.469044     0.572484 
    0.484936     0.587056     0.474792 
    0.516729     0.686293     0.364561 
    0.603718     0.657878     0.335215 
    0.461490     0.702879     0.453954 
    0.700357     0.561059     0.510153 
    0.293514     0.423999     0.408860 
    0.303703     0.369714     0.504538 
    0.385966     0.328983     0.547155 
    0.577715     0.359215     0.623801 
    0.378852     0.346151     0.425705 
    0.570007     0.458042     0.681312 
    0.477573     0.701784     0.571626 
    0.414709     0.666253     0.655345 
    0.333639     0.401411     0.609919 
EA27842 17.038 15.788 14.660 90.00 90.00 90.00 Sym.group:    0
1.0
   17.038233     0.000000     0.000000
    0.000000    15.787626     0.000000
    0.000000     0.000000    14.660330
   W   B
  18  18
Direct
    0.412824     0.402162     0.333664 
    0.543427     0.500264     0.352491 
    0.418934     0.645710     0.576844 
    0.406096     0.490089     0.511241 
    0.261754     0.603909     0.557383 
    0.351437     0.630910     0.422716 
    0.287852     0.420481     0.569482 
    0.596394     0.652452     0.401240 
    0.329156     0.548294     0.683112 
    0.485039     0.530012     0.684139 
    0.515613     0.377201     0.635973 
    0.572052     0.520580     0.531828 
    0.696732     0.439870     0.441623 
    0.502487     0.359745     0.462526 
    0.663950     0.372520     0.596136 
    0.717173     0.524302     0.603738 
    0.385042     0.306694     0.598124 
    0.661676     0.663249     0.563352 
    0.368249     0.344403     0.461035 
    0.305648     0.418187     0.415953 
    0.269590     0.514025     0.447943 
    0.333319     0.504810     0.358501 
    0.420400     0.542317     0.328858 
    0.469539     0.689800     0.442762 
    0.475481     0.625778     0.351335 
    0.536176     0.691135     0.525801 
    0.545774     0.648303     0.630222 
    0.393613     0.426962     0.667589 
    0.611716     0.475497     0.686040 
    0.612207     0.582042     0.675342 
    0.702909     0.579666     0.455015 
    0.670217     0.548317     0.349159 
    0.652206     0.451692     0.307146 
    0.632558     0.316572     0.458513 
    0.608873     0.370507     0.362629 
    0.583885     0.281544     0.550546 
EA28327 16.549 15.466 14.886 90.00 90.00 90.00 Sym.group:    0
1.0
   16.548996     0.000000     0.000000
    0.000000    15.466296     0.000000
    0.000000     0.000000    14.885798
   W   B
  17  16
Direct
    0.504010     0.637164     0.416736 
    0.321755     0.362557     0.461965 
    0.529421     0.634929     0.600876 
    0.693255     0.607367     0.610053 
    0.477800     0.491943     0.670370 
    0.370122     0.376810     0.613540 
    0.581238     0.498596     0.511846 
    0.717039     0.570965     0.444543 
    0.712653     0.452867     0.599329 
    0.511094     0.474286     0.351166 
    0.275608     0.525394     0.407007 
    0.411314     0.516857     0.500392 
    0.288354     0.624139     0.553893 
    0.609058     0.325375     0.530147 
    0.447624     0.274787     0.509637 
    0.616309     0.537206     0.724558 
    0.343473     0.667479     0.409229 
    0.378253     0.444677     0.359748 
    0.397903     0.552068     0.347600 
    0.281555     0.479469     0.554191 
    0.400249     0.608534     0.634107 
    0.412187     0.670828     0.537791 
    0.588721     0.415457     0.644263 
    0.695331     0.420885     0.455452 
    0.651222     0.476569     0.365810 
    0.526080     0.337216     0.415565 
    0.612283     0.572985     0.344526 
    0.431393     0.354425     0.386986 
    0.620890     0.663053     0.495027 
    0.635738     0.666949     0.386168 
    0.612424     0.384109     0.398664 
    0.342597     0.517914     0.641182 
    0.503047     0.356140     0.617633 
EA28387 17.709 16.785 14.382 90.00 90.00 90.00 Sym.group:    0
1.0
   17.708519     0.000000     0.000000
    0.000000    16.785375     0.000000
    0.000000     0.000000    14.381887
   W   B
  19  18
Direct
    0.417219     0.374740     0.624038 
    0.630454     0.310446     0.519738 
    0.525109     0.422335     0.485527 
    0.405200     0.342477     0.449183 
    0.565546     0.492273     0.332887 
    0.418745     0.459687     0.327490 
    0.434398     0.607299     0.381923 
    0.391165     0.503480     0.516807 
    0.303096     0.624623     0.489008 
    0.547493     0.577945     0.501648 
    0.521375     0.720346     0.463045 
    0.709704     0.583887     0.531845 
    0.646650     0.443684     0.609812 
    0.431320     0.646159     0.594589 
    0.507121     0.493519     0.652059 
    0.566610     0.646905     0.318239 
    0.678782     0.447805     0.436540 
    0.627447     0.701525     0.583643 
    0.247421     0.497066     0.606681 
    0.504463     0.294326     0.541718 
    0.529885     0.293768     0.422316 
    0.506044     0.362052     0.339952 
    0.599952     0.356407     0.377464 
    0.318700     0.432902     0.401312 
    0.321904     0.535109     0.378432 
    0.266261     0.497102     0.462821 
    0.350789     0.482602     0.669584 
    0.295968     0.406484     0.513688 
    0.738849     0.373935     0.546481 
    0.764137     0.468684     0.556984 
    0.657778     0.576380     0.395669 
    0.618854     0.574875     0.637537 
    0.390764     0.708424     0.471603 
    0.328217     0.582423     0.634936 
    0.542736     0.629297     0.661902 
    0.644959     0.671611     0.435989 
    0.544888     0.357416     0.626912 
EA28790 17.766 16.505 15.498 90.00 90.00 90.00 Sym.group:    0
1.0
   17.765985     0.000000     0.000000
    0.000000    16.505340     0.000000
    0.000000     0.000000    15.498428
   W   B
  19  17
Direct
    0.571043     0.390892     0.390138 
    0.425370     0.372909     0.337513 
    0.311311     0.462727     0.395255 
    0.477928     0.290825     0.458716 
    0.362036     0.577013     0.485661 
    0.450925     0.450571     0.503652 
    0.388266     0.511864     0.669432 
    0.309795     0.422826     0.575593 
    0.458312     0.525882     0.345225 
    0.527240     0.446048     0.660224 
    0.493597     0.601269     0.599446 
    0.610093     0.356319     0.565132 
    0.739199     0.461055     0.533246 
    0.604833     0.508237     0.500254 
    0.607882     0.536490     0.325672 
    0.523532     0.639927     0.433229 
    0.419665     0.717855     0.516671 
    0.673694     0.440477     0.676183 
    0.638472     0.657469     0.550901 
    0.360263     0.350362     0.460375 
    0.289645     0.558297     0.601862 
    0.397315     0.327350     0.557099 
    0.253445     0.517979     0.509186 
    0.415006     0.384556     0.647030 
    0.487025     0.332956     0.595321 
    0.524375     0.441426     0.273561 
    0.366617     0.633381     0.617315 
    0.604675     0.558403     0.648098 
    0.694529     0.554758     0.614174 
    0.688183     0.455830     0.391943 
    0.647290     0.628073     0.415943 
    0.678535     0.376790     0.454381 
    0.708506     0.551657     0.417429 
    0.409370     0.653373     0.378257 
    0.533794     0.722848     0.551221 
    0.348235     0.581305     0.344660 
EA29103 18.390 16.400 14.293 90.00 90.00 90.00 Sym.group:    0
1.0
   18.390275     0.000000     0.000000
    0.000000    16.400280     0.000000
    0.000000     0.000000    14.292994
   W   B
  18  19
Direct
    0.422466     0.369538     0.615025 
    0.636707     0.314616     0.537575 
    0.533419     0.420922     0.484482 
    0.423400     0.325241     0.446756 
    0.451903     0.462246     0.331675 
    0.416775     0.616687     0.374540 
    0.403550     0.501086     0.508825 
    0.302476     0.607483     0.485985 
    0.533775     0.583597     0.500913 
    0.494661     0.734535     0.443568 
    0.685799     0.601811     0.525605 
    0.640380     0.461418     0.613102 
    0.427666     0.658247     0.585036 
    0.506860     0.500690     0.660176 
    0.538099     0.622148     0.309538 
    0.669337     0.454824     0.433816 
    0.589280     0.718229     0.575170 
    0.284679     0.464507     0.614317 
    0.513554     0.293682     0.558353 
    0.540704     0.285392     0.442360 
    0.519532     0.346017     0.348607 
    0.608350     0.340993     0.391178 
    0.345371     0.413991     0.392850 
    0.330791     0.515652     0.371572 
    0.284085     0.472823     0.461510 
    0.386716     0.496832     0.672395 
    0.324613     0.383632     0.510301 
    0.731020     0.392819     0.550173 
    0.748012     0.491640     0.546258 
    0.633294     0.581659     0.391905 
    0.608138     0.589935     0.641468 
    0.374083     0.714049     0.464377 
    0.337670     0.578036     0.626492 
    0.528083     0.635946     0.658815 
    0.608491     0.678684     0.426042 
    0.548376     0.366772     0.636087 
    0.567885     0.503623     0.363159 
EA29406 18.390 16.400 14.293 90.00 90.00 90.00 Sym.group:    0
1.0
   18.390275     0.000000     0.000000
    0.000000    16.400280     0.000000
    0.000000     0.000000    14.292994
   W   B
  18  19
Direct
    0.422466     0.369538     0.615025 
    0.636707     0.314616     0.537575 
    0.533419     0.420922     0.484482 
    0.423400     0.325241     0.446756 
    0.451903     0.462246     0.331675 
    0.416775     0.616687     0.374540 
    0.403550     0.501086     0.508825 
    0.302476     0.607483     0.485985 
    0.533775     0.583597     0.500913 
    0.494661     0.734535     0.443568 
    0.685799     0.601811     0.525605 
    0.640380     0.461418     0.613102 
    0.427666     0.658247     0.585036 
    0.506860     0.500690     0.660176 
    0.538099     0.622148     0.309538 
    0.669337     0.454824     0.433816 
    0.589280     0.718229     0.575170 
    0.284679     0.464507     0.614317 
    0.513554     0.293682     0.558353 
    0.540704     0.285392     0.442360 
    0.519532     0.346017     0.348607 
    0.608350     0.340993     0.391178 
    0.345371     0.413991     0.392850 
    0.330791     0.515652     0.371572 
    0.284085     0.472823     0.461510 
    0.386716     0.496832     0.672395 
    0.324613     0.383632     0.510301 
    0.731020     0.392819     0.550173 
    0.748012     0.491640     0.546258 
    0.633294     0.581659     0.391905 
    0.608138     0.589935     0.641468 
    0.374083     0.714049     0.464377 
    0.337670     0.578036     0.626492 
    0.528083     0.635946     0.658815 
    0.608491     0.678684     0.426042 
    0.548376     0.366772     0.636087 
    0.567885     0.503623     0.363159 
EA29751 18.390 16.400 14.293 90.00 90.00 90.00 Sym.group:    0
1.0
   18.390275     0.000000     0.000000
    0.000000    16.400280     0.000000
    0.000000     0.000000    14.292994
   W   B
  18  19
Direct
    0.422466     0.369538     0.615025 
    0.636707     0.314616     0.537575 
    0.533419     0.420922     0.484482 
    0.423400     0.325241     0.446756 
    0.451903     0.462246     0.331675 
    0.416775     0.616687     0.374540 
    0.403550     0.501086     0.508825 
    0.302476     0.607483     0.485985 
    0.533775     0.583597     0.500913 
    0.494661     0.734535     0.443568 
    0.685799     0.601811     0.525605 
    0.640380     0.461418     0.613102 
    0.427666     0.658247     0.585036 
    0.506860     0.500690     0.660176 
    0.538099     0.622148     0.309538 
    0.669337     0.454824     0.433816 
    0.589280     0.718229     0.575170 
    0.284679     0.464507     0.614317 
    0.513554     0.293682     0.558353 
    0.540704     0.285392     0.442360 
    0.519532     0.346017     0.348607 
    0.608350     0.340993     0.391178 
    0.345371     0.413991     0.392850 
    0.330791     0.515652     0.371572 
    0.284085     0.472823     0.461510 
    0.386716     0.496832     0.672395 
    0.324613     0.383632     0.510301 
    0.731020     0.392819     0.550173 
    0.748012     0.491640     0.546258 
    0.633294     0.581659     0.391905 
    0.608138     0.589935     0.641468 
    0.374083     0.714049     0.464377 
    0.337670     0.578036     0.626492 
    0.528083     0.635946     0.658815 
    0.608491     0.678684     0.426042 
    0.548376     0.366772     0.636087 
    0.567885     0.503623     0.363159 
EA30112 18.005 16.382 14.702 90.00 90.00 90.00 Sym.group:    0
1.0
   18.005479     0.000000     0.000000
    0.000000    16.381696     0.000000
    0.000000     0.000000    14.702064
   W   B
  19  18
Direct
    0.582263     0.617155     0.624754 
    0.363204     0.681757     0.537043 
    0.471822     0.576901     0.491764 
    0.585011     0.675536     0.458478 
    0.440050     0.518486     0.334942 
    0.580970     0.559930     0.332696 
    0.573733     0.403347     0.368995 
    0.602261     0.502437     0.504728 
    0.698100     0.390920     0.485604 
    0.458603     0.416155     0.492298 
    0.493817     0.274687     0.438391 
    0.303786     0.399307     0.519525 
    0.351296     0.538416     0.609294 
    0.572177     0.351449     0.581504 
    0.489468     0.492236     0.652285 
    0.447628     0.359826     0.305830 
    0.322286     0.543408     0.440097 
    0.397416     0.281942     0.568132 
    0.718848     0.525243     0.623370 
    0.491119     0.701580     0.562652 
    0.462301     0.710948     0.448005 
    0.488631     0.650796     0.357272 
    0.396249     0.648802     0.393713 
    0.676971     0.594889     0.410336 
    0.684153     0.491351     0.381327 
    0.729009     0.528993     0.477605 
    0.610677     0.478831     0.666980 
    0.684175     0.616256     0.525241 
    0.260498     0.611483     0.549670 
    0.240229     0.511656     0.548671 
    0.355336     0.417705     0.385602 
    0.385942     0.409387     0.631550 
    0.617159     0.299616     0.453166 
    0.674457     0.408401     0.630451 
    0.464886     0.358357     0.648268 
    0.374713     0.320979     0.423023 
    0.450754     0.630837     0.636735 
EA30463 16.223 15.398 18.107 90.00 90.00 90.00 Sym.group:    0
1.0
   16.223441     0.000000     0.000000
    0.000000    15.398480     0.000000
    0.000000     0.000000    18.107148
   W   B
  19  17
Direct
    0.406803     0.266276     0.537165 
    0.491881     0.406547     0.493927 
    0.637694     0.341806     0.473249 
    0.439158     0.448611     0.366907 
    0.601230     0.456124     0.367336 
    0.545345     0.610047     0.395205 
    0.399241     0.616495     0.342139 
    0.320580     0.390667     0.451927 
    0.616137     0.408079     0.608188 
    0.603736     0.527164     0.509650 
    0.673182     0.674693     0.485933 
    0.422302     0.560057     0.494866 
    0.421531     0.721667     0.441740 
    0.253002     0.537354     0.514319 
    0.344935     0.405817     0.585679 
    0.522490     0.672436     0.561187 
    0.475406     0.505033     0.624512 
    0.316760     0.684275     0.547045 
    0.729143     0.542818     0.606135 
    0.542967     0.288123     0.558586 
    0.518126     0.263781     0.466333 
    0.531472     0.330976     0.389882 
    0.431012     0.304298     0.419260 
    0.710945     0.456841     0.433598 
    0.687805     0.563662     0.408319 
    0.744915     0.542802     0.488201 
    0.723696     0.438340     0.526842 
    0.318377     0.525404     0.405720 
    0.598983     0.557881     0.638435 
    0.223696     0.399519     0.531435 
    0.342679     0.550913     0.604229 
    0.559940     0.735786     0.456842 
    0.646445     0.646594     0.601658 
    0.409243     0.633181     0.616747 
    0.308406     0.632349     0.431736 
    0.480734     0.353582     0.615067 
EA30843 17.825 16.396 14.578 90.00 90.00 90.00 Sym.group:    0
1.0
   17.825380     0.000000     0.000000
    0.000000    16.395973     0.000000
    0.000000     0.000000    14.578034
   W   B
  19  17
Direct
    0.402139     0.288124     0.557636 
    0.484871     0.412888     0.499315 
    0.611320     0.340591     0.463834 
    0.434798     0.458875     0.339502 
    0.580369     0.448049     0.332575 
    0.543506     0.599328     0.365426 
    0.408336     0.614916     0.301623 
    0.328426     0.413210     0.453053 
    0.603421     0.406116     0.630419 
    0.595650     0.517772     0.506901 
    0.669611     0.647905     0.473982 
    0.433318     0.563132     0.491459 
    0.442952     0.710634     0.428560 
    0.279754     0.554934     0.524979 
    0.356792     0.421900     0.617884 
    0.537488     0.658837     0.575134 
    0.482880     0.508043     0.654691 
    0.348907     0.688920     0.561400 
    0.717623     0.523279     0.618205 
    0.527804     0.298237     0.574836 
    0.498006     0.276905     0.461645 
    0.509378     0.339639     0.366796 
    0.419074     0.321103     0.409303 
    0.683648     0.442270     0.407075 
    0.669000     0.543593     0.375628 
    0.724066     0.519821     0.471000 
    0.699540     0.424777     0.522290 
    0.331711     0.538711     0.387364 
    0.601215     0.549087     0.666025 
    0.244758     0.428480     0.555748 
    0.366076     0.561192     0.631309 
    0.569781     0.714715     0.441761 
    0.650398     0.627592     0.620091 
    0.432090     0.632848     0.644929 
    0.332591     0.639760     0.419305 
    0.478704     0.363821     0.648319 
EA31362 16.118 15.531 15.178 90.00 90.00 90.00 Sym.group:    0
1.0
   16.118175     0.000000     0.000000
    0.000000    15.531334     0.000000
    0.000000     0.000000    15.177844
   W   B
  17  16
Direct
    0.480601     0.546649     0.660253 
    0.595031     0.316514     0.592109 
    0.567668     0.632756     0.438674 
    0.460565     0.684392     0.551734 
    0.669973     0.715631     0.523094 
    0.575426     0.472352     0.507472 
    0.705092     0.561902     0.533860 
    0.484399     0.540013     0.331191 
    0.418266     0.516272     0.494808 
    0.298930     0.369263     0.397086 
    0.447957     0.384830     0.609769 
    0.458224     0.381138     0.373035 
    0.317618     0.663607     0.490550 
    0.616912     0.341593     0.422144 
    0.289023     0.405553     0.549755 
    0.665393     0.524553     0.355980 
    0.339399     0.491633     0.683526 
    0.621168     0.529535     0.649283 
    0.570025     0.433944     0.668253 
    0.667556     0.433979     0.627537 
    0.718027     0.438880     0.444746 
    0.701377     0.386464     0.535836 
    0.353261     0.587411     0.375695 
    0.357547     0.482879     0.352157 
    0.287061     0.515689     0.440824 
    0.392850     0.329595     0.489382 
    0.571744     0.430732     0.314461 
    0.432004     0.650884     0.412250 
    0.359040     0.609079     0.614203 
    0.498132     0.303186     0.491727 
    0.591793     0.624117     0.601012 
    0.284584     0.546276     0.559171 
    0.703354     0.648700     0.408425 
EA31684 17.047 15.639 14.468 90.00 90.00 90.00 Sym.group:    0
1.0
   17.046840     0.000000     0.000000
    0.000000    15.638618     0.000000
    0.000000     0.000000    14.467768
   W   B
  16  17
Direct
    0.477078     0.364504     0.561513 
    0.448007     0.257667     0.431250 
    0.418169     0.518455     0.510717 
    0.397673     0.459638     0.675770 
    0.480850     0.426195     0.368987 
    0.561014     0.475776     0.668542 
    0.583622     0.498684     0.497323 
    0.696810     0.633158     0.509227 
    0.490301     0.614634     0.374627 
    0.582532     0.636277     0.626062 
    0.704043     0.379306     0.460357 
    0.453539     0.676674     0.534726 
    0.279929     0.522332     0.437984 
    0.345402     0.365046     0.437775 
    0.575906     0.309283     0.432315 
    0.767924     0.505088     0.524520 
    0.348630     0.459912     0.329574 
    0.373603     0.560681     0.350243 
    0.298746     0.537653     0.595454 
    0.325396     0.627132     0.538260 
    0.466621     0.579848     0.667964 
    0.350369     0.354298     0.586027 
    0.678241     0.435294     0.600769 
    0.677228     0.540186     0.626246 
    0.621886     0.604914     0.391647 
    0.581067     0.519830     0.333288 
    0.573079     0.663101     0.478106 
    0.609996     0.362628     0.572046 
    0.621235     0.424560     0.356012 
    0.293966     0.436829     0.561767 
    0.373601     0.598930     0.637288 
    0.683731     0.511976     0.395390 
    0.359806     0.639510     0.428220 
EA32043 16.232 15.669 15.011 90.00 90.00 90.00 Sym.group:    0
1.0
   16.232258     0.000000     0.000000
    0.000000    15.668927     0.000000
    0.000000     0.000000    15.011244
   W   B
  17  16
Direct
    0.488722     0.549352     0.661579 
    0.597087     0.318605     0.591414 
    0.566274     0.629926     0.431495 
    0.463591     0.684066     0.551424 
    0.672328     0.711179     0.512586 
    0.574996     0.472431     0.505222 
    0.706126     0.559605     0.523480 
    0.476873     0.537422     0.328315 
    0.419069     0.516656     0.498639 
    0.294204     0.370680     0.406888 
    0.452058     0.388958     0.615268 
    0.451517     0.380734     0.375277 
    0.318795     0.663020     0.496451 
    0.610572     0.342307     0.417688 
    0.291580     0.408960     0.561254 
    0.659951     0.521159     0.346735 
    0.349127     0.494513     0.692364 
    0.626968     0.530346     0.645041 
    0.575717     0.436275     0.668146 
    0.670908     0.434682     0.622774 
    0.713960     0.436397     0.435461 
    0.699927     0.385948     0.528777 
    0.350058     0.586230     0.380190 
    0.352375     0.482310     0.357546 
    0.286338     0.516282     0.449937 
    0.391334     0.332338     0.496573 
    0.562853     0.429535     0.311204 
    0.430250     0.648642     0.412996 
    0.365544     0.610616     0.620145 
    0.495891     0.305117     0.494964 
    0.595806     0.623150     0.594916 
    0.288799     0.548229     0.569326 
    0.700402     0.644329     0.395923 
EA32185 17.245 15.929 14.651 90.00 90.00 90.00 Sym.group:    0
1.0
   17.244976     0.000000     0.000000
    0.000000    15.928673     0.000000
    0.000000     0.000000    14.651201
   W   B
  20  16
Direct
    0.361589     0.599253     0.335970 
    0.509452     0.592508     0.366712 
    0.552850     0.425227     0.366844 
    0.592167     0.522034     0.510214 
    0.732665     0.544421     0.441114 
    0.678013     0.383629     0.461224 
    0.540522     0.678933     0.519227 
    0.411648     0.506229     0.505245 
    0.276240     0.584762     0.587933 
    0.359575     0.348719     0.559191 
    0.411367     0.354914     0.381962 
    0.402562     0.666779     0.593816 
    0.511378     0.563410     0.651925 
    0.624174     0.395011     0.647269 
    0.435753     0.422814     0.685231 
    0.631330     0.664715     0.654538 
    0.552003     0.269462     0.426163 
    0.696682     0.441828     0.309107 
    0.512544     0.372361     0.547310 
    0.749339     0.598741     0.600881 
    0.436087     0.482589     0.329237 
    0.648623     0.530037     0.656847 
    0.671052     0.661019     0.510415 
    0.709663     0.472532     0.576320 
    0.631602     0.549621     0.340403 
    0.629193     0.633942     0.411082 
    0.423853     0.662931     0.448480 
    0.275653     0.459118     0.532059 
    0.340054     0.470082     0.352921 
    0.441235     0.264804     0.487572 
    0.320486     0.463642     0.636325 
    0.379357     0.545164     0.664744 
    0.290501     0.532604     0.442337 
    0.621231     0.291726     0.548088 
    0.309344     0.411012     0.440989 
    0.330214     0.633427     0.470307 
EA32429 18.755 17.545 14.801 90.00 90.00 90.00 Sym.group:    0
1.0
   18.754844     0.000000     0.000000
    0.000000    17.544889     0.000000
    0.000000     0.000000    14.800838
   W   B
  20  20
Direct
    0.511907     0.533741     0.647709 
    0.662377     0.580957     0.457760 
    0.610149     0.650013     0.607606 
    0.543794     0.359352     0.386884 
    0.464266     0.270318     0.524604 
    0.589129     0.464616     0.492465 
    0.670233     0.344913     0.502830 
    0.535739     0.363432     0.615430 
    0.449283     0.435084     0.505808 
    0.359310     0.361259     0.616698 
    0.314442     0.609792     0.452548 
    0.488608     0.505737     0.342806 
    0.426360     0.641399     0.341571 
    0.379222     0.411868     0.347464 
    0.626769     0.499751     0.313591 
    0.572900     0.636546     0.326517 
    0.504556     0.743412     0.404232 
    0.512411     0.596518     0.484083 
    0.372887     0.526804     0.598745 
    0.467738     0.669796     0.627088 
    0.441774     0.435095     0.666728 
    0.667306     0.525428     0.609214 
    0.610623     0.466681     0.679531 
    0.620087     0.557797     0.699727 
    0.662534     0.417663     0.614732 
    0.705593     0.457725     0.424331 
    0.711103     0.469825     0.534115 
    0.659397     0.391922     0.368585 
    0.575368     0.281763     0.506279 
    0.366051     0.332216     0.472113 
    0.436404     0.317851     0.401807 
    0.276126     0.441097     0.593752 
    0.264800     0.510079     0.518540 
    0.323489     0.494276     0.431987 
    0.315900     0.411169     0.489031 
    0.366776     0.536446     0.351904 
    0.605098     0.690019     0.457206 
    0.545437     0.725613     0.534897 
    0.415730     0.683113     0.479907 
    0.368322     0.648912     0.569174 
EA33087 17.876 15.283 14.312 90.00 90.00 90.00 Sym.group:    0
1.0
   17.876310     0.000000     0.000000
    0.000000    15.282668     0.000000
    0.000000     0.000000    14.312254
   W   B
  16  16
Direct
    0.470086     0.372073     0.581308 
    0.419083     0.505572     0.499621 
    0.283009     0.465341     0.451495 
    0.331085     0.573112     0.612554 
    0.487119     0.619346     0.618705 
    0.400319     0.669873     0.358945 
    0.499105     0.362208     0.400938 
    0.564785     0.498378     0.491062 
    0.686102     0.406970     0.500747 
    0.621564     0.439150     0.317394 
    0.483787     0.523398     0.329183 
    0.515683     0.665071     0.452651 
    0.664056     0.657455     0.473668 
    0.639244     0.555291     0.625337 
    0.753368     0.466968     0.632087 
    0.626762     0.294137     0.383093 
    0.359070     0.434955     0.649631 
    0.337996     0.378051     0.551664 
    0.274394     0.449329     0.598825 
    0.357739     0.539860     0.360383 
    0.386674     0.432519     0.358011 
    0.432684     0.495774     0.670231 
    0.394791     0.659627     0.512781 
    0.321274     0.603223     0.457282 
    0.375780     0.361247     0.448087 
    0.529283     0.482628     0.655674 
    0.579173     0.337589     0.521991 
    0.595121     0.407040     0.615921 
    0.603190     0.582030     0.367620 
    0.734603     0.547277     0.514195 
    0.589399     0.687788     0.579715 
    0.683670     0.526725     0.409201 
EA33112 15.613 17.503 16.698 90.00 90.00 90.00 Sym.group:    0
1.0
   15.613162     0.000000     0.000000
    0.000000    17.503368     0.000000
    0.000000     0.000000    16.698375
   W   B
  20  19
Direct
    0.428870     0.374693     0.393335 
    0.474259     0.505962     0.646114 
    0.254981     0.362706     0.435527 
    0.306194     0.594119     0.518572 
    0.388118     0.467478     0.499348 
    0.401977     0.640852     0.641074 
    0.236466     0.439550     0.563053 
    0.518000     0.325515     0.528724 
    0.343733     0.325309     0.550721 
    0.675791     0.363386     0.610808 
    0.737934     0.503454     0.601611 
    0.602617     0.609224     0.628248 
    0.630215     0.474113     0.701011 
    0.604323     0.467097     0.521725 
    0.525709     0.510365     0.364552 
    0.496924     0.587683     0.513010 
    0.507780     0.733106     0.600480 
    0.414823     0.630305     0.392672 
    0.595919     0.647514     0.389534 
    0.672784     0.435767     0.375637 
    0.324469     0.521329     0.628781 
    0.442401     0.383149     0.619461 
    0.351839     0.428391     0.634541 
    0.306640     0.452211     0.370904 
    0.243313     0.491808     0.447201 
    0.306468     0.549888     0.393170 
    0.390710     0.505582     0.347229 
    0.403578     0.691572     0.516613 
    0.546582     0.393944     0.635182 
    0.739207     0.402988     0.499386 
    0.573645     0.342662     0.410894 
    0.751550     0.492697     0.472737 
    0.651707     0.551267     0.330287 
    0.653622     0.602079     0.504841 
    0.597465     0.686102     0.513827 
    0.498449     0.713180     0.466607 
    0.550284     0.391944     0.331267 
    0.654292     0.343701     0.480458 
    0.696364     0.557310     0.420856 
EA33465 17.192 16.415 15.644 90.00 90.00 90.00 Sym.group:    0
1.0
   17.191573     0.000000     0.000000
    0.000000    16.415146     0.000000
    0.000000     0.000000    15.643858
   W   B
  20  19
Direct
    0.426297     0.370613     0.380453 
    0.480469     0.504935     0.658617 
    0.269772     0.367489     0.439581 
    0.331520     0.612464     0.522448 
    0.400336     0.469089     0.499963 
    0.422209     0.650817     0.652225 
    0.260253     0.453518     0.571540 
    0.503710     0.318782     0.528712 
    0.350416     0.322165     0.557884 
    0.652219     0.342448     0.614692 
    0.714998     0.494327     0.606648 
    0.600685     0.607006     0.636966 
    0.623408     0.459348     0.713676 
    0.584743     0.459668     0.525780 
    0.523562     0.507649     0.353540 
    0.501170     0.594778     0.513729 
    0.525257     0.744183     0.607479 
    0.432669     0.644758     0.386396 
    0.593064     0.653098     0.380807 
    0.650177     0.423453     0.363614 
    0.348582     0.532846     0.635554 
    0.441979     0.373434     0.638150 
    0.363649     0.431188     0.648181 
    0.320352     0.460082     0.365744 
    0.269172     0.507144     0.447376 
    0.328705     0.564413     0.388611 
    0.400494     0.509901     0.339189 
    0.424889     0.710255     0.518341 
    0.537443     0.375763     0.655379 
    0.705222     0.391383     0.497111 
    0.555145     0.329790     0.402326 
    0.714678     0.489027     0.468760 
    0.635176     0.547331     0.308642 
    0.648316     0.596633     0.499581 
    0.600458     0.690355     0.513567 
    0.513126     0.727137     0.465829 
    0.538201     0.381309     0.315700 
    0.628380     0.327205     0.476189 
    0.679098     0.554217     0.401025 
EA34065 16.912 15.590 14.855 90.00 90.00 90.00 Sym.group:    0
1.0
   16.911832     0.000000     0.000000
    0.000000    15.589804     0.000000
    0.000000     0.000000    14.854794
   W   B
  17  16
Direct
    0.571543     0.483197     0.506173 
    0.266950     0.554516     0.432399 
    0.366365     0.456437     0.336750 
    0.615184     0.491643     0.309311 
    0.593751     0.311423     0.511235 
    0.511356     0.394132     0.374329 
    0.284208     0.392000     0.456829 
    0.443581     0.358926     0.574761 
    0.613518     0.649526     0.556965 
    0.412582     0.500834     0.497775 
    0.439861     0.638533     0.612429 
    0.512862     0.497868     0.666816 
    0.665840     0.424235     0.650147 
    0.718716     0.541685     0.562936 
    0.361275     0.506670     0.676585 
    0.487424     0.652617     0.447464 
    0.343976     0.683690     0.467500 
    0.647081     0.389799     0.406907 
    0.389219     0.590847     0.368994 
    0.277421     0.493838     0.563232 
    0.398928     0.338301     0.425343 
    0.479585     0.282286     0.457479 
    0.320926     0.403304     0.596405 
    0.633714     0.560471     0.679028 
    0.314360     0.595404     0.574003 
    0.554791     0.628250     0.684810 
    0.698136     0.485796     0.422098 
    0.694413     0.408989     0.506536 
    0.573684     0.610112     0.343480 
    0.610267     0.683977     0.415488 
    0.486099     0.539274     0.355641 
    0.554963     0.364878     0.638942 
    0.657421     0.586539     0.421212 
EA34429 17.055 17.071 15.113 90.00 90.00 90.00 Sym.group:    0
1.0
   17.054761     0.000000     0.000000
    0.000000    17.070944     0.000000
    0.000000     0.000000    15.113388
   W   B
  17  16
Direct
    0.576611     0.497900     0.489010 
    0.640738     0.397124     0.599757 
    0.523722     0.422746     0.350728 
    0.624826     0.349176     0.439915 
    0.733693     0.519330     0.566656 
    0.506466     0.460778     0.646415 
    0.422214     0.344007     0.578747 
    0.653606     0.635672     0.535195 
    0.526485     0.698601     0.467794 
    0.345139     0.604780     0.614339 
    0.509822     0.615169     0.612082 
    0.581458     0.747423     0.599024 
    0.349622     0.461984     0.657536 
    0.419306     0.495405     0.494474 
    0.305639     0.605132     0.450693 
    0.377753     0.380348     0.407450 
    0.475051     0.575666     0.363876 
    0.707670     0.453314     0.452636 
    0.548843     0.313876     0.544414 
    0.654826     0.457127     0.358405 
    0.681720     0.546934     0.414882 
    0.605266     0.614021     0.399842 
    0.620764     0.530572     0.629399 
    0.492201     0.332595     0.452467 
    0.431875     0.554413     0.703689 
    0.343094     0.513042     0.360232 
    0.309034     0.413310     0.530563 
    0.278695     0.511017     0.544740 
    0.288493     0.474479     0.441978 
    0.415168     0.470869     0.309330 
    0.596796     0.533873     0.334419 
    0.418199     0.633697     0.499647 
    0.535204     0.335619     0.649670 
EA34767 17.007 15.597 14.839 90.00 90.00 90.00 Sym.group:    0
1.0
   17.007136     0.000000     0.000000
    0.000000    15.596518     0.000000
    0.000000     0.000000    14.839356
   W   B
  17  16
Direct
    0.428276     0.484062     0.501143 
    0.732606     0.557276     0.437410 
    0.634943     0.458301     0.338410 
    0.389108     0.488396     0.305030 
    0.408232     0.312880     0.509645 
    0.490399     0.392727     0.373079 
    0.715908     0.394227     0.457792 
    0.555869     0.358859     0.575303 
    0.385939     0.648804     0.555786 
    0.587299     0.501027     0.499920 
    0.558599     0.638252     0.613751 
    0.484676     0.497814     0.666198 
    0.334462     0.424156     0.645122 
    0.280823     0.541915     0.558641 
    0.636101     0.505671     0.678452 
    0.512611     0.653344     0.448253 
    0.654181     0.687126     0.472980 
    0.355141     0.389565     0.403600 
    0.612548     0.592490     0.373361 
    0.720811     0.494422     0.566451 
    0.602361     0.339630     0.425759 
    0.522412     0.282757     0.457612 
    0.677724     0.403306     0.598009 
    0.364047     0.559863     0.677483 
    0.683786     0.595925     0.577430 
    0.442619     0.627736     0.684522 
    0.303109     0.484800     0.416965 
    0.306216     0.408539     0.501951 
    0.428626     0.604964     0.348208 
    0.389781     0.681536     0.413967 
    0.515843     0.538895     0.359272 
    0.445144     0.364369     0.640064 
    0.339801     0.586367     0.418430 
EA35108 16.753 16.066 14.923 90.00 90.00 90.00 Sym.group:    0
1.0
   16.752741     0.000000     0.000000
    0.000000    16.065737     0.000000
    0.000000     0.000000    14.923291
   W   B
  17  16
Direct
    0.589170     0.509848     0.503125 
    0.648394     0.405199     0.390242 
    0.556198     0.437850     0.647384 
    0.654651     0.350565     0.554102 
    0.491365     0.455905     0.357096 
    0.437363     0.318760     0.443772 
    0.341690     0.432807     0.362185 
    0.426271     0.483405     0.517245 
    0.410346     0.368154     0.622410 
    0.721600     0.557402     0.406421 
    0.388296     0.573989     0.305393 
    0.630680     0.662584     0.525765 
    0.495531     0.626225     0.410918 
    0.314957     0.592547     0.559761 
    0.486163     0.606378     0.615740 
    0.631946     0.583788     0.670603 
    0.394015     0.719768     0.537353 
    0.724372     0.457610     0.505572 
    0.570952     0.303176     0.457952 
    0.687132     0.470952     0.612561 
    0.523199     0.322206     0.559074 
    0.355585     0.498449     0.662523 
    0.325904     0.377615     0.501819 
    0.283347     0.474397     0.482128 
    0.302742     0.447665     0.587750 
    0.446110     0.487584     0.696207 
    0.542287     0.332688     0.358285 
    0.602455     0.535454     0.348405 
    0.357194     0.645257     0.426004 
    0.304982     0.554557     0.416117 
    0.622223     0.635082     0.379793 
    0.514709     0.715228     0.523676 
    0.718173     0.556906     0.552620 
EA35462 16.931 15.534 14.741 90.00 90.00 90.00 Sym.group:    0
1.0
   16.931121     0.000000     0.000000
    0.000000    15.533609     0.000000
    0.000000     0.000000    14.741324
   W   B
  17  16
Direct
    0.572071     0.514834     0.505588 
    0.267945     0.450465     0.431448 
    0.365836     0.554728     0.340383 
    0.611184     0.521644     0.306261 
    0.595592     0.685859     0.523694 
    0.512717     0.615739     0.382241 
    0.286594     0.612979     0.465629 
    0.444508     0.637230     0.585461 
    0.613221     0.345791     0.544611 
    0.413481     0.499926     0.499639 
    0.439640     0.354962     0.605571 
    0.513517     0.491444     0.669111 
    0.668495     0.564640     0.652279 
    0.719480     0.451417     0.556352 
    0.361176     0.482941     0.679927 
    0.485573     0.348876     0.437224 
    0.343578     0.315764     0.458457 
    0.647518     0.615448     0.411147 
    0.386703     0.417198     0.365433 
    0.277993     0.503723     0.566196 
    0.400088     0.669314     0.436339 
    0.480897     0.721616     0.473717 
    0.322464     0.591717     0.605789 
    0.634370     0.427887     0.672797 
    0.314034     0.400669     0.570297 
    0.555572     0.359734     0.675530 
    0.697172     0.517920     0.418264 
    0.695355     0.588937     0.508975 
    0.568903     0.402036     0.336778 
    0.607767     0.321819     0.399698 
    0.483324     0.470095     0.355495 
    0.556737     0.624967     0.648872 
    0.656496     0.417681     0.410795 
EA35580 17.135 16.223 15.864 90.00 90.00 90.00 Sym.group:    0
1.0
   17.134800     0.000000     0.000000
    0.000000    16.222918     0.000000
    0.000000     0.000000    15.864412
   W   B
  20  16
Direct
    0.666115     0.412754     0.537886 
    0.550088     0.525232     0.514078 
    0.541615     0.389746     0.408523 
    0.625904     0.499790     0.331556 
    0.583344     0.651110     0.403840 
    0.470879     0.548357     0.359270 
    0.448567     0.711384     0.396471 
    0.394327     0.402865     0.340555 
    0.317076     0.604270     0.562393 
    0.426280     0.503466     0.646820 
    0.395784     0.474732     0.492029 
    0.410378     0.305272     0.474866 
    0.583798     0.479470     0.675301 
    0.503892     0.369972     0.587429 
    0.323392     0.570742     0.394274 
    0.540867     0.697814     0.542099 
    0.273447     0.360967     0.520159 
    0.275104     0.467383     0.624696 
    0.513639     0.437613     0.254739 
    0.544839     0.249006     0.470197 
    0.723992     0.532141     0.509174 
    0.674439     0.535641     0.596451 
    0.659665     0.619098     0.521427 
    0.694189     0.580499     0.418143 
    0.723991     0.478130     0.422676 
    0.614074     0.352833     0.654294 
    0.669527     0.396497     0.401313 
    0.602301     0.286430     0.578251 
    0.614542     0.612621     0.619897 
    0.521317     0.600621     0.644922 
    0.284896     0.441769     0.409570 
    0.343585     0.684915     0.458725 
    0.413222     0.700716     0.528554 
    0.374499     0.377472     0.600179 
    0.438536     0.636777     0.605882 
    0.257890     0.501895     0.493361 
EA36031 17.726 15.972 15.098 90.00 90.00 90.00 Sym.group:    0
1.0
   17.726360     0.000000     0.000000
    0.000000    15.972231     0.000000
    0.000000     0.000000    15.097857
   W   B
  19  16
Direct
    0.475830     0.432443     0.365289 
    0.510159     0.614425     0.401288 
    0.434269     0.265256     0.405999 
    0.360013     0.557220     0.353968 
    0.572958     0.489203     0.499566 
    0.568531     0.316347     0.404446 
    0.660054     0.567897     0.373351 
    0.491873     0.618254     0.580096 
    0.634680     0.634164     0.620492 
    0.406540     0.493066     0.508193 
    0.348892     0.333148     0.530700 
    0.492853     0.350233     0.541399 
    0.251961     0.466088     0.484709 
    0.720527     0.539483     0.522219 
    0.333386     0.395473     0.380071 
    0.390553     0.676214     0.455073 
    0.584917     0.393600     0.664646 
    0.391633     0.535186     0.685076 
    0.694789     0.402909     0.434377 
    0.554210     0.520289     0.299461 
    0.612531     0.686042     0.403939 
    0.673010     0.665503     0.484785 
    0.680899     0.416255     0.578360 
    0.602927     0.440521     0.344703 
    0.622821     0.342479     0.536005 
    0.296860     0.544310     0.594824 
    0.301207     0.590467     0.491560 
    0.487446     0.471701     0.626792 
    0.655686     0.502104     0.640439 
    0.563312     0.528562     0.665882 
    0.314825     0.441460     0.612154 
    0.580510     0.693557     0.507009 
    0.403548     0.406722     0.639154 
    0.464802     0.547452     0.282078 
    0.360990     0.621968     0.581894 
EA36305 17.205 16.618 15.937 90.00 90.00 90.00 Sym.group:    0
1.0
   17.204969     0.000000     0.000000
    0.000000    16.618200     0.000000
    0.000000     0.000000    15.936559
   W   B
  20  16
Direct
    0.672684     0.574792     0.535233 
    0.550899     0.470632     0.513186 
    0.545831     0.604808     0.409707 
    0.620448     0.493066     0.333658 
    0.569995     0.345362     0.405041 
    0.461648     0.450098     0.361259 
    0.432008     0.296822     0.395383 
    0.395964     0.611716     0.348484 
    0.310696     0.415185     0.563058 
    0.430399     0.503921     0.644194 
    0.398204     0.533736     0.489805 
    0.432502     0.699468     0.478474 
    0.585121     0.510330     0.675088 
    0.517719     0.625412     0.587875 
    0.315603     0.440746     0.395042 
    0.524738     0.304628     0.541420 
    0.291156     0.653471     0.509957 
    0.283734     0.552640     0.621741 
    0.503101     0.553084     0.257673 
    0.579022     0.735519     0.473557 
    0.718454     0.454160     0.507921 
    0.670187     0.452981     0.595149 
    0.650176     0.371399     0.520209 
    0.680461     0.411099     0.419244 
    0.720399     0.507647     0.421210 
    0.630309     0.629220     0.658418 
    0.674652     0.593138     0.399188 
    0.625873     0.696777     0.585329 
    0.605263     0.381946     0.618340 
    0.513493     0.398739     0.644327 
    0.285008     0.568317     0.406062 
    0.328921     0.330161     0.461557 
    0.398709     0.309566     0.528468 
    0.389830     0.631831     0.598353 
    0.428681     0.371439     0.604013 
    0.258110     0.516145     0.492376 
EA36613 17.205 16.618 15.937 90.00 90.00 90.00 Sym.group:    0
1.0
   17.204969     0.000000     0.000000
    0.000000    16.618200     0.000000
    0.000000     0.000000    15.936559
   W   B
  20  16
Direct
    0.672684     0.574792     0.535233 
    0.550899     0.470632     0.513186 
    0.545831     0.604808     0.409707 
    0.620448     0.493066     0.333658 
    0.569995     0.345362     0.405041 
    0.461648     0.450098     0.361259 
    0.432008     0.296822     0.395383 
    0.395964     0.611716     0.348484 
    0.310696     0.415185     0.563058 
    0.430399     0.503921     0.644194 
    0.398204     0.533736     0.489805 
    0.432502     0.699468     0.478474 
    0.585121     0.510330     0.675088 
    0.517719     0.625412     0.587875 
    0.315603     0.440746     0.395042 
    0.524738     0.304628     0.541420 
    0.291156     0.653471     0.509957 
    0.283734     0.552640     0.621741 
    0.503101     0.553084     0.257673 
    0.579022     0.735519     0.473557 
    0.718454     0.454160     0.507921 
    0.670187     0.452981     0.595149 
    0.650176     0.371399     0.520209 
    0.680461     0.411099     0.419244 
    0.720399     0.507647     0.421210 
    0.630309     0.629220     0.658418 
    0.674652     0.593138     0.399188 
    0.625873     0.696777     0.585329 
    0.605263     0.381946     0.618340 
    0.513493     0.398739     0.644327 
    0.285008     0.568317     0.406062 
    0.328921     0.330161     0.461557 
    0.398709     0.309566     0.528468 
    0.389830     0.631831     0.598353 
    0.428681     0.371439     0.604013 
    0.258110     0.516145     0.492376 
EA37048 17.508 15.513 15.014 90.00 90.00 90.00 Sym.group:    0
1.0
   17.507767     0.000000     0.000000
    0.000000    15.512735     0.000000
    0.000000     0.000000    15.013575
   W   B
  19  16
Direct
    0.247361     0.388541     0.522252 
    0.490489     0.350668     0.454900 
    0.350802     0.283467     0.472604 
    0.376986     0.414705     0.590007 
    0.348792     0.422603     0.391447 
    0.438508     0.525779     0.475324 
    0.318504     0.598263     0.380422 
    0.436905     0.673524     0.359257 
    0.552007     0.548358     0.350078 
    0.300077     0.555204     0.552957 
    0.382725     0.686383     0.520486 
    0.476570     0.532011     0.656327 
    0.531504     0.660011     0.508485 
    0.608516     0.610969     0.642046 
    0.581818     0.488570     0.521474 
    0.614303     0.691125     0.376011 
    0.652550     0.374734     0.418285 
    0.526890     0.359385     0.636635 
    0.693886     0.550898     0.403051 
    0.465029     0.439003     0.334660 
    0.435525     0.290216     0.575444 
    0.419773     0.534725     0.318665 
    0.244779     0.492391     0.432048 
    0.558128     0.402552     0.328181 
    0.379529     0.627199     0.660235 
    0.593193     0.475445     0.679264 
    0.660469     0.648394     0.504731 
    0.702844     0.562307     0.550328 
    0.464519     0.673732     0.636987 
    0.713974     0.458003     0.518383 
    0.596956     0.324702     0.532015 
    0.662950     0.386654     0.580865 
    0.640024     0.457817     0.308046 
    0.678957     0.487179     0.627982 
    0.354156     0.524485     0.680117 
EA37374 17.586 15.823 15.241 90.00 90.00 90.00 Sym.group:    0
1.0
   17.585958     0.000000     0.000000
    0.000000    15.822858     0.000000
    0.000000     0.000000    15.241282
   W   B
  19  16
Direct
    0.532461     0.441271     0.636862 
    0.478168     0.618455     0.591682 
    0.590366     0.278868     0.605509 
    0.634021     0.586132     0.640094 
    0.429367     0.479536     0.501575 
    0.447818     0.312210     0.604990 
    0.335353     0.552772     0.624535 
    0.494010     0.615028     0.410254 
    0.350339     0.606305     0.374388 
    0.593933     0.506985     0.491717 
    0.668797     0.352271     0.483534 
    0.524740     0.347608     0.466965 
    0.750764     0.507441     0.518425 
    0.276840     0.508148     0.477556 
    0.678915     0.428290     0.624997 
    0.587834     0.696027     0.531816 
    0.426972     0.370917     0.343891 
    0.605782     0.537581     0.313337 
    0.315485     0.379375     0.571274 
    0.444964     0.522861     0.697694 
    0.367628     0.676677     0.585435 
    0.309022     0.641504     0.508365 
    0.327010     0.385868     0.427437 
    0.404015     0.434760     0.657202 
    0.394478     0.324264     0.474008 
    0.697221     0.568335     0.401368 
    0.685726     0.621912     0.499316 
    0.516485     0.464361     0.374956 
    0.344140     0.471083     0.360299 
    0.433375     0.508701     0.333161 
    0.692701     0.461133     0.394799 
    0.398901     0.681165     0.482751 
    0.607960     0.412294     0.369599 
    0.531488     0.562494     0.712059 
    0.622921     0.637369     0.408148 
EA37694 17.586 15.823 15.241 90.00 90.00 90.00 Sym.group:    0
1.0
   17.585958     0.000000     0.000000
    0.000000    15.822858     0.000000
    0.000000     0.000000    15.241282
   W   B
  19  16
Direct
    0.532461     0.441271     0.636862 
    0.478168     0.618455     0.591682 
    0.590366     0.278868     0.605509 
    0.634021     0.586132     0.640094 
    0.429367     0.479536     0.501575 
    0.447818     0.312210     0.604990 
    0.335353     0.552772     0.624535 
    0.494010     0.615028     0.410254 
    0.350339     0.606305     0.374388 
    0.593933     0.506985     0.491717 
    0.668797     0.352271     0.483534 
    0.524740     0.347608     0.466965 
    0.750764     0.507441     0.518425 
    0.276840     0.508148     0.477556 
    0.678915     0.428290     0.624997 
    0.587834     0.696027     0.531816 
    0.426972     0.370917     0.343891 
    0.605782     0.537581     0.313337 
    0.315485     0.379375     0.571274 
    0.444964     0.522861     0.697694 
    0.367628     0.676677     0.585435 
    0.309022     0.641504     0.508365 
    0.327010     0.385868     0.427437 
    0.404015     0.434760     0.657202 
    0.394478     0.324264     0.474008 
    0.697221     0.568335     0.401368 
    0.685726     0.621912     0.499316 
    0.516485     0.464361     0.374956 
    0.344140     0.471083     0.360299 
    0.433375     0.508701     0.333161 
    0.692701     0.461133     0.394799 
    0.398901     0.681165     0.482751 
    0.607960     0.412294     0.369599 
    0.531488     0.562494     0.712059 
    0.622921     0.637369     0.408148 
EA38043 17.448 15.473 14.832 90.00 90.00 90.00 Sym.group:    0
1.0
   17.447640     0.000000     0.000000
    0.000000    15.473191     0.000000
    0.000000     0.000000    14.832055
   W   B
  19  16
Direct
    0.242269     0.402332     0.529391 
    0.482697     0.347978     0.460416 
    0.341500     0.286978     0.479848 
    0.373028     0.421969     0.594002 
    0.341432     0.423862     0.395682 
    0.438856     0.525881     0.475295 
    0.322170     0.605409     0.381446 
    0.446452     0.672282     0.355414 
    0.551144     0.540318     0.342759 
    0.303453     0.567614     0.558223 
    0.389828     0.693487     0.519001 
    0.481894     0.533621     0.657717 
    0.535848     0.658512     0.505802 
    0.615490     0.609806     0.638166 
    0.582022     0.486429     0.517821 
    0.617651     0.686258     0.368421 
    0.648073     0.366559     0.418669 
    0.522442     0.359658     0.641370 
    0.692545     0.542743     0.393795 
    0.460160     0.435915     0.337232 
    0.425628     0.294003     0.584787 
    0.417296     0.532591     0.318420 
    0.243532     0.505060     0.436411 
    0.551911     0.394404     0.329504 
    0.387769     0.634726     0.661463 
    0.598548     0.470999     0.676000 
    0.665666     0.644761     0.496982 
    0.706000     0.556679     0.541526 
    0.474393     0.675742     0.636492 
    0.712614     0.450521     0.514111 
    0.591391     0.322744     0.535718 
    0.657998     0.385335     0.585687 
    0.635648     0.445237     0.303471 
    0.683340     0.486155     0.623700 
    0.359317     0.533431     0.685258 
EA38462 16.852 15.324 14.637 90.00 90.00 90.00 Sym.group:    0
1.0
   16.852308     0.000000     0.000000
    0.000000    15.323936     0.000000
    0.000000     0.000000    14.637169
   W   B
  17  16
Direct
    0.584930     0.490184     0.497429 
    0.264984     0.440085     0.535230 
    0.346961     0.410023     0.664268 
    0.564593     0.643607     0.585289 
    0.521427     0.483502     0.664407 
    0.309501     0.585816     0.594430 
    0.607557     0.405363     0.347617 
    0.419643     0.499313     0.513035 
    0.430936     0.450852     0.318018 
    0.493258     0.602601     0.391258 
    0.640623     0.666702     0.430935 
    0.726000     0.527378     0.425411 
    0.487193     0.349011     0.442435 
    0.701848     0.367309     0.496653 
    0.579493     0.318215     0.582407 
    0.720220     0.629121     0.563823 
    0.612151     0.257276     0.424910 
    0.643074     0.538879     0.643538 
    0.372267     0.351493     0.531964 
    0.290907     0.559874     0.451414 
    0.398295     0.532349     0.688959 
    0.447161     0.606619     0.634093 
    0.615390     0.554188     0.343068 
    0.314277     0.472165     0.387722 
    0.539302     0.514031     0.283976 
    0.456241     0.364842     0.596170 
    0.522359     0.717710     0.471967 
    0.440030     0.666535     0.529927 
    0.354373     0.379525     0.423621 
    0.715446     0.490528     0.574471 
    0.646368     0.428449     0.630428 
    0.367638     0.563561     0.370122 
    0.365555     0.632896     0.461006 
EA38839 17.064 16.342 15.150 90.00 90.00 90.00 Sym.group:    0
1.0
   17.063716     0.000000     0.000000
    0.000000    16.342024     0.000000
    0.000000     0.000000    15.150078
   W   B
  17  16
Direct
    0.584336     0.491015     0.498011 
    0.268261     0.445130     0.533177 
    0.348843     0.426194     0.659439 
    0.562008     0.634690     0.577670 
    0.517380     0.487247     0.659534 
    0.316717     0.579842     0.591066 
    0.605697     0.407465     0.356031 
    0.422826     0.498834     0.504517 
    0.434483     0.449009     0.324381 
    0.494764     0.594853     0.389130 
    0.639823     0.655377     0.429964 
    0.723936     0.525048     0.429997 
    0.487208     0.355842     0.448935 
    0.699335     0.375622     0.499631 
    0.576601     0.328862     0.584728 
    0.713661     0.621707     0.563394 
    0.612297     0.271110     0.434695 
    0.638006     0.536826     0.639442 
    0.372614     0.362574     0.533737 
    0.295668     0.556275     0.450280 
    0.398697     0.539891     0.693850 
    0.446744     0.601196     0.627411 
    0.615900     0.548000     0.345858 
    0.318349     0.472414     0.390894 
    0.540993     0.509055     0.289304 
    0.454302     0.373971     0.597407 
    0.521834     0.702859     0.467004 
    0.440399     0.656531     0.524971 
    0.356934     0.385437     0.427070 
    0.711582     0.491704     0.574778 
    0.641733     0.433511     0.627160 
    0.369664     0.557938     0.369676 
    0.368408     0.623969     0.456858 
