EA30513 13.967 13.959 13.947 90.00 90.00 90.00 Sym.group:    0
1.0
   13.967416     0.000000     0.000000
    0.000000    13.959234     0.000000
    0.000000     0.000000    13.947457
   W   B
  11   6
Direct
    0.650606     0.529249     0.615813 
    0.351558     0.499937     0.379537 
    0.500533     0.497186     0.501028 
    0.447491     0.628115     0.620766 
    0.541350     0.609111     0.359337 
    0.674533     0.393874     0.503642 
    0.333932     0.381355     0.516791 
    0.538455     0.344390     0.596339 
    0.470969     0.326805     0.434097 
    0.594892     0.670762     0.526646 
    0.390104     0.656112     0.444252 
    0.493005     0.457721     0.336713 
    0.510656     0.489326     0.667843 
    0.341920     0.539636     0.539611 
    0.655613     0.545139     0.452028 
    0.608385     0.459710     0.378728 
    0.395995     0.471571     0.626829 
EA21045 14.356 14.210 13.542 90.00 90.00 90.00 Sym.group:    0
1.0
   14.356071     0.000000     0.000000
    0.000000    14.210318     0.000000
    0.000000     0.000000    13.541822
   W   B
  11   7
Direct
    0.441963     0.483246     0.306465 
    0.616191     0.517212     0.330233 
    0.640140     0.383081     0.442950 
    0.620234     0.632294     0.598344 
    0.324938     0.446998     0.442606 
    0.504085     0.503907     0.490326 
    0.631986     0.459788     0.622073 
    0.454659     0.338615     0.405997 
    0.462705     0.685669     0.492667 
    0.723358     0.526847     0.485586 
    0.460921     0.596270     0.652797 
    0.372186     0.479020     0.597378 
    0.408582     0.372918     0.554617 
    0.524995     0.351915     0.558889 
    0.381096     0.588303     0.407612 
    0.474718     0.431568     0.642146 
    0.357055     0.577173     0.531294 
    0.600190     0.625174     0.438017 
EA30457 14.097 13.880 14.411 90.00 90.00 90.00 Sym.group:    0
1.0
   14.097043     0.000000     0.000000
    0.000000    13.879911     0.000000
    0.000000     0.000000    14.410529
   W   B
  11   8
Direct
    0.646747     0.637044     0.563894 
    0.488661     0.630077     0.637645 
    0.620119     0.470964     0.642165 
    0.339574     0.522120     0.608714 
    0.471884     0.334679     0.572022 
    0.331377     0.509317     0.421318 
    0.612754     0.602923     0.390093 
    0.471768     0.466238     0.322552 
    0.503598     0.505070     0.508953 
    0.643851     0.347079     0.525203 
    0.447019     0.637137     0.361056 
    0.395867     0.634280     0.510519 
    0.512063     0.681321     0.494553 
    0.466057     0.465629     0.664014 
    0.335579     0.395121     0.522694 
    0.669422     0.496522     0.492620 
    0.610503     0.441901     0.400432 
    0.525624     0.352787     0.428050 
    0.407532     0.369789     0.433504 
EA30398 15.174 13.883 13.849 90.00 90.00 90.00 Sym.group:    0
1.0
   15.174370     0.000000     0.000000
    0.000000    13.882761     0.000000
    0.000000     0.000000    13.848588
   W   B
  11   9
Direct
    0.408110     0.348653     0.565456 
    0.325681     0.502715     0.529493 
    0.504059     0.504195     0.498067 
    0.534538     0.639713     0.388674 
    0.483508     0.351587     0.397814 
    0.657562     0.470769     0.598552 
    0.319800     0.353024     0.417144 
    0.376288     0.514700     0.358464 
    0.391692     0.674281     0.454946 
    0.541953     0.581202     0.675282 
    0.691361     0.538542     0.445139 
    0.425837     0.491814     0.649405 
    0.416044     0.608332     0.600468 
    0.519257     0.424800     0.647800 
    0.600053     0.459216     0.359139 
    0.559274     0.356176     0.551959 
    0.506225     0.491280     0.313962 
    0.507566     0.670575     0.548816 
    0.620335     0.396515     0.459080 
    0.610858     0.621911     0.540341 
EA30301 15.144 15.080 14.294 90.00 90.00 90.00 Sym.group:    0
1.0
   15.144357     0.000000     0.000000
    0.000000    15.079556     0.000000
    0.000000     0.000000    14.293807
   W   B
  11  10
Direct
    0.485880     0.468755     0.314538 
    0.568371     0.616753     0.386993 
    0.397992     0.600054     0.378501 
    0.486046     0.306598     0.543281 
    0.345063     0.391740     0.537785 
    0.496787     0.492804     0.501054 
    0.641114     0.374904     0.544747 
    0.472892     0.417412     0.666030 
    0.620775     0.508324     0.634657 
    0.555755     0.658277     0.572555 
    0.648518     0.478256     0.389282 
    0.461712     0.688675     0.471336 
    0.375140     0.516298     0.610429 
    0.409473     0.615328     0.544487 
    0.339335     0.531355     0.496227 
    0.366520     0.458381     0.406618 
    0.432163     0.368570     0.415515 
    0.548562     0.368739     0.417545 
    0.660399     0.582429     0.503296 
    0.469595     0.568510     0.642587 
    0.717907     0.487838     0.522538 
EA25778 14.782 13.940 13.901 90.00 90.00 90.00 Sym.group:    0
1.0
   14.781921     0.000000     0.000000
    0.000000    13.939671     0.000000
    0.000000     0.000000    13.901242
   W   B
  12   6
Direct
    0.368935     0.517059     0.624307 
    0.406806     0.656863     0.492747 
    0.276955     0.545195     0.473686 
    0.393962     0.525067     0.345051 
    0.350442     0.388050     0.485113 
    0.464420     0.366364     0.347121 
    0.542376     0.655971     0.383398 
    0.505638     0.492889     0.489740 
    0.590116     0.657983     0.552811 
    0.604343     0.361778     0.584686 
    0.542546     0.495536     0.677087 
    0.586096     0.480151     0.324088 
    0.485403     0.326916     0.507063 
    0.453975     0.384716     0.610072 
    0.471219     0.627221     0.630143 
    0.650419     0.561722     0.449155 
    0.655802     0.442030     0.461528 
    0.650547     0.514488     0.562202 
EA30459 14.107 14.480 14.139 90.00 90.00 90.00 Sym.group:    0
1.0
   14.107059     0.000000     0.000000
    0.000000    14.480392     0.000000
    0.000000     0.000000    14.138959
   W   B
  12   7
Direct
    0.383182     0.527561     0.655325 
    0.516401     0.412294     0.677798 
    0.651609     0.388915     0.553179 
    0.340692     0.521628     0.369313 
    0.502935     0.507498     0.507228 
    0.398121     0.366436     0.420752 
    0.701756     0.543725     0.511282 
    0.459228     0.648836     0.397341 
    0.467027     0.669477     0.590773 
    0.597040     0.558399     0.654786 
    0.500208     0.470341     0.320049 
    0.601065     0.688601     0.483285 
    0.330996     0.473892     0.517249 
    0.501843     0.344008     0.535523 
    0.400433     0.396016     0.574047 
    0.601581     0.569705     0.387724 
    0.631032     0.456475     0.408246 
    0.556402     0.364510     0.428748 
    0.358450     0.591683     0.507352 
EA19585 15.401 13.988 13.753 90.00 90.00 90.00 Sym.group:    0
1.0
   15.400867     0.000000     0.000000
    0.000000    13.988451     0.000000
    0.000000     0.000000    13.752858
   W   B
  12   8
Direct
    0.523947     0.672471     0.393129 
    0.408963     0.640426     0.537863 
    0.603968     0.529337     0.322175 
    0.409252     0.550390     0.358601 
    0.680025     0.614282     0.444519 
    0.522425     0.499979     0.490442 
    0.651412     0.527675     0.617335 
    0.424992     0.367959     0.564269 
    0.683395     0.433846     0.480871 
    0.276665     0.580993     0.453882 
    0.291476     0.409942     0.448542 
    0.437610     0.370127     0.385804 
    0.334475     0.496750     0.569157 
    0.580227     0.382427     0.377316 
    0.515491     0.582686     0.638716 
    0.582666     0.381945     0.596033 
    0.426509     0.513166     0.628259 
    0.566591     0.648638     0.547576 
    0.522294     0.461173     0.658064 
    0.557615     0.335789     0.487448 
EA30307 14.671 14.463 14.380 90.00 90.00 90.00 Sym.group:    0
1.0
   14.671284     0.000000     0.000000
    0.000000    14.462867     0.000000
    0.000000     0.000000    14.379972
   W   B
  12   9
Direct
    0.631550     0.484955     0.370532 
    0.606701     0.454932     0.628622 
    0.348460     0.378193     0.540184 
    0.609013     0.340422     0.474307 
    0.437987     0.421603     0.684176 
    0.468329     0.525624     0.316755 
    0.315031     0.538450     0.587506 
    0.326958     0.547993     0.422401 
    0.490924     0.496643     0.507023 
    0.535822     0.691808     0.532036 
    0.468919     0.592208     0.664034 
    0.674870     0.591214     0.499617 
    0.698937     0.446940     0.507431 
    0.513887     0.389329     0.365547 
    0.462931     0.335794     0.457032 
    0.498589     0.342208     0.573527 
    0.396144     0.645019     0.524259 
    0.446605     0.640051     0.416806 
    0.559035     0.618264     0.400572 
    0.609928     0.604080     0.632109 
    0.399382     0.414277     0.395527 
EA30241 15.392 14.864 14.057 90.00 90.00 90.00 Sym.group:    0
1.0
   15.391816     0.000000     0.000000
    0.000000    14.864427     0.000000
    0.000000     0.000000    14.057272
   W   B
  12  10
Direct
    0.608630     0.604284     0.371111 
    0.432169     0.575186     0.369800 
    0.424964     0.652955     0.540664 
    0.322692     0.451828     0.433817 
    0.558887     0.340396     0.400734 
    0.506260     0.487543     0.504356 
    0.683610     0.449205     0.393989 
    0.549943     0.595121     0.653583 
    0.643837     0.378232     0.550662 
    0.673499     0.555234     0.529748 
    0.516544     0.425112     0.683936 
    0.372831     0.397580     0.595099 
    0.507119     0.689247     0.423007 
    0.445164     0.424090     0.358039 
    0.331134     0.536951     0.565807 
    0.428299     0.354273     0.459514 
    0.416981     0.532477     0.642021 
    0.640718     0.481935     0.659419 
    0.543550     0.477344     0.335090 
    0.501322     0.336618     0.551476 
    0.573509     0.662892     0.513176 
    0.318338     0.591494     0.464952 
EA30460 14.413 14.658 14.281 90.00 90.00 90.00 Sym.group:    0
1.0
   14.413451     0.000000     0.000000
    0.000000    14.658002     0.000000
    0.000000     0.000000    14.281017
   W   B
  13   6
Direct
    0.400586     0.396192     0.624619 
    0.425074     0.567441     0.669582 
    0.528972     0.671894     0.563111 
    0.420487     0.423526     0.342539 
    0.499090     0.500447     0.498153 
    0.328863     0.553937     0.406972 
    0.464281     0.657054     0.397152 
    0.679477     0.582891     0.566655 
    0.604395     0.371692     0.406600 
    0.560645     0.330038     0.596034 
    0.580004     0.492170     0.667640 
    0.562075     0.519384     0.317289 
    0.454630     0.307328     0.471880 
    0.349233     0.423620     0.483691 
    0.386242     0.623169     0.528237 
    0.341232     0.517998     0.553751 
    0.654047     0.437998     0.532859 
    0.656260     0.509377     0.436284 
    0.604405     0.613844     0.436953 
EA20942 15.205 14.248 14.276 90.00 90.00 90.00 Sym.group:    0
1.0
   15.205375     0.000000     0.000000
    0.000000    14.247915     0.000000
    0.000000     0.000000    14.275536
   W   B
  13   7
Direct
    0.337082     0.443523     0.425636 
    0.479293     0.449345     0.677139 
    0.499976     0.505653     0.489882 
    0.587275     0.335390     0.439464 
    0.481427     0.423727     0.320897 
    0.343917     0.529596     0.597868 
    0.400674     0.670665     0.523342 
    0.613801     0.534888     0.639974 
    0.637111     0.477141     0.358886 
    0.576444     0.635849     0.372673 
    0.698706     0.607194     0.481033 
    0.573059     0.681257     0.545869 
    0.411464     0.586352     0.358516 
    0.301622     0.587432     0.462420 
    0.592942     0.392359     0.586637 
    0.393883     0.392034     0.554991 
    0.445260     0.348380     0.454460 
    0.496076     0.346512     0.562445 
    0.476283     0.595181     0.635467 
    0.653702     0.457520     0.512400 
EA30310 15.323 14.970 14.241 90.00 90.00 90.00 Sym.group:    0
1.0
   15.323314     0.000000     0.000000
    0.000000    14.970209     0.000000
    0.000000     0.000000    14.240712
   W   B
  13   8
Direct
    0.484038     0.505991     0.504241 
    0.499812     0.343448     0.560862 
    0.724193     0.490209     0.544575 
    0.689987     0.454048     0.386177 
    0.491748     0.509223     0.691434 
    0.387490     0.445633     0.352553 
    0.503663     0.660002     0.593683 
    0.505253     0.698994     0.427038 
    0.639046     0.612408     0.475148 
    0.355873     0.562346     0.617185 
    0.553148     0.549550     0.342086 
    0.541869     0.374905     0.384471 
    0.325583     0.402551     0.500029 
    0.599397     0.434699     0.612671 
    0.628378     0.386859     0.506637 
    0.419740     0.320493     0.433635 
    0.397433     0.423162     0.625873 
    0.414934     0.588905     0.381827 
    0.392763     0.639594     0.491169 
    0.339617     0.545142     0.459750 
    0.606035     0.551839     0.608955 
EA30242 15.201 14.752 14.177 90.00 90.00 90.00 Sym.group:    0
1.0
   15.201128     0.000000     0.000000
    0.000000    14.752343     0.000000
    0.000000     0.000000    14.176864
   W   B
  13   9
Direct
    0.494450     0.655807     0.375703 
    0.627244     0.530902     0.389190 
    0.631592     0.574904     0.568360 
    0.391238     0.400500     0.356052 
    0.476715     0.499431     0.496693 
    0.357377     0.560883     0.365934 
    0.481302     0.603713     0.660349 
    0.300459     0.468333     0.518444 
    0.358402     0.643509     0.526295 
    0.423190     0.422485     0.662039 
    0.558536     0.356314     0.580856 
    0.511090     0.713706     0.535770 
    0.382254     0.329071     0.524144 
    0.621643     0.664267     0.444411 
    0.534062     0.417194     0.351729 
    0.660360     0.445161     0.627893 
    0.501804     0.341282     0.436454 
    0.563048     0.478534     0.673186 
    0.354618     0.545265     0.634086 
    0.494423     0.517891     0.321612 
    0.672356     0.440600     0.512379 
    0.603837     0.390250     0.438422 
EA16009 15.501 15.116 13.946 90.00 90.00 90.00 Sym.group:    0
1.0
   15.501497     0.000000     0.000000
    0.000000    15.115607     0.000000
    0.000000     0.000000    13.945987
   W   B
  13  10
Direct
    0.574221     0.655230     0.427009 
    0.616429     0.397710     0.418464 
    0.589034     0.377117     0.604446 
    0.688958     0.611783     0.561912 
    0.722559     0.457043     0.540251 
    0.487503     0.506524     0.502784 
    0.425476     0.330244     0.571917 
    0.449577     0.592756     0.332696 
    0.400550     0.695971     0.453629 
    0.511431     0.669384     0.589895 
    0.318960     0.545839     0.457726 
    0.336735     0.470626     0.613009 
    0.589261     0.534625     0.664572 
    0.658718     0.537510     0.429967 
    0.532588     0.301253     0.483233 
    0.578870     0.526093     0.350593 
    0.471188     0.444465     0.658060 
    0.444937     0.555700     0.663565 
    0.396085     0.456838     0.366419 
    0.361017     0.406895     0.468208 
    0.382872     0.609015     0.580685 
    0.461972     0.368058     0.420966 
    0.501060     0.449319     0.339994 
EA30400 14.938 15.023 14.304 90.00 90.00 90.00 Sym.group:    0
1.0
   14.938190     0.000000     0.000000
    0.000000    15.022706     0.000000
    0.000000     0.000000    14.304485
   W   B
  14   6
Direct
    0.521756     0.394474     0.339841 
    0.506174     0.562029     0.327387 
    0.339985     0.475090     0.634836 
    0.369765     0.460435     0.350500 
    0.352590     0.368991     0.497378 
    0.499335     0.498309     0.499997 
    0.608432     0.395168     0.613183 
    0.485532     0.525494     0.681149 
    0.718869     0.487057     0.507969 
    0.626470     0.624535     0.456395 
    0.482942     0.696794     0.446613 
    0.382465     0.628167     0.568043 
    0.506268     0.311697     0.495569 
    0.646611     0.558707     0.633974 
    0.457641     0.389957     0.615703 
    0.332086     0.515595     0.487431 
    0.386138     0.589798     0.416829 
    0.622306     0.391217     0.456261 
    0.623965     0.490493     0.391026 
    0.530667     0.635994     0.579913 
EA27646 14.702 14.339 14.088 90.00 90.00 90.00 Sym.group:    0
1.0
   14.701789     0.000000     0.000000
    0.000000    14.338978     0.000000
    0.000000     0.000000    14.087794
   W   B
  14   7
Direct
    0.563857     0.317634     0.514517 
    0.587649     0.403402     0.351125 
    0.514427     0.507224     0.497586 
    0.624269     0.661116     0.482639 
    0.429729     0.486453     0.319552 
    0.433246     0.665283     0.414906 
    0.296562     0.561794     0.410865 
    0.320708     0.625782     0.567371 
    0.488612     0.688220     0.581098 
    0.405086     0.351898     0.571863 
    0.519860     0.382851     0.690322 
    0.561212     0.595148     0.327024 
    0.412786     0.511909     0.667989 
    0.577373     0.563445     0.662866 
    0.661588     0.424982     0.481982 
    0.630526     0.430509     0.597127 
    0.661472     0.522554     0.418529 
    0.456258     0.365173     0.416877 
    0.670413     0.529173     0.541593 
    0.360539     0.426189     0.441947 
    0.323831     0.479264     0.542220 
EA16394 15.608 15.047 14.037 90.00 90.00 90.00 Sym.group:    0
1.0
   15.607771     0.000000     0.000000
    0.000000    15.047230     0.000000
    0.000000     0.000000    14.036602
   W   B
  14   8
Direct
    0.607137     0.402299     0.371736 
    0.433615     0.424183     0.370128 
    0.427285     0.347747     0.537657 
    0.324289     0.553033     0.440804 
    0.554099     0.661531     0.397377 
    0.510461     0.511974     0.505294 
    0.676182     0.554674     0.384829 
    0.550871     0.398258     0.655332 
    0.641685     0.616110     0.546353 
    0.670785     0.438627     0.530779 
    0.512763     0.570468     0.687264 
    0.597128     0.289055     0.538118 
    0.375045     0.603982     0.596145 
    0.408161     0.694421     0.443907 
    0.511115     0.314619     0.421660 
    0.442907     0.574190     0.357873 
    0.336309     0.461881     0.566683 
    0.420927     0.465096     0.640477 
    0.634112     0.516754     0.656610 
    0.540281     0.525745     0.333121 
    0.504344     0.663499     0.555462 
    0.320499     0.411853     0.462390 
EA16010 15.119 14.918 14.049 90.00 90.00 90.00 Sym.group:    0
1.0
   15.118634     0.000000     0.000000
    0.000000    14.918338     0.000000
    0.000000     0.000000    14.048624
   W   B
  14   9
Direct
    0.641452     0.373770     0.477342 
    0.721203     0.499694     0.569696 
    0.644838     0.633757     0.496586 
    0.491473     0.493384     0.506798 
    0.375962     0.659523     0.509776 
    0.506218     0.338769     0.382503 
    0.492398     0.275506     0.544842 
    0.584598     0.399559     0.642680 
    0.358781     0.355404     0.500233 
    0.339871     0.499350     0.624196 
    0.593959     0.569329     0.656202 
    0.459064     0.519672     0.313129 
    0.325435     0.517948     0.444666 
    0.434497     0.624568     0.676189 
    0.662431     0.506934     0.428997 
    0.498154     0.635258     0.417934 
    0.586193     0.456961     0.357447 
    0.473209     0.484851     0.682012 
    0.385010     0.407533     0.357974 
    0.438254     0.389647     0.627844 
    0.393471     0.636115     0.361730 
    0.582127     0.569900     0.376422 
    0.511399     0.652571     0.544801 
EA30196 16.612 15.068 13.909 90.00 90.00 90.00 Sym.group:    0
1.0
   16.612061     0.000000     0.000000
    0.000000    15.067933     0.000000
    0.000000     0.000000    13.908726
   W   B
  14  10
Direct
    0.449307     0.529651     0.666734 
    0.639821     0.405453     0.561181 
    0.414218     0.681395     0.579243 
    0.557790     0.634752     0.555545 
    0.714153     0.552130     0.591399 
    0.730795     0.508430     0.435247 
    0.352187     0.421414     0.582231 
    0.366331     0.457935     0.399737 
    0.483955     0.323583     0.611507 
    0.548314     0.288555     0.468373 
    0.496636     0.479409     0.502718 
    0.336662     0.624760     0.440154 
    0.576286     0.587338     0.372727 
    0.609161     0.423197     0.377792 
    0.548965     0.431338     0.671396 
    0.592511     0.525799     0.645993 
    0.671189     0.628582     0.471721 
    0.488888     0.477922     0.327550 
    0.420370     0.340388     0.471074 
    0.468258     0.648415     0.439441 
    0.441642     0.573036     0.355051 
    0.281786     0.515476     0.509043 
    0.475888     0.373450     0.371735 
    0.334889     0.567592     0.592407 
EA30312 15.484 14.689 14.057 90.00 90.00 90.00 Sym.group:    0
1.0
   15.483722     0.000000     0.000000
    0.000000    14.688578     0.000000
    0.000000     0.000000    14.056761
   W   B
  15   6
Direct
    0.650072     0.598539     0.472779 
    0.576637     0.594795     0.635078 
    0.431775     0.496270     0.677768 
    0.485995     0.503007     0.500584 
    0.584425     0.458725     0.368349 
    0.624450     0.361311     0.519483 
    0.327210     0.505507     0.416521 
    0.467510     0.337018     0.585599 
    0.741267     0.460861     0.457018 
    0.505796     0.303223     0.420175 
    0.404973     0.657441     0.432466 
    0.318395     0.419115     0.594308 
    0.308538     0.580014     0.572664 
    0.709099     0.491114     0.617202 
    0.544705     0.648713     0.351828 
    0.443491     0.633309     0.583233 
    0.453799     0.536493     0.337852 
    0.439765     0.424571     0.360148 
    0.526803     0.668358     0.508374 
    0.568469     0.446192     0.631033 
    0.386827     0.375421     0.457538 
EA17081 15.678 14.664 13.984 90.00 90.00 90.00 Sym.group:    0
1.0
   15.677991     0.000000     0.000000
    0.000000    14.663883     0.000000
    0.000000     0.000000    13.984350
   W   B
  15   7
Direct
    0.554699     0.362066     0.389671 
    0.692349     0.478814     0.454383 
    0.500281     0.633705     0.336742 
    0.648976     0.637590     0.388101 
    0.502194     0.677115     0.507372 
    0.529093     0.507699     0.509903 
    0.381652     0.560668     0.435563 
    0.388854     0.413929     0.569112 
    0.362373     0.402673     0.367676 
    0.423252     0.562688     0.653472 
    0.541147     0.411178     0.674270 
    0.645467     0.348623     0.542169 
    0.661107     0.629520     0.558826 
    0.278637     0.554427     0.588981 
    0.578164     0.570898     0.698976 
    0.479472     0.483969     0.345389 
    0.587276     0.506438     0.350189 
    0.282254     0.457732     0.472775 
    0.364966     0.663124     0.556472 
    0.507033     0.336869     0.537137 
    0.433721     0.318883     0.452379 
    0.657033     0.481388     0.610444 
EA20420 15.826 15.029 14.224 90.00 90.00 90.00 Sym.group:    0
1.0
   15.825721     0.000000     0.000000
    0.000000    15.028529     0.000000
    0.000000     0.000000    14.223929
   W   B
  15   8
Direct
    0.620219     0.455053     0.354320 
    0.624828     0.615689     0.437794 
    0.277585     0.603313     0.539804 
    0.429581     0.636430     0.546818 
    0.384297     0.558392     0.394803 
    0.385991     0.387934     0.407296 
    0.509135     0.483194     0.503400 
    0.365515     0.358156     0.583398 
    0.533831     0.539249     0.682821 
    0.369355     0.504385     0.649924 
    0.627023     0.343882     0.507340 
    0.520194     0.374041     0.653647 
    0.525572     0.332008     0.355854 
    0.262833     0.455730     0.495975 
    0.663563     0.431742     0.646566 
    0.666840     0.482617     0.500186 
    0.481548     0.467136     0.326315 
    0.637005     0.562084     0.580392 
    0.525196     0.567274     0.346128 
    0.569551     0.647903     0.581340 
    0.492972     0.656181     0.405904 
    0.539538     0.711710     0.492624 
    0.487823     0.325898     0.507355 
EA30197 15.816 14.848 14.066 90.00 90.00 90.00 Sym.group:    0
1.0
   15.816437     0.000000     0.000000
    0.000000    14.848167     0.000000
    0.000000     0.000000    14.065631
   W   B
  15   9
Direct
    0.415785     0.562534     0.649465 
    0.411559     0.509396     0.363812 
    0.444299     0.693768     0.400347 
    0.589011     0.678217     0.464873 
    0.283873     0.480055     0.608445 
    0.583625     0.610675     0.636370 
    0.535104     0.498598     0.509544 
    0.565117     0.426071     0.347048 
    0.522423     0.314048     0.474944 
    0.667975     0.370361     0.515430 
    0.339320     0.363683     0.457074 
    0.426735     0.387852     0.612108 
    0.339594     0.628450     0.502132 
    0.700235     0.557206     0.527919 
    0.428500     0.339955     0.324055 
    0.634747     0.559913     0.390317 
    0.471812     0.667161     0.551008 
    0.534196     0.579374     0.360714 
    0.392157     0.491490     0.511368 
    0.688668     0.465657     0.409417 
    0.635469     0.466669     0.632418 
    0.533217     0.472628     0.675626 
    0.288870     0.499838     0.454449 
    0.567710     0.376399     0.621114 
EA30193 15.758 15.758 15.376 90.00 90.00 90.00 Sym.group:    0
1.0
   15.757516     0.000000     0.000000
    0.000000    15.757516     0.000000
    0.000000     0.000000    15.375534
   W   B
  15  10
Direct
    0.513575     0.499904     0.500312 
    0.672159     0.582324     0.553561 
    0.434747     0.547609     0.651366 
    0.346933     0.556378     0.429679 
    0.553760     0.591575     0.314705 
    0.427401     0.666210     0.525279 
    0.341659     0.442703     0.559785 
    0.564999     0.332325     0.554367 
    0.681115     0.449156     0.623524 
    0.676754     0.417388     0.458381 
    0.690755     0.549868     0.388362 
    0.541225     0.408973     0.689175 
    0.444794     0.451977     0.343657 
    0.429656     0.333710     0.470370 
    0.568111     0.668386     0.450657 
    0.332395     0.418051     0.417044 
    0.327440     0.580986     0.571460 
    0.550489     0.375824     0.409557 
    0.406590     0.417264     0.682290 
    0.543483     0.624847     0.593587 
    0.575572     0.538806     0.652426 
    0.432835     0.341176     0.611387 
    0.418426     0.583615     0.311747 
    0.439535     0.659018     0.384557 
    0.585591     0.461928     0.352764 
