EA6    15.650 15.650 15.650 90.00 90.00 90.00 Sym.group:    0
1.0
   15.650328     0.000000     0.000000
    0.000000    15.650328     0.000000
    0.000000     0.000000    15.650328
   W   B
  15  10
Direct
    0.497139     0.514117     0.508026 
    0.536765     0.337359     0.612072 
    0.464135     0.496728     0.304356 
    0.575867     0.620947     0.364022 
    0.423715     0.460213     0.677693 
    0.461103     0.619529     0.637532 
    0.688606     0.590105     0.472721 
    0.571553     0.319576     0.456388 
    0.644655     0.438754     0.532577 
    0.538947     0.680307     0.509779 
    0.354679     0.486966     0.428640 
    0.426888     0.355895     0.380230 
    0.318160     0.530192     0.592168 
    0.424616     0.644230     0.383024 
    0.574315     0.491364     0.682240 
    0.402478     0.339288     0.610179 
    0.598426     0.493162     0.308278 
    0.556153     0.404876     0.352243 
    0.343193     0.397749     0.542831 
    0.402475     0.682708     0.518409 
    0.331583     0.612459     0.483893 
    0.441407     0.324122     0.511596 
    0.669656     0.556632     0.602186 
    0.596321     0.624972     0.633809 
    0.657164     0.477750     0.395109 
EA553  13.613 15.354 15.487 90.00 90.00 90.00 Sym.group:    0
1.0
   13.612658     0.000000     0.000000
    0.000000    15.353830     0.000000
    0.000000     0.000000    15.487052
   W   B
  13   8
Direct
    0.504885     0.515773     0.485033 
    0.606416     0.601346     0.369473 
    0.646646     0.442857     0.394245 
    0.346675     0.458752     0.395485 
    0.406744     0.609608     0.369516 
    0.397505     0.408106     0.623357 
    0.587499     0.394447     0.619628 
    0.637965     0.550348     0.622697 
    0.367995     0.564930     0.622936 
    0.416695     0.691048     0.502877 
    0.269520     0.603057     0.491034 
    0.739933     0.581997     0.492403 
    0.605286     0.684347     0.502539 
    0.663898     0.356126     0.506513 
    0.697100     0.455608     0.529327 
    0.432610     0.357592     0.477541 
    0.551000     0.351553     0.476043 
    0.298239     0.474883     0.530134 
    0.321549     0.372912     0.509010 
    0.508412     0.625745     0.595825 
    0.493428     0.398963     0.384384 
EA771  16.522 16.522 12.049 90.00 90.00 90.00 Sym.group:    0
1.0
   16.522192     0.000000     0.000000
    0.000000    16.522192     0.000000
    0.000000     0.000000    12.049400
   W   B
  13  10
Direct
    0.454018     0.384207     0.400499 
    0.606725     0.449815     0.401139 
    0.552670     0.610134     0.402898 
    0.390096     0.544603     0.402583 
    0.387833     0.449346     0.595636 
    0.545505     0.386505     0.597737 
    0.610104     0.548007     0.595117 
    0.449377     0.610173     0.597082 
    0.282871     0.452679     0.445838 
    0.551363     0.283750     0.444456 
    0.716420     0.548519     0.448135 
    0.452545     0.714421     0.453328 
    0.669147     0.684016     0.472642 
    0.655105     0.346000     0.500938 
    0.344692     0.345333     0.494416 
    0.344343     0.653377     0.496037 
    0.319614     0.565574     0.561265 
    0.431141     0.318219     0.558892 
    0.675461     0.433569     0.564287 
    0.563020     0.679238     0.571641 
    0.499628     0.497690     0.323918 
    0.499176     0.497987     0.664980 
    0.499146     0.496838     0.506534 
EA1110 15.741 15.843 14.770 90.00 90.00 90.00 Sym.group:    0
1.0
   15.740603     0.000000     0.000000
    0.000000    15.843462     0.000000
    0.000000     0.000000    14.770221
   W   B
  13  10
Direct
    0.510274     0.350011     0.472128 
    0.610601     0.655262     0.516171 
    0.513102     0.601568     0.648764 
    0.557021     0.428102     0.627690 
    0.473864     0.512760     0.507269 
    0.532844     0.450834     0.336212 
    0.367206     0.636377     0.409525 
    0.341500     0.587546     0.577075 
    0.415241     0.487071     0.695733 
    0.298829     0.441030     0.593765 
    0.526791     0.610384     0.381853 
    0.448112     0.702005     0.524965 
    0.719651     0.559345     0.473798 
    0.426778     0.382645     0.589815 
    0.631455     0.538023     0.588610 
    0.637689     0.418547     0.431572 
    0.409452     0.516701     0.356252 
    0.374406     0.390632     0.489361 
    0.408734     0.415222     0.386711 
    0.678094     0.451307     0.544041 
    0.339516     0.492726     0.450764 
    0.644356     0.513003     0.371464 
    0.634483     0.358902     0.526463 
EA1580 15.791 14.102 14.185 90.00 90.00 90.00 Sym.group:    0
1.0
   15.790653     0.000000     0.000000
    0.000000    14.102104     0.000000
    0.000000     0.000000    14.185313
   W   B
  15   6
Direct
    0.364441     0.660676     0.608582 
    0.316071     0.358059     0.573660 
    0.315670     0.381108     0.403154 
    0.451230     0.310594     0.504585 
    0.506442     0.595434     0.654377 
    0.458077     0.420753     0.660280 
    0.468885     0.413942     0.353125 
    0.619670     0.482994     0.323906 
    0.350311     0.544797     0.346345 
    0.671603     0.562445     0.589685 
    0.605641     0.325116     0.445627 
    0.717550     0.472634     0.446543 
    0.550906     0.478575     0.507497 
    0.498046     0.604972     0.381198 
    0.383275     0.514567     0.522615 
    0.591825     0.453137     0.658350 
    0.565051     0.342261     0.593665 
    0.379742     0.662411     0.457497 
    0.576971     0.646361     0.517661 
    0.636753     0.599298     0.430574 
    0.471840     0.669865     0.521076 
EA2019 14.236 14.737 14.605 90.00 90.00 90.00 Sym.group:    0
1.0
   14.235843     0.000000     0.000000
    0.000000    14.737399     0.000000
    0.000000     0.000000    14.604639
   W   B
  11   8
Direct
    0.515458     0.494657     0.507672 
    0.655000     0.385202     0.592716 
    0.691850     0.437448     0.442960 
    0.374365     0.375068     0.543850 
    0.405053     0.417083     0.377602 
    0.660185     0.592265     0.423168 
    0.330274     0.554257     0.571594 
    0.369160     0.584530     0.405413 
    0.251699     0.464973     0.450919 
    0.596384     0.654439     0.565133 
    0.534121     0.321156     0.483352 
    0.669226     0.529182     0.562029 
    0.508960     0.386520     0.624126 
    0.513049     0.632333     0.426429 
    0.555253     0.426304     0.364503 
    0.470134     0.589780     0.628397 
    0.446183     0.642089     0.525029 
    0.439779     0.476535     0.645094 
    0.513869     0.536176     0.360015 
EA2164 15.176 13.628 14.894 90.00 90.00 90.00 Sym.group:    0
1.0
   15.175667     0.000000     0.000000
    0.000000    13.627559     0.000000
    0.000000     0.000000    14.893795
   W   B
  13   9
Direct
    0.663833     0.622492     0.518946 
    0.436967     0.435770     0.652180 
    0.364717     0.330748     0.508396 
    0.511208     0.500134     0.492311 
    0.634431     0.334869     0.492135 
    0.331377     0.524488     0.531289 
    0.568150     0.549494     0.662163 
    0.408696     0.692410     0.487170 
    0.697198     0.477488     0.421529 
    0.463570     0.624251     0.345506 
    0.551563     0.440619     0.333123 
    0.382474     0.451903     0.377881 
    0.492447     0.295292     0.408897 
    0.440598     0.595222     0.606907 
    0.304979     0.397676     0.619208 
    0.500369     0.330435     0.557844 
    0.579568     0.397840     0.614833 
    0.527430     0.660051     0.563963 
    0.656230     0.472069     0.567034 
    0.332721     0.598670     0.400534 
    0.551692     0.677659     0.451730 
    0.599781     0.590420     0.386420 
EA2517 14.463 15.254 14.606 90.00 90.00 90.00 Sym.group:    0
1.0
   14.462857     0.000000     0.000000
    0.000000    15.253855     0.000000
    0.000000     0.000000    14.606364
   W   B
  14   8
Direct
    0.609768     0.361654     0.472648 
    0.443246     0.317205     0.470197 
    0.665305     0.508829     0.420620 
    0.598346     0.417112     0.641221 
    0.747130     0.428900     0.554636 
    0.670688     0.569337     0.587831 
    0.356781     0.647590     0.542804 
    0.542179     0.589615     0.334475 
    0.497698     0.510235     0.505260 
    0.518461     0.672211     0.596310 
    0.631994     0.673911     0.460303 
    0.388156     0.523456     0.640815 
    0.364028     0.590522     0.377749 
    0.349704     0.432539     0.383732 
    0.445999     0.386506     0.605395 
    0.523363     0.304619     0.589607 
    0.516422     0.433050     0.368319 
    0.536591     0.549990     0.664484 
    0.478206     0.660095     0.447731 
    0.311776     0.511488     0.504353 
    0.358825     0.417006     0.535872 
    0.445337     0.494132     0.295639 
EA2940 15.653 13.816 13.488 90.00 90.00 90.00 Sym.group:    0
1.0
   15.653225     0.000000     0.000000
    0.000000    13.816088     0.000000
    0.000000     0.000000    13.487658
   W   B
  12   9
Direct
    0.463257     0.496781     0.504481 
    0.382842     0.664630     0.415045 
    0.340492     0.408998     0.636633 
    0.305129     0.553836     0.528578 
    0.341862     0.369217     0.465408 
    0.551556     0.646962     0.452244 
    0.582675     0.499826     0.344713 
    0.539289     0.343089     0.448942 
    0.554880     0.408748     0.640668 
    0.543219     0.589212     0.645957 
    0.674549     0.659911     0.564985 
    0.712943     0.535756     0.447789 
    0.453344     0.552617     0.338690 
    0.399526     0.556365     0.649812 
    0.359534     0.506172     0.381010 
    0.422859     0.647455     0.565465 
    0.664486     0.390624     0.413442 
    0.657289     0.400671     0.534934 
    0.659318     0.507409     0.596609 
    0.446120     0.425721     0.352731 
    0.444831     0.335998     0.571864 
EA3265 15.453 14.022 13.735 90.00 90.00 90.00 Sym.group:    0
1.0
   15.452606     0.000000     0.000000
    0.000000    14.021666     0.000000
    0.000000     0.000000    13.735014
   W   B
  14   7
Direct
    0.478261     0.495304     0.493682 
    0.349283     0.647737     0.504624 
    0.515335     0.681543     0.525876 
    0.506174     0.346990     0.618075 
    0.566811     0.555597     0.638537 
    0.381858     0.410460     0.354740 
    0.385494     0.580757     0.345059 
    0.561593     0.444773     0.344410 
    0.266022     0.499018     0.459173 
    0.351528     0.377984     0.557839 
    0.701061     0.557127     0.388520 
    0.460584     0.283366     0.458340 
    0.555263     0.625627     0.359246 
    0.671386     0.665464     0.513917 
    0.342358     0.526564     0.596023 
    0.426050     0.595877     0.629367 
    0.685106     0.516659     0.543818 
    0.619051     0.428594     0.573686 
    0.430030     0.477009     0.659696 
    0.582649     0.353983     0.479284 
    0.664102     0.429564     0.456091 
EA3459 14.475 15.288 15.631 90.00 90.00 90.00 Sym.group:    0
1.0
   14.474800     0.000000     0.000000
    0.000000    15.288211     0.000000
    0.000000     0.000000    15.630817
   W   B
  15  10
Direct
    0.611166     0.447002     0.595872 
    0.591265     0.283446     0.544317 
    0.711298     0.360585     0.472160 
    0.344305     0.351106     0.512305 
    0.476273     0.523355     0.516385 
    0.397776     0.617616     0.656130 
    0.402256     0.442853     0.667247 
    0.526510     0.381111     0.431244 
    0.262048     0.432307     0.413279 
    0.295963     0.527416     0.567886 
    0.651005     0.604606     0.507704 
    0.381450     0.681549     0.507523 
    0.407764     0.486978     0.342377 
    0.576805     0.555834     0.368852 
    0.428320     0.649181     0.357008 
    0.512570     0.526294     0.682835 
    0.388601     0.351998     0.384295 
    0.477715     0.370959     0.575349 
    0.528434     0.669981     0.456962 
    0.518751     0.665298     0.564845 
    0.338754     0.560859     0.439934 
    0.650904     0.428484     0.364163 
    0.708244     0.503868     0.421175 
    0.734754     0.484952     0.523721 
    0.577068     0.592363     0.626435 
EA4035 15.325 14.615 14.092 90.00 90.00 90.00 Sym.group:    0
1.0
   15.325275     0.000000     0.000000
    0.000000    14.614607     0.000000
    0.000000     0.000000    14.092195
   W   B
  13   7
Direct
    0.491904     0.499727     0.497509 
    0.457683     0.354827     0.348934 
    0.431630     0.531564     0.329201 
    0.470711     0.401232     0.650982 
    0.334023     0.457354     0.581346 
    0.722143     0.547551     0.388233 
    0.642740     0.592219     0.562139 
    0.572125     0.348205     0.495597 
    0.593400     0.454766     0.349215 
    0.573521     0.628844     0.412996 
    0.326538     0.411619     0.402393 
    0.502545     0.667086     0.593640 
    0.720604     0.429058     0.497015 
    0.349387     0.554033     0.455717 
    0.377570     0.597891     0.562281 
    0.420948     0.352052     0.507646 
    0.542290     0.532123     0.654673 
    0.608538     0.452005     0.600015 
    0.432254     0.549420     0.654600 
    0.429445     0.638421     0.455871 
EA4466 15.588 14.215 13.725 90.00 90.00 90.00 Sym.group:    0
1.0
   15.588200     0.000000     0.000000
    0.000000    14.215043     0.000000
    0.000000     0.000000    13.725144
   W   B
  12   6
Direct
    0.639850     0.579770     0.564169 
    0.594082     0.345554     0.460511 
    0.622854     0.509155     0.386548 
    0.715020     0.427077     0.532232 
    0.588456     0.416310     0.641533 
    0.490544     0.483063     0.511300 
    0.341225     0.425425     0.567672 
    0.393376     0.563118     0.660000 
    0.430286     0.331453     0.423929 
    0.474615     0.475548     0.317341 
    0.477316     0.660919     0.536417 
    0.464348     0.305674     0.591189 
    0.528386     0.565440     0.656596 
    0.594843     0.655243     0.440096 
    0.358593     0.571398     0.508836 
    0.513117     0.613894     0.377965 
    0.412052     0.588955     0.404376 
    0.361035     0.482003     0.419292 
EA4522 15.467 15.643 14.739 90.00 90.00 90.00 Sym.group:    0
1.0
   15.466902     0.000000     0.000000
    0.000000    15.642672     0.000000
    0.000000     0.000000    14.738925
   W   B
  13  10
Direct
    0.266124     0.524303     0.501363 
    0.386499     0.434865     0.616393 
    0.439432     0.347196     0.480359 
    0.273849     0.376904     0.510367 
    0.557456     0.365291     0.627823 
    0.512457     0.493580     0.706963 
    0.516667     0.497179     0.505937 
    0.650966     0.503069     0.591554 
    0.566454     0.370235     0.374967 
    0.564322     0.529197     0.334009 
    0.393351     0.583513     0.405887 
    0.396599     0.595206     0.582095 
    0.549375     0.666170     0.403870 
    0.548114     0.602404     0.625320 
    0.515334     0.676009     0.547984 
    0.611941     0.630715     0.532592 
    0.573723     0.298257     0.500630 
    0.650234     0.569279     0.447723 
    0.643131     0.380275     0.504465 
    0.446555     0.450392     0.369308 
    0.432178     0.695105     0.481101 
    0.657677     0.464077     0.436249 
    0.347565     0.446779     0.413041 
EA5026 14.710 14.221 14.510 90.00 90.00 90.00 Sym.group:    0
1.0
   14.709733     0.000000     0.000000
    0.000000    14.220676     0.000000
    0.000000     0.000000    14.510121
   W   B
  11   9
Direct
    0.496539     0.498805     0.490883 
    0.675245     0.438247     0.512355 
    0.443799     0.328431     0.412862 
    0.623428     0.369446     0.363345 
    0.320596     0.483455     0.604426 
    0.584406     0.580925     0.626192 
    0.478779     0.463381     0.314653 
    0.626967     0.537432     0.363707 
    0.474342     0.436668     0.668114 
    0.323726     0.447991     0.447014 
    0.547184     0.329198     0.555824 
    0.394445     0.362414     0.557765 
    0.427481     0.586807     0.612166 
    0.572651     0.647774     0.475602 
    0.477822     0.656194     0.537274 
    0.664080     0.587187     0.504074 
    0.619986     0.436213     0.652266 
    0.480609     0.638635     0.410139 
    0.376472     0.599124     0.504100 
    0.391442     0.571669     0.387239 
EA5189 15.501 15.116 13.946 90.00 90.00 90.00 Sym.group:    0
1.0
   15.501497     0.000000     0.000000
    0.000000    15.115607     0.000000
    0.000000     0.000000    13.945987
   W   B
  13  10
Direct
    0.574221     0.655230     0.427009 
    0.616429     0.397710     0.418464 
    0.589034     0.377117     0.604446 
    0.688958     0.611783     0.561912 
    0.722559     0.457043     0.540251 
    0.487503     0.506524     0.502784 
    0.425476     0.330244     0.571917 
    0.449577     0.592756     0.332696 
    0.400550     0.695971     0.453629 
    0.511431     0.669384     0.589895 
    0.318960     0.545839     0.457726 
    0.336735     0.470626     0.613009 
    0.589261     0.534625     0.664572 
    0.658718     0.537510     0.429967 
    0.532588     0.301253     0.483233 
    0.578870     0.526093     0.350593 
    0.471188     0.444465     0.658060 
    0.444937     0.555700     0.663565 
    0.396085     0.456838     0.366419 
    0.361017     0.406895     0.468208 
    0.382872     0.609015     0.580685 
    0.461972     0.368058     0.420966 
    0.501060     0.449319     0.339994 
EA5544 15.530 15.187 13.868 90.00 90.00 90.00 Sym.group:    0
1.0
   15.530006     0.000000     0.000000
    0.000000    15.186831     0.000000
    0.000000     0.000000    13.867759
   W   B
  15   8
Direct
    0.425677     0.659522     0.413793 
    0.369151     0.405043     0.413115 
    0.407889     0.388634     0.594327 
    0.307523     0.630218     0.567757 
    0.272604     0.478911     0.551517 
    0.518555     0.508267     0.500086 
    0.566296     0.332449     0.579513 
    0.558438     0.576662     0.325105 
    0.587271     0.687724     0.441315 
    0.478107     0.663115     0.581547 
    0.683438     0.547095     0.463603 
    0.662002     0.477943     0.623422 
    0.404704     0.541452     0.670329 
    0.463614     0.278638     0.465362 
    0.496193     0.414925     0.311649 
    0.339637     0.546082     0.439140 
    0.422657     0.529487     0.359155 
    0.524161     0.452534     0.662294 
    0.550493     0.562220     0.668683 
    0.620604     0.445659     0.373597 
    0.649343     0.410447     0.487373 
    0.613785     0.612099     0.584354 
    0.577853     0.350876     0.422964 
EA5972 15.295 14.727 14.258 90.00 90.00 90.00 Sym.group:    0
1.0
   15.295284     0.000000     0.000000
    0.000000    14.727222     0.000000
    0.000000     0.000000    14.257661
   W   B
  13   8
Direct
    0.489256     0.508708     0.504343 
    0.460245     0.345537     0.554198 
    0.714448     0.434341     0.552909 
    0.680560     0.414340     0.391399 
    0.484108     0.504473     0.689816 
    0.385671     0.476582     0.346381 
    0.535330     0.657198     0.599146 
    0.552011     0.699793     0.437284 
    0.662486     0.580670     0.485011 
    0.366572     0.589751     0.613118 
    0.573536     0.541838     0.345996 
    0.516665     0.370860     0.381138 
    0.309170     0.442540     0.490985 
    0.577086     0.409893     0.613523 
    0.597570     0.361014     0.505816 
    0.383578     0.341953     0.421492 
    0.373614     0.442520     0.622353 
    0.444296     0.609763     0.382516 
    0.427061     0.662410     0.492898 
    0.357059     0.581448     0.456180 
    0.609679     0.524369     0.613500 
EA6324 15.323 14.970 14.241 90.00 90.00 90.00 Sym.group:    0
1.0
   15.323314     0.000000     0.000000
    0.000000    14.970209     0.000000
    0.000000     0.000000    14.240712
   W   B
  13   8
Direct
    0.484038     0.505991     0.504241 
    0.499812     0.343448     0.560862 
    0.724193     0.490209     0.544575 
    0.689987     0.454048     0.386177 
    0.491748     0.509223     0.691434 
    0.387490     0.445633     0.352553 
    0.503663     0.660002     0.593683 
    0.505253     0.698994     0.427038 
    0.639046     0.612408     0.475148 
    0.355873     0.562346     0.617185 
    0.553148     0.549550     0.342086 
    0.541869     0.374905     0.384471 
    0.325583     0.402551     0.500029 
    0.599397     0.434699     0.612671 
    0.628378     0.386859     0.506637 
    0.419740     0.320493     0.433635 
    0.397433     0.423162     0.625873 
    0.414934     0.588905     0.381827 
    0.392763     0.639594     0.491169 
    0.339617     0.545142     0.459750 
    0.606035     0.551839     0.608955 
EA6667 15.392 14.882 14.237 90.00 90.00 90.00 Sym.group:    0
1.0
   15.392011     0.000000     0.000000
    0.000000    14.881566     0.000000
    0.000000     0.000000    14.236508
   W   B
  13   8
Direct
    0.481659     0.505257     0.504602 
    0.523993     0.340972     0.548245 
    0.725728     0.516540     0.538318 
    0.691736     0.485175     0.380209 
    0.498510     0.499842     0.692527 
    0.389469     0.439990     0.352035 
    0.485148     0.652920     0.604353 
    0.475490     0.701607     0.440772 
    0.621039     0.632151     0.478302 
    0.352230     0.535139     0.625861 
    0.538761     0.563948     0.345188 
    0.555481     0.388374     0.375205 
    0.341667     0.379236     0.499674 
    0.612134     0.441813     0.604572 
    0.644613     0.402623     0.495530 
    0.442877     0.316907     0.423362 
    0.415896     0.404716     0.622508 
    0.397328     0.584234     0.390272 
    0.373103     0.624514     0.504406 
    0.331774     0.524988     0.467369 
    0.601360     0.559054     0.606694 
EA6985 15.304 14.965 14.185 90.00 90.00 90.00 Sym.group:    0
1.0
   15.303742     0.000000     0.000000
    0.000000    14.964930     0.000000
    0.000000     0.000000    14.184901
   W   B
  15   6
Direct
    0.481171     0.508752     0.505174 
    0.524665     0.357750     0.579645 
    0.735149     0.522302     0.530518 
    0.699922     0.488796     0.377210 
    0.494542     0.519049     0.695881 
    0.391259     0.412573     0.366915 
    0.463570     0.678964     0.573399 
    0.463623     0.691176     0.403619 
    0.612576     0.630741     0.444589 
    0.352141     0.549454     0.621296 
    0.533800     0.536963     0.332844 
    0.557304     0.372103     0.394109 
    0.341768     0.375095     0.523691 
    0.610472     0.610997     0.616952 
    0.680581     0.364721     0.503553 
    0.615740     0.464758     0.603299 
    0.447474     0.307331     0.458912 
    0.408851     0.415561     0.645608 
    0.392832     0.561450     0.377183 
    0.361890     0.619290     0.479374 
    0.330670     0.512173     0.466229 
EA7490 15.127 13.888 13.158 90.00 90.00 90.00 Sym.group:    0
1.0
   15.126603     0.000000     0.000000
    0.000000    13.887605     0.000000
    0.000000     0.000000    13.158179
   W   B
  11   7
Direct
    0.687906     0.604751     0.490808 
    0.500946     0.500062     0.478793 
    0.693858     0.445048     0.566579 
    0.574959     0.619896     0.364039 
    0.538309     0.367638     0.610222 
    0.587907     0.538047     0.657591 
    0.378627     0.454391     0.637779 
    0.429323     0.686545     0.448102 
    0.307610     0.582864     0.531291 
    0.435672     0.621638     0.634882 
    0.374942     0.548458     0.357394 
    0.504836     0.337956     0.441716 
    0.643330     0.482101     0.407929 
    0.607635     0.375359     0.456425 
    0.416359     0.353139     0.516140 
    0.416501     0.392275     0.390472 
    0.343444     0.437329     0.476349 
    0.557837     0.652504     0.533489 
EA7821 15.102 14.125 13.166 90.00 90.00 90.00 Sym.group:    0
1.0
   15.102307     0.000000     0.000000
    0.000000    14.125330     0.000000
    0.000000     0.000000    13.166451
   W   B
  11   7
Direct
    0.681798     0.392579     0.482063 
    0.500377     0.500143     0.480840 
    0.698495     0.550275     0.553287 
    0.558403     0.383862     0.358044 
    0.543571     0.630980     0.608072 
    0.594243     0.464294     0.653391 
    0.387280     0.551603     0.644456 
    0.422748     0.316424     0.455271 
    0.311414     0.420180     0.544458 
    0.441563     0.383496     0.642585 
    0.376431     0.452297     0.359002 
    0.505695     0.658342     0.439276 
    0.638433     0.512978     0.399120 
    0.607780     0.619579     0.449673 
    0.419923     0.646449     0.517989 
    0.413324     0.605114     0.394476 
    0.344003     0.563102     0.485031 
    0.554521     0.348305     0.532965 
EA8000 15.190 14.048 13.947 90.00 90.00 90.00 Sym.group:    0
1.0
   15.190213     0.000000     0.000000
    0.000000    14.047953     0.000000
    0.000000     0.000000    13.946699
   W   B
  15   6
Direct
    0.531665     0.508304     0.491952 
    0.696241     0.461895     0.469206 
    0.572769     0.591729     0.327232 
    0.403695     0.619479     0.399056 
    0.440801     0.351908     0.453914 
    0.294750     0.391103     0.537237 
    0.625752     0.415298     0.628225 
    0.623890     0.289726     0.476249 
    0.517109     0.282963     0.597912 
    0.431369     0.624027     0.576088 
    0.580065     0.403390     0.346359 
    0.442772     0.439100     0.635168 
    0.304536     0.458913     0.379727 
    0.674647     0.637168     0.451849 
    0.263626     0.580184     0.485373 
    0.447742     0.483022     0.351453 
    0.326583     0.523097     0.608911 
    0.533409     0.671341     0.464114 
    0.578235     0.649011     0.574754 
    0.656389     0.565332     0.594164 
    0.553955     0.553009     0.651057 
EA8340 15.074 14.433 14.288 90.00 90.00 90.00 Sym.group:    0
1.0
   15.073507     0.000000     0.000000
    0.000000    14.433432     0.000000
    0.000000     0.000000    14.287806
   W   B
  11  10
Direct
    0.620109     0.381720     0.583909 
    0.470759     0.658437     0.399972 
    0.412666     0.515900     0.317901 
    0.586511     0.527494     0.356873 
    0.594679     0.639835     0.520080 
    0.474526     0.313523     0.505146 
    0.470440     0.417851     0.654973 
    0.327595     0.374919     0.544718 
    0.305897     0.516701     0.451661 
    0.479681     0.502468     0.498053 
    0.460573     0.596947     0.666991 
    0.588511     0.387741     0.431716 
    0.586511     0.526392     0.629387 
    0.676002     0.449563     0.458704 
    0.495085     0.397298     0.368069 
    0.459732     0.686851     0.552568 
    0.694235     0.562240     0.449093 
    0.677373     0.518832     0.558625 
    0.357123     0.514729     0.604902 
    0.387998     0.394659     0.405633 
    0.373995     0.615899     0.541030 
EA8608 15.605 14.901 13.854 90.00 90.00 90.00 Sym.group:    0
1.0
   15.604970     0.000000     0.000000
    0.000000    14.900582     0.000000
    0.000000     0.000000    13.853907
   W   B
  12  10
Direct
    0.481838     0.685622     0.438004 
    0.350201     0.561101     0.390688 
    0.391512     0.411573     0.634520 
    0.492968     0.503445     0.497251 
    0.342919     0.403921     0.451617 
    0.545905     0.525234     0.672010 
    0.651147     0.354622     0.446770 
    0.685333     0.519056     0.466932 
    0.609202     0.652600     0.537989 
    0.588765     0.456597     0.328248 
    0.495669     0.334785     0.421145 
    0.529309     0.344753     0.598377 
    0.484463     0.564794     0.340642 
    0.440339     0.457360     0.342202 
    0.408687     0.558654     0.633186 
    0.389551     0.620447     0.527826 
    0.479678     0.640058     0.595450 
    0.637998     0.441067     0.586604 
    0.672112     0.545631     0.620303 
    0.581811     0.597250     0.389053 
    0.402310     0.299039     0.536771 
    0.338285     0.522389     0.544411 
EA9034 15.999 14.599 13.690 90.00 90.00 90.00 Sym.group:    0
1.0
   15.998506     0.000000     0.000000
    0.000000    14.598978     0.000000
    0.000000     0.000000    13.690448
   W   B
  15   6
Direct
    0.465099     0.508667     0.490008 
    0.306272     0.457690     0.472659 
    0.446959     0.598415     0.326591 
    0.593601     0.616335     0.404677 
    0.552006     0.361391     0.448065 
    0.696980     0.386887     0.527873 
    0.371605     0.411020     0.626008 
    0.383675     0.300584     0.454823 
    0.570478     0.613462     0.584045 
    0.413921     0.416813     0.338311 
    0.550214     0.434763     0.631550 
    0.683993     0.462575     0.375417 
    0.338590     0.631370     0.454253 
    0.729179     0.569203     0.493987 
    0.687605     0.510692     0.651337 
    0.543652     0.486342     0.347435 
    0.472501     0.667340     0.473605 
    0.426931     0.638148     0.581526 
    0.351503     0.557877     0.595132 
    0.445623     0.540350     0.655176 
    0.469612     0.330079     0.567522 
EA9435 14.285 14.305 12.631 90.00 90.00 90.00 Sym.group:    0
1.0
   14.285438     0.000000     0.000000
    0.000000    14.304985     0.000000
    0.000000     0.000000    12.630947
   W   B
  11   8
Direct
    0.392704     0.556445     0.413759 
    0.484543     0.624184     0.594557 
    0.599873     0.565794     0.398634 
    0.609309     0.438074     0.592676 
    0.509918     0.382497     0.411741 
    0.401171     0.435830     0.590315 
    0.691596     0.411620     0.399716 
    0.522729     0.291566     0.606304 
    0.329289     0.384793     0.396601 
    0.313677     0.597795     0.609424 
    0.490738     0.709070     0.399229 
    0.647956     0.598811     0.566139 
    0.278938     0.486445     0.503233 
    0.373103     0.691584     0.500711 
    0.599018     0.691124     0.505819 
    0.716208     0.518897     0.506807 
    0.629983     0.309255     0.496515 
    0.404464     0.301796     0.503417 
    0.504781     0.504420     0.504404 
EA9782 15.194 14.570 13.662 90.00 90.00 90.00 Sym.group:    0
1.0
   15.193779     0.000000     0.000000
    0.000000    14.569502     0.000000
    0.000000     0.000000    13.661620
   W   B
  11   8
Direct
    0.661087     0.422544     0.462387 
    0.501806     0.492185     0.500051 
    0.521001     0.660362     0.413213 
    0.548531     0.637060     0.601871 
    0.301060     0.556697     0.527514 
    0.371800     0.602261     0.376736 
    0.415756     0.541738     0.658779 
    0.491747     0.314640     0.496375 
    0.354243     0.390212     0.550630 
    0.549950     0.385136     0.340916 
    0.379670     0.420524     0.384009 
    0.632263     0.521201     0.585513 
    0.555453     0.489721     0.666815 
    0.638718     0.576171     0.479313 
    0.599479     0.534477     0.367040 
    0.414316     0.642288     0.529735 
    0.491874     0.524744     0.329424 
    0.479333     0.400928     0.642604 
    0.591914     0.387111     0.587078 
EA10192 14.611 14.418 14.159 90.00 90.00 90.00 Sym.group:    0
1.0
   14.610685     0.000000     0.000000
    0.000000    14.417891     0.000000
    0.000000     0.000000    14.158628
   W   B
  11   7
Direct
    0.425083     0.687592     0.490317 
    0.503501     0.507076     0.500044 
    0.370815     0.594823     0.610028 
    0.476952     0.324531     0.418291 
    0.351378     0.432435     0.464330 
    0.503199     0.464753     0.323973 
    0.552457     0.625638     0.617719 
    0.663451     0.457678     0.579498 
    0.570600     0.645933     0.402196 
    0.659057     0.511220     0.379849 
    0.526950     0.455346     0.672835 
    0.384718     0.446155     0.614720 
    0.326142     0.583266     0.460108 
    0.446181     0.362174     0.568406 
    0.659765     0.594033     0.511383 
    0.609780     0.385788     0.452680 
    0.559551     0.352765     0.554645 
    0.410419     0.568798     0.378981 
EA10514 14.373 14.521 14.150 90.00 90.00 90.00 Sym.group:    0
1.0
   14.373229     0.000000     0.000000
    0.000000    14.520814     0.000000
    0.000000     0.000000    14.149749
   W   B
  11   7
Direct
    0.561558     0.613517     0.368165 
    0.632268     0.456374     0.378732 
    0.431866     0.319918     0.521592 
    0.315549     0.564849     0.501323 
    0.580414     0.554427     0.719235 
    0.659132     0.471725     0.584825 
    0.506165     0.413003     0.659112 
    0.428332     0.581665     0.644464 
    0.497148     0.497870     0.498857 
    0.578562     0.647774     0.567244 
    0.356152     0.427932     0.405756 
    0.484397     0.481990     0.339861 
    0.416058     0.573532     0.382080 
    0.506957     0.375177     0.396270 
    0.442780     0.644844     0.481237 
    0.661725     0.568982     0.473408 
    0.365435     0.443831     0.576305 
    0.575501     0.362589     0.501534 
EA10860 14.768 14.633 14.101 90.00 90.00 90.00 Sym.group:    0
1.0
   14.767537     0.000000     0.000000
    0.000000    14.633400     0.000000
    0.000000     0.000000    14.101158
   W   B
  12   6
Direct
    0.488456     0.554086     0.686347 
    0.438653     0.455058     0.351947 
    0.496585     0.676911     0.425589 
    0.289358     0.512231     0.494309 
    0.474171     0.318193     0.526822 
    0.656159     0.404585     0.514065 
    0.666472     0.568887     0.466191 
    0.579065     0.662139     0.574426 
    0.387885     0.631316     0.566730 
    0.373306     0.439200     0.620042 
    0.561248     0.392525     0.652947 
    0.499876     0.500481     0.500621 
    0.632086     0.521974     0.611212 
    0.559983     0.564008     0.352736 
    0.385878     0.584322     0.411606 
    0.363611     0.391109     0.466726 
    0.553260     0.362999     0.407601 
    0.593949     0.459976     0.370083 
EA11185 14.775 14.595 14.063 90.00 90.00 90.00 Sym.group:    0
1.0
   14.774597     0.000000     0.000000
    0.000000    14.595128     0.000000
    0.000000     0.000000    14.063435
   W   B
  11   7
Direct
    0.521404     0.542790     0.683861 
    0.547375     0.477123     0.335729 
    0.513585     0.673883     0.430544 
    0.548174     0.315493     0.561851 
    0.334239     0.419554     0.521206 
    0.339704     0.578470     0.476409 
    0.447927     0.663201     0.586323 
    0.642613     0.441081     0.598969 
    0.434540     0.401542     0.665214 
    0.495197     0.495149     0.505135 
    0.471371     0.341921     0.403573 
    0.376960     0.530706     0.625889 
    0.433500     0.573673     0.356200 
    0.627144     0.596707     0.422442 
    0.611639     0.389631     0.447056 
    0.395776     0.466234     0.377245 
    0.656932     0.494110     0.457068 
    0.601921     0.598731     0.545287 
EA11348 15.975 14.126 14.015 90.00 90.00 90.00 Sym.group:    0
1.0
   15.975072     0.000000     0.000000
    0.000000    14.126324     0.000000
    0.000000     0.000000    14.015481
   W   B
  11  10
Direct
    0.514079     0.489118     0.491262 
    0.475601     0.401839     0.657086 
    0.485067     0.672806     0.462295 
    0.364585     0.434777     0.408642 
    0.685762     0.439986     0.440251 
    0.573418     0.534790     0.677414 
    0.637804     0.593331     0.407114 
    0.271417     0.527483     0.532262 
    0.496375     0.338839     0.380002 
    0.630191     0.386104     0.594232 
    0.402000     0.563902     0.613543 
    0.355992     0.420130     0.566646 
    0.525552     0.317437     0.526619 
    0.425163     0.565242     0.369941 
    0.662849     0.536032     0.557022 
    0.426698     0.351141     0.514682 
    0.361334     0.601396     0.457000 
    0.573609     0.464199     0.344890 
    0.598512     0.631262     0.550349 
    0.512139     0.656511     0.610542 
    0.521851     0.573673     0.338206 
EA11623 15.914 16.112 13.117 90.00 90.00 90.00 Sym.group:    0
1.0
   15.913910     0.000000     0.000000
    0.000000    16.112329     0.000000
    0.000000     0.000000    13.117433
   W   B
  15   7
Direct
    0.371788     0.675111     0.511074 
    0.719248     0.520846     0.502470 
    0.413544     0.304377     0.504558 
    0.662486     0.358185     0.499147 
    0.540723     0.711824     0.509643 
    0.292545     0.427013     0.506368 
    0.522495     0.402038     0.613829 
    0.408105     0.530544     0.608917 
    0.571633     0.566664     0.607001 
    0.401797     0.531941     0.398665 
    0.523529     0.394864     0.400888 
    0.572327     0.569679     0.396391 
    0.672915     0.452916     0.350383 
    0.363738     0.383856     0.353896 
    0.459336     0.679498     0.358036 
    0.465921     0.653466     0.623654 
    0.383873     0.394950     0.617229 
    0.651463     0.452544     0.613122 
    0.298546     0.562128     0.504091 
    0.655750     0.640399     0.499739 
    0.546999     0.291456     0.519567 
    0.501241     0.495701     0.501326 
EA12071 14.719 15.369 14.081 90.00 90.00 90.00 Sym.group:    0
1.0
   14.718619     0.000000     0.000000
    0.000000    15.369453     0.000000
    0.000000     0.000000    14.080530
   W   B
  14   6
Direct
    0.440830     0.462225     0.342504 
    0.270283     0.516992     0.568211 
    0.362414     0.584034     0.433112 
    0.416536     0.603471     0.610810 
    0.614098     0.640182     0.584651 
    0.487319     0.694546     0.481806 
    0.612940     0.501784     0.337669 
    0.545680     0.544131     0.704873 
    0.577256     0.337148     0.553966 
    0.442349     0.418501     0.637543 
    0.293460     0.367014     0.567112 
    0.426470     0.343744     0.462971 
    0.521485     0.506744     0.507287 
    0.663339     0.463142     0.616836 
    0.322834     0.446551     0.442189 
    0.506112     0.598583     0.367625 
    0.604735     0.618307     0.427770 
    0.564149     0.383079     0.407554 
    0.672884     0.540221     0.481553 
    0.654826     0.429599     0.463959 
EA12323 15.343 14.468 14.104 90.00 90.00 90.00 Sym.group:    0
1.0
   15.342844     0.000000     0.000000
    0.000000    14.468113     0.000000
    0.000000     0.000000    14.103561
   W   B
  15   7
Direct
    0.598126     0.514527     0.339075 
    0.436159     0.442573     0.326234 
    0.496928     0.495456     0.503208 
    0.319497     0.378163     0.428911 
    0.572995     0.348857     0.363708 
    0.687808     0.429659     0.601773 
    0.559829     0.337430     0.555451 
    0.712733     0.561497     0.471728 
    0.627221     0.688190     0.422389 
    0.620493     0.592364     0.610088 
    0.497946     0.690212     0.551737 
    0.332608     0.554712     0.419324 
    0.332044     0.474628     0.579457 
    0.452656     0.563035     0.671407 
    0.481042     0.636097     0.379249 
    0.454322     0.411035     0.642043 
    0.411811     0.354476     0.549187 
    0.453028     0.332273     0.439384 
    0.557030     0.455788     0.657042 
    0.654495     0.420722     0.455874 
    0.363187     0.626134     0.563472 
    0.378045     0.692172     0.469258 
EA12651 15.282 14.491 14.072 90.00 90.00 90.00 Sym.group:    0
1.0
   15.281812     0.000000     0.000000
    0.000000    14.491264     0.000000
    0.000000     0.000000    14.072399
   W   B
  15   7
Direct
    0.598083     0.511205     0.336793 
    0.434629     0.437604     0.328571 
    0.497013     0.494356     0.503317 
    0.318321     0.375502     0.434775 
    0.573205     0.346550     0.365934 
    0.689878     0.436757     0.601891 
    0.562104     0.339348     0.558803 
    0.712906     0.562537     0.468297 
    0.625644     0.686764     0.419645 
    0.619452     0.597275     0.608206 
    0.495819     0.690863     0.546780 
    0.332458     0.552725     0.417683 
    0.331947     0.474586     0.581566 
    0.451692     0.565979     0.670245 
    0.480269     0.633361     0.374023 
    0.456331     0.413523     0.645093 
    0.412857     0.354124     0.554583 
    0.453738     0.330653     0.444505 
    0.558560     0.460256     0.658638 
    0.656676     0.419903     0.456275 
    0.361787     0.625951     0.560376 
    0.376632     0.690176     0.464002 
EA13222 14.875 14.607 14.487 90.00 90.00 90.00 Sym.group:    0
1.0
   14.874783     0.000000     0.000000
    0.000000    14.606597     0.000000
    0.000000     0.000000    14.487068
   W   B
  12   6
Direct
    0.398642     0.370460     0.462824 
    0.456805     0.632186     0.385017 
    0.549185     0.479308     0.324288 
    0.299271     0.544487     0.436832 
    0.277651     0.436788     0.555031 
    0.383371     0.606888     0.564854 
    0.502243     0.505966     0.499198 
    0.534190     0.593044     0.667669 
    0.422109     0.447492     0.643840 
    0.521837     0.326827     0.574004 
    0.658097     0.565254     0.563161 
    0.614184     0.624417     0.396130 
    0.574421     0.377804     0.437078 
    0.412029     0.486249     0.360927 
    0.645519     0.476539     0.434520 
    0.537241     0.657903     0.528702 
    0.578099     0.452146     0.631758 
    0.635104     0.416242     0.534166 
EA13533 14.779 14.310 13.459 90.00 90.00 90.00 Sym.group:    0
1.0
   14.778584     0.000000     0.000000
    0.000000    14.310411     0.000000
    0.000000     0.000000    13.459388
   W   B
  12   7
Direct
    0.635379     0.520659     0.372965 
    0.598292     0.603310     0.656744 
    0.530823     0.644997     0.364467 
    0.653044     0.365334     0.489274 
    0.484488     0.682811     0.542642 
    0.577808     0.432002     0.660163 
    0.325108     0.652118     0.523232 
    0.519874     0.294948     0.564535 
    0.525365     0.359315     0.374763 
    0.323094     0.484069     0.524664 
    0.508420     0.494152     0.506413 
    0.427434     0.554230     0.662410 
    0.622050     0.617835     0.493328 
    0.664839     0.515548     0.540984 
    0.408484     0.364258     0.484651 
    0.397067     0.444763     0.388759 
    0.425615     0.398126     0.614539 
    0.480221     0.506515     0.331800 
    0.392596     0.565008     0.403667 
EA13880 15.484 13.965 13.793 90.00 90.00 90.00 Sym.group:    0
1.0
   15.484185     0.000000     0.000000
    0.000000    13.965017     0.000000
    0.000000     0.000000    13.792561
   W   B
  12   7
Direct
    0.446168     0.597635     0.349122 
    0.500274     0.679366     0.624751 
    0.604463     0.576490     0.368326 
    0.315919     0.537605     0.471867 
    0.639975     0.621478     0.545707 
    0.400025     0.548320     0.647657 
    0.706611     0.471612     0.514634 
    0.333273     0.399562     0.574261 
    0.386324     0.412005     0.385526 
    0.596209     0.358947     0.561181 
    0.492631     0.505527     0.505516 
    0.575118     0.504929     0.665472 
    0.520384     0.669060     0.463793 
    0.416033     0.653627     0.502590 
    0.452061     0.339266     0.514534 
    0.519108     0.356201     0.421538 
    0.465066     0.395265     0.630373 
    0.520328     0.451149     0.342732 
    0.610033     0.421955     0.410421 
EA14210 15.131 14.214 14.048 90.00 90.00 90.00 Sym.group:    0
1.0
   15.131042     0.000000     0.000000
    0.000000    14.213603     0.000000
    0.000000     0.000000    14.048303
   W   B
  12   7
Direct
    0.493863     0.416375     0.334821 
    0.525277     0.312559     0.599576 
    0.639278     0.473907     0.387395 
    0.332981     0.418881     0.430562 
    0.660487     0.417388     0.561002 
    0.393514     0.405354     0.614769 
    0.691868     0.580231     0.562480 
    0.301889     0.537586     0.547016 
    0.384156     0.569704     0.376533 
    0.549271     0.651658     0.592544 
    0.492612     0.492070     0.503755 
    0.551836     0.491591     0.672897 
    0.567097     0.351844     0.452312 
    0.456297     0.332381     0.467297 
    0.411388     0.636442     0.520485 
    0.494734     0.651857     0.443554 
    0.421417     0.571259     0.628141 
    0.530619     0.573788     0.358970 
    0.601413     0.615125     0.445893 
EA14484 15.099 14.423 13.961 90.00 90.00 90.00 Sym.group:    0
1.0
   15.099199     0.000000     0.000000
    0.000000    14.422563     0.000000
    0.000000     0.000000    13.960952
   W   B
  11   9
Direct
    0.501978     0.407871     0.336533 
    0.504312     0.490892     0.508137 
    0.423599     0.648227     0.453309 
    0.575630     0.575073     0.337191 
    0.632655     0.584681     0.615882 
    0.583418     0.682164     0.483425 
    0.571866     0.322705     0.476861 
    0.342313     0.478030     0.416094 
    0.580394     0.414102     0.660479 
    0.365070     0.548273     0.606294 
    0.460900     0.318483     0.609717 
    0.489476     0.633943     0.596598 
    0.629275     0.449855     0.405661 
    0.655163     0.549716     0.464877 
    0.652167     0.446660     0.528643 
    0.440042     0.547984     0.335788 
    0.503718     0.542618     0.668744 
    0.367288     0.406963     0.546090 
    0.425895     0.354241     0.457727 
    0.294840     0.597519     0.491947 
EA14785 14.909 14.475 14.048 90.00 90.00 90.00 Sym.group:    0
1.0
   14.909447     0.000000     0.000000
    0.000000    14.474718     0.000000
    0.000000     0.000000    14.047836
   W   B
  11  10
Direct
    0.665843     0.418441     0.416090 
    0.573948     0.329082     0.573607 
    0.594209     0.541811     0.323757 
    0.675445     0.583543     0.472455 
    0.349243     0.530884     0.492312 
    0.540848     0.686852     0.561061 
    0.474539     0.580004     0.670709 
    0.413574     0.419533     0.630920 
    0.426864     0.312097     0.497725 
    0.437916     0.434887     0.346019 
    0.521664     0.496282     0.495019 
    0.657123     0.461737     0.570822 
    0.566311     0.458286     0.653314 
    0.615417     0.562377     0.617413 
    0.542481     0.347745     0.417717 
    0.540281     0.648501     0.410633 
    0.303499     0.394896     0.536271 
    0.322162     0.394522     0.419790 
    0.445880     0.580367     0.371237 
    0.435017     0.659196     0.456738 
    0.397737     0.658958     0.566391 
EA14975 15.758 15.758 15.376 90.00 90.00 90.00 Sym.group:    0
1.0
   15.757516     0.000000     0.000000
    0.000000    15.757516     0.000000
    0.000000     0.000000    15.375534
   W   B
  15  10
Direct
    0.513575     0.499904     0.500312 
    0.672159     0.582324     0.553561 
    0.434747     0.547609     0.651366 
    0.346933     0.556378     0.429679 
    0.553760     0.591575     0.314705 
    0.427401     0.666210     0.525279 
    0.341659     0.442703     0.559785 
    0.564999     0.332325     0.554367 
    0.681115     0.449156     0.623524 
    0.676754     0.417388     0.458381 
    0.690755     0.549868     0.388362 
    0.541225     0.408973     0.689175 
    0.444794     0.451977     0.343657 
    0.429656     0.333710     0.470370 
    0.568111     0.668386     0.450657 
    0.332395     0.418051     0.417044 
    0.327440     0.580986     0.571460 
    0.550489     0.375824     0.409557 
    0.406590     0.417264     0.682290 
    0.543483     0.624847     0.593587 
    0.575572     0.538806     0.652426 
    0.432835     0.341176     0.611387 
    0.418426     0.583615     0.311747 
    0.439535     0.659018     0.384557 
    0.585591     0.461928     0.352764 
EA15462 15.175 14.833 13.985 90.00 90.00 90.00 Sym.group:    0
1.0
   15.174665     0.000000     0.000000
    0.000000    14.832947     0.000000
    0.000000     0.000000    13.985380
   W   B
  11  10
Direct
    0.566560     0.681515     0.430794 
    0.448155     0.664242     0.588357 
    0.576142     0.555612     0.319924 
    0.679880     0.566534     0.465011 
    0.412608     0.374221     0.498635 
    0.657762     0.392938     0.540751 
    0.541733     0.409892     0.660389 
    0.392018     0.490498     0.638067 
    0.326881     0.576627     0.508345 
    0.398606     0.511529     0.350138 
    0.512375     0.513923     0.496606 
    0.592568     0.627931     0.578227 
    0.529060     0.560416     0.657189 
    0.629362     0.523083     0.611005 
    0.433805     0.639097     0.428901 
    0.620699     0.437614     0.397720 
    0.288297     0.436479     0.546657 
    0.295110     0.451656     0.429064 
    0.506971     0.420387     0.362330 
    0.555632     0.354341     0.442088 
    0.535776     0.311464     0.549802 
EA15780 15.341 14.946 13.966 90.00 90.00 90.00 Sym.group:    0
1.0
   15.341330     0.000000     0.000000
    0.000000    14.946340     0.000000
    0.000000     0.000000    13.965722
   W   B
  11  10
Direct
    0.585029     0.314992     0.453045 
    0.467980     0.339924     0.594534 
    0.559410     0.425610     0.330158 
    0.682363     0.447966     0.469027 
    0.403638     0.620145     0.499633 
    0.648265     0.621414     0.518854 
    0.540702     0.606872     0.650180 
    0.400241     0.511662     0.640556 
    0.343211     0.410082     0.509126 
    0.386256     0.474581     0.354541 
    0.512925     0.487440     0.500197 
    0.607420     0.390728     0.589817 
    0.540824     0.455965     0.661762 
    0.634390     0.499738     0.609558 
    0.454263     0.354513     0.423478 
    0.605806     0.556754     0.387166 
    0.287105     0.544888     0.555046 
    0.285702     0.533747     0.438970 
    0.491110     0.565767     0.358938 
    0.540361     0.642805     0.425583 
    0.523000     0.694407     0.529832 
EA16055 15.392 14.864 14.057 90.00 90.00 90.00 Sym.group:    0
1.0
   15.391816     0.000000     0.000000
    0.000000    14.864427     0.000000
    0.000000     0.000000    14.057272
   W   B
  12  10
Direct
    0.608630     0.604284     0.371111 
    0.432169     0.575186     0.369800 
    0.424964     0.652955     0.540664 
    0.322692     0.451828     0.433817 
    0.558887     0.340396     0.400734 
    0.506260     0.487543     0.504356 
    0.683610     0.449205     0.393989 
    0.549943     0.595121     0.653583 
    0.643837     0.378232     0.550662 
    0.673499     0.555234     0.529748 
    0.516544     0.425112     0.683936 
    0.372831     0.397580     0.595099 
    0.507119     0.689247     0.423007 
    0.445164     0.424090     0.358039 
    0.331134     0.536951     0.565807 
    0.428299     0.354273     0.459514 
    0.416981     0.532477     0.642021 
    0.640718     0.481935     0.659419 
    0.543550     0.477344     0.335090 
    0.501322     0.336618     0.551476 
    0.573509     0.662892     0.513176 
    0.318338     0.591494     0.464952 
EA16390 15.667 14.741 13.903 90.00 90.00 90.00 Sym.group:    0
1.0
   15.666996     0.000000     0.000000
    0.000000    14.741259     0.000000
    0.000000     0.000000    13.902833
   W   B
  14   8
Direct
    0.430115     0.373300     0.390203 
    0.306860     0.494939     0.464415 
    0.500465     0.640518     0.333780 
    0.358991     0.648358     0.404524 
    0.513526     0.686941     0.504331 
    0.472724     0.511889     0.509220 
    0.617387     0.558266     0.435139 
    0.604593     0.407257     0.563321 
    0.628218     0.402019     0.359900 
    0.572032     0.558168     0.654969 
    0.462060     0.401654     0.671154 
    0.349292     0.356081     0.545149 
    0.368662     0.638170     0.580852 
    0.717787     0.533456     0.593419 
    0.515311     0.490038     0.341810 
    0.409154     0.519718     0.349988 
    0.711983     0.449611     0.467734 
    0.641812     0.651657     0.563141 
    0.485286     0.331389     0.532722 
    0.552905     0.319003     0.442025 
    0.430292     0.540134     0.675030 
    0.350546     0.487431     0.617171 
EA16981 14.190 14.713 11.322 90.00 90.00 90.00 Sym.group:    0
1.0
   14.190180     0.000000     0.000000
    0.000000    14.713320     0.000000
    0.000000     0.000000    11.321835
   W   B
  11   7
Direct
    0.409625     0.556650     0.599563 
    0.397378     0.447312     0.393962 
    0.501129     0.392801     0.596447 
    0.595376     0.437899     0.405452 
    0.607843     0.554584     0.595931 
    0.497102     0.609861     0.408184 
    0.481387     0.296761     0.391639 
    0.678320     0.391582     0.614525 
    0.677978     0.593647     0.382564 
    0.504913     0.700130     0.620575 
    0.315926     0.601747     0.391146 
    0.342240     0.419310     0.578317 
    0.604156     0.303919     0.499043 
    0.725612     0.490355     0.496850 
    0.613312     0.687474     0.497640 
    0.387842     0.689414     0.507592 
    0.282153     0.502465     0.508597 
    0.377706     0.324088     0.511974 
EA17298 13.820 14.253 14.388 90.00 90.00 90.00 Sym.group:    0
1.0
   13.820472     0.000000     0.000000
    0.000000    14.253436     0.000000
    0.000000     0.000000    14.388032
   W   B
  12   7
Direct
    0.401654     0.660013     0.549629 
    0.342712     0.500064     0.625240 
    0.433690     0.347950     0.596966 
    0.528402     0.545954     0.328261 
    0.500066     0.490796     0.500520 
    0.370708     0.467651     0.348112 
    0.441230     0.318291     0.421264 
    0.599889     0.316799     0.471640 
    0.604526     0.390558     0.634343 
    0.663357     0.594215     0.453119 
    0.569011     0.671855     0.583646 
    0.510142     0.536212     0.681493 
    0.404240     0.608479     0.405143 
    0.340981     0.422211     0.491798 
    0.335293     0.539304     0.477555 
    0.645424     0.533969     0.591731 
    0.626094     0.450007     0.395944 
    0.668493     0.453614     0.507628 
    0.514088     0.652056     0.435969 
EA17611 13.845 14.301 14.322 90.00 90.00 90.00 Sym.group:    0
1.0
   13.844983     0.000000     0.000000
    0.000000    14.300771     0.000000
    0.000000     0.000000    14.322316
   W   B
  13   6
Direct
    0.624082     0.625871     0.578308 
    0.604413     0.470325     0.665179 
    0.482308     0.344029     0.606815 
    0.550547     0.538637     0.317013 
    0.502943     0.499936     0.498192 
    0.658912     0.418269     0.394367 
    0.521673     0.318296     0.433696 
    0.329415     0.433774     0.609908 
    0.377368     0.614720     0.402393 
    0.453940     0.687711     0.561990 
    0.441638     0.544849     0.676871 
    0.403610     0.447473     0.339621 
    0.544323     0.685616     0.419974 
    0.651716     0.566592     0.440182 
    0.622049     0.379957     0.537667 
    0.673752     0.487709     0.527623 
    0.343780     0.573421     0.544763 
    0.329848     0.484862     0.466089 
    0.383684     0.377956     0.479349 
EA18024 14.924 14.263 13.490 90.00 90.00 90.00 Sym.group:    0
1.0
   14.924009     0.000000     0.000000
    0.000000    14.262630     0.000000
    0.000000     0.000000    13.490413
   W   B
  11   6
Direct
    0.515361     0.662246     0.583256 
    0.512055     0.330762     0.417594 
    0.492075     0.499111     0.499137 
    0.611702     0.492795     0.648781 
    0.596582     0.511139     0.340869 
    0.394453     0.663193     0.454661 
    0.404331     0.332981     0.548976 
    0.342762     0.564171     0.581016 
    0.344107     0.453645     0.435183 
    0.661571     0.593695     0.518675 
    0.658885     0.417155     0.470930 
    0.464296     0.450747     0.335891 
    0.468419     0.540250     0.665599 
    0.552841     0.364103     0.576770 
    0.544526     0.632479     0.418671 
    0.457469     0.571453     0.350650 
    0.478563     0.420078     0.653341 
EA18142 15.016 14.833 14.342 90.00 90.00 90.00 Sym.group:    0
1.0
   15.015675     0.000000     0.000000
    0.000000    14.832978     0.000000
    0.000000     0.000000    14.342469
   W   B
  11  10
Direct
    0.460669     0.461154     0.320770 
    0.544298     0.615030     0.371932 
    0.372286     0.589070     0.391411 
    0.504238     0.304464     0.553120 
    0.358388     0.382942     0.564731 
    0.497238     0.492277     0.501957 
    0.651966     0.384116     0.530717 
    0.503767     0.422915     0.670772 
    0.639260     0.524071     0.614454 
    0.555638     0.666664     0.555293 
    0.635806     0.480375     0.368906 
    0.445908     0.685059     0.468263 
    0.390960     0.514082     0.627747 
    0.408536     0.613774     0.553653 
    0.337698     0.522920     0.520817 
    0.355854     0.445518     0.430830 
    0.430096     0.359958     0.432823 
    0.546168     0.366657     0.416803 
    0.655025     0.593201     0.473668 
    0.485729     0.574611     0.642527 
    0.720474     0.501143     0.488806 
EA18700 14.036 14.119 13.870 90.00 90.00 90.00 Sym.group:    0
1.0
   14.035643     0.000000     0.000000
    0.000000    14.118854     0.000000
    0.000000     0.000000    13.869964
   W   B
  11   6
Direct
    0.334964     0.577026     0.558934 
    0.663186     0.443454     0.417405 
    0.500800     0.499094     0.502247 
    0.525605     0.679764     0.500652 
    0.466838     0.476667     0.321412 
    0.337290     0.399900     0.571628 
    0.670860     0.451315     0.597752 
    0.462795     0.446990     0.676783 
    0.547834     0.335895     0.570459 
    0.387918     0.625166     0.398856 
    0.600256     0.591069     0.353791 
    0.531887     0.362769     0.409536 
    0.469969     0.602008     0.630081 
    0.647525     0.579192     0.506297 
    0.349307     0.476029     0.430708 
    0.413230     0.373152     0.438115 
    0.589738     0.580511     0.615344 
EA18952 14.107 14.480 14.139 90.00 90.00 90.00 Sym.group:    0
1.0
   14.107059     0.000000     0.000000
    0.000000    14.480392     0.000000
    0.000000     0.000000    14.138959
   W   B
  12   7
Direct
    0.383182     0.527561     0.655325 
    0.516401     0.412294     0.677798 
    0.651609     0.388915     0.553179 
    0.340692     0.521628     0.369313 
    0.502935     0.507498     0.507228 
    0.398121     0.366436     0.420752 
    0.701756     0.543725     0.511282 
    0.459228     0.648836     0.397341 
    0.467027     0.669477     0.590773 
    0.597040     0.558399     0.654786 
    0.500208     0.470341     0.320049 
    0.601065     0.688601     0.483285 
    0.330996     0.473892     0.517249 
    0.501843     0.344008     0.535523 
    0.400433     0.396016     0.574047 
    0.601581     0.569705     0.387724 
    0.631032     0.456475     0.408246 
    0.556402     0.364510     0.428748 
    0.358450     0.591683     0.507352 
EA19157 15.484 14.689 14.057 90.00 90.00 90.00 Sym.group:    0
1.0
   15.483722     0.000000     0.000000
    0.000000    14.688578     0.000000
    0.000000     0.000000    14.056761
   W   B
  15   6
Direct
    0.650072     0.598539     0.472779 
    0.576637     0.594795     0.635078 
    0.431775     0.496270     0.677768 
    0.485995     0.503007     0.500584 
    0.584425     0.458725     0.368349 
    0.624450     0.361311     0.519483 
    0.327210     0.505507     0.416521 
    0.467510     0.337018     0.585599 
    0.741267     0.460861     0.457018 
    0.505796     0.303223     0.420175 
    0.404973     0.657441     0.432466 
    0.318395     0.419115     0.594308 
    0.308538     0.580014     0.572664 
    0.709099     0.491114     0.617202 
    0.544705     0.648713     0.351828 
    0.443491     0.633309     0.583233 
    0.453799     0.536493     0.337852 
    0.439765     0.424571     0.360148 
    0.526803     0.668358     0.508374 
    0.568469     0.446192     0.631033 
    0.386827     0.375421     0.457538 
EA19565 14.856 14.304 14.232 90.00 90.00 90.00 Sym.group:    0
1.0
   14.856352     0.000000     0.000000
    0.000000    14.303672     0.000000
    0.000000     0.000000    14.231532
   W   B
  14   6
Direct
    0.464196     0.536914     0.688532 
    0.375356     0.411678     0.601560 
    0.478814     0.660323     0.348116 
    0.337108     0.584344     0.585909 
    0.454566     0.698419     0.522238 
    0.500615     0.497369     0.500625 
    0.681057     0.531928     0.509669 
    0.580090     0.530080     0.339658 
    0.659342     0.366587     0.584353 
    0.512900     0.310580     0.515882 
    0.378223     0.347378     0.427157 
    0.406749     0.491368     0.331242 
    0.583560     0.642521     0.610500 
    0.654576     0.384220     0.418097 
    0.582615     0.638783     0.455267 
    0.375762     0.595603     0.436969 
    0.335693     0.488285     0.469646 
    0.602254     0.495225     0.640669 
    0.523523     0.402409     0.641234 
    0.513003     0.385987     0.372677 
EA19939 14.938 15.023 14.304 90.00 90.00 90.00 Sym.group:    0
1.0
   14.938190     0.000000     0.000000
    0.000000    15.022706     0.000000
    0.000000     0.000000    14.304485
   W   B
  14   6
Direct
    0.521756     0.394474     0.339841 
    0.506174     0.562029     0.327387 
    0.339985     0.475090     0.634836 
    0.369765     0.460435     0.350500 
    0.352590     0.368991     0.497378 
    0.499335     0.498309     0.499997 
    0.608432     0.395168     0.613183 
    0.485532     0.525494     0.681149 
    0.718869     0.487057     0.507969 
    0.626470     0.624535     0.456395 
    0.482942     0.696794     0.446613 
    0.382465     0.628167     0.568043 
    0.506268     0.311697     0.495569 
    0.646611     0.558707     0.633974 
    0.457641     0.389957     0.615703 
    0.332086     0.515595     0.487431 
    0.386138     0.589798     0.416829 
    0.622306     0.391217     0.456261 
    0.623965     0.490493     0.391026 
    0.530667     0.635994     0.579913 
EA20268 14.767 14.127 13.763 90.00 90.00 90.00 Sym.group:    0
1.0
   14.767149     0.000000     0.000000
    0.000000    14.126905     0.000000
    0.000000     0.000000    13.762945
   W   B
  11   9
Direct
    0.391545     0.670265     0.435206 
    0.559339     0.621320     0.398394 
    0.445358     0.414721     0.671539 
    0.612752     0.521313     0.641585 
    0.351634     0.580567     0.591672 
    0.321961     0.404143     0.555308 
    0.399932     0.388228     0.382853 
    0.486480     0.498521     0.499864 
    0.567662     0.335202     0.421908 
    0.500925     0.678601     0.571052 
    0.525856     0.454353     0.295068 
    0.339155     0.522897     0.442839 
    0.632853     0.473671     0.399831 
    0.665711     0.546045     0.491064 
    0.641568     0.643771     0.544860 
    0.562866     0.372904     0.586897 
    0.460924     0.335202     0.533393 
    0.417391     0.544958     0.347606 
    0.476446     0.562249     0.670267 
    0.639645     0.431070     0.518792 
EA20412 15.729 14.398 14.024 90.00 90.00 90.00 Sym.group:    0
1.0
   15.728987     0.000000     0.000000
    0.000000    14.397911     0.000000
    0.000000     0.000000    14.023792
   W   B
  15   9
Direct
    0.419735     0.534298     0.662311 
    0.407074     0.538004     0.371660 
    0.442687     0.716655     0.445933 
    0.588454     0.686770     0.502666 
    0.285567     0.457969     0.608746 
    0.585561     0.584560     0.655575 
    0.536841     0.495632     0.507337 
    0.559885     0.454897     0.332230 
    0.521337     0.314985     0.435131 
    0.668746     0.366122     0.481247 
    0.337607     0.370694     0.433564 
    0.428226     0.364644     0.586800 
    0.339770     0.630502     0.534237 
    0.702310     0.551481     0.533871 
    0.423841     0.372797     0.294653 
    0.633277     0.582408     0.401266 
    0.472354     0.660663     0.587834 
    0.531730     0.608397     0.380056 
    0.392825     0.489959     0.512893 
    0.687291     0.483688     0.397076 
    0.639433     0.439425     0.618703 
    0.537610     0.436433     0.664795 
    0.287190     0.508687     0.462100 
    0.570651     0.350329     0.589315 
EA20755 15.816 14.848 14.066 90.00 90.00 90.00 Sym.group:    0
1.0
   15.816437     0.000000     0.000000
    0.000000    14.848167     0.000000
    0.000000     0.000000    14.065631
   W   B
  15   9
Direct
    0.415785     0.562534     0.649465 
    0.411559     0.509396     0.363812 
    0.444299     0.693768     0.400347 
    0.589011     0.678217     0.464873 
    0.283873     0.480055     0.608445 
    0.583625     0.610675     0.636370 
    0.535104     0.498598     0.509544 
    0.565117     0.426071     0.347048 
    0.522423     0.314048     0.474944 
    0.667975     0.370361     0.515430 
    0.339320     0.363683     0.457074 
    0.426735     0.387852     0.612108 
    0.339594     0.628450     0.502132 
    0.700235     0.557206     0.527919 
    0.428500     0.339955     0.324055 
    0.634747     0.559913     0.390317 
    0.471812     0.667161     0.551008 
    0.534196     0.579374     0.360714 
    0.392157     0.491490     0.511368 
    0.688668     0.465657     0.409417 
    0.635469     0.466669     0.632418 
    0.533217     0.472628     0.675626 
    0.288870     0.499838     0.454449 
    0.567710     0.376399     0.621114 
EA21260 15.631 14.546 14.276 90.00 90.00 90.00 Sym.group:    0
1.0
   15.630833     0.000000     0.000000
    0.000000    14.545577     0.000000
    0.000000     0.000000    14.276238
   W   B
  12   8
Direct
    0.328912     0.563419     0.451079 
    0.369393     0.397069     0.493262 
    0.521390     0.506858     0.492179 
    0.557846     0.475944     0.307730 
    0.625323     0.374695     0.427593 
    0.662037     0.551887     0.414971 
    0.465818     0.618149     0.358209 
    0.391209     0.531151     0.618338 
    0.558027     0.495751     0.676718 
    0.649623     0.607640     0.597024 
    0.569789     0.687394     0.476003 
    0.244711     0.490356     0.561906 
    0.421686     0.471562     0.369145 
    0.484331     0.378541     0.393410 
    0.504223     0.340003     0.503984 
    0.436754     0.639802     0.517366 
    0.654274     0.463870     0.552057 
    0.508806     0.624283     0.605619 
    0.468446     0.399315     0.603620 
    0.577401     0.382313     0.579789 
EA21612 14.352 14.623 13.899 90.00 90.00 90.00 Sym.group:    0
1.0
   14.352336     0.000000     0.000000
    0.000000    14.623291     0.000000
    0.000000     0.000000    13.898526
   W   B
  11   9
Direct
    0.580210     0.350876     0.473734 
    0.693660     0.484235     0.500219 
    0.495492     0.500395     0.501235 
    0.504403     0.676571     0.434232 
    0.376869     0.549924     0.365435 
    0.610588     0.528063     0.655946 
    0.384652     0.547956     0.653831 
    0.280391     0.511595     0.520965 
    0.359916     0.390760     0.419108 
    0.499361     0.666561     0.608710 
    0.509249     0.391896     0.656296 
    0.604426     0.465494     0.369169 
    0.649115     0.384756     0.610157 
    0.619131     0.577447     0.405784 
    0.618178     0.614526     0.521098 
    0.445072     0.334803     0.532139 
    0.378813     0.625745     0.508856 
    0.372241     0.409101     0.580999 
    0.524920     0.551292     0.336711 
    0.493312     0.438004     0.345377 
EA21941 15.289 14.855 14.128 90.00 90.00 90.00 Sym.group:    0
1.0
   15.288667     0.000000     0.000000
    0.000000    14.855441     0.000000
    0.000000     0.000000    14.127504
   W   B
  14   6
Direct
    0.588793     0.432892     0.645704 
    0.621083     0.587040     0.548913 
    0.616818     0.383815     0.478146 
    0.475386     0.494631     0.492747 
    0.356396     0.366315     0.528930 
    0.397668     0.463068     0.340577 
    0.350590     0.551274     0.606377 
    0.323798     0.635689     0.459109 
    0.469027     0.673098     0.551306 
    0.605602     0.548344     0.373769 
    0.460143     0.314079     0.416472 
    0.432565     0.422890     0.681408 
    0.455587     0.636956     0.366200 
    0.586733     0.713481     0.438533 
    0.497124     0.342808     0.565597 
    0.707188     0.497580     0.462460 
    0.316469     0.491136     0.464291 
    0.498155     0.555751     0.648257 
    0.707275     0.464469     0.574567 
    0.533596     0.424682     0.356638 
EA22284 14.919 14.488 13.474 90.00 90.00 90.00 Sym.group:    0
1.0
   14.919331     0.000000     0.000000
    0.000000    14.488381     0.000000
    0.000000     0.000000    13.474345
   W   B
  14   6
Direct
    0.610596     0.645412     0.460076 
    0.552719     0.462736     0.310160 
    0.438210     0.668825     0.406389 
    0.668507     0.441282     0.584871 
    0.505345     0.497909     0.489099 
    0.342759     0.651733     0.544696 
    0.493071     0.321205     0.392412 
    0.373206     0.314845     0.564929 
    0.586765     0.575945     0.649665 
    0.332319     0.472965     0.579628 
    0.355947     0.402849     0.398466 
    0.546320     0.314362     0.567050 
    0.693714     0.512676     0.410339 
    0.476990     0.428706     0.671894 
    0.491710     0.653662     0.557624 
    0.437298     0.577000     0.636909 
    0.617878     0.388688     0.441215 
    0.423779     0.531295     0.344024 
    0.346477     0.550412     0.432457 
    0.706389     0.587494     0.558095 
EA22623 15.122 14.766 13.549 90.00 90.00 90.00 Sym.group:    0
1.0
   15.122421     0.000000     0.000000
    0.000000    14.766427     0.000000
    0.000000     0.000000    13.548755
   W   B
  11   9
Direct
    0.385622     0.624449     0.428785 
    0.315133     0.471750     0.471038 
    0.501492     0.510014     0.516560 
    0.533828     0.324555     0.477377 
    0.648629     0.450736     0.408453 
    0.657731     0.627154     0.453659 
    0.331752     0.593135     0.596561 
    0.543013     0.566729     0.334509 
    0.398684     0.341687     0.382022 
    0.588966     0.633083     0.614626 
    0.507443     0.378399     0.651932 
    0.418308     0.488661     0.356357 
    0.518769     0.667315     0.465080 
    0.626159     0.407948     0.564593 
    0.510746     0.421402     0.348738 
    0.601515     0.487979     0.652684 
    0.666144     0.513624     0.553420 
    0.453591     0.658193     0.569101 
    0.406733     0.372643     0.536888 
    0.385742     0.460542     0.617619 
EA23038 15.321 14.503 13.937 90.00 90.00 90.00 Sym.group:    0
1.0
   15.321352     0.000000     0.000000
    0.000000    14.503233     0.000000
    0.000000     0.000000    13.936737
   W   B
  13   6
Direct
    0.498982     0.619824     0.343776 
    0.624686     0.634915     0.599248 
    0.506198     0.702015     0.521140 
    0.433615     0.570306     0.638851 
    0.364985     0.627742     0.458602 
    0.280994     0.539000     0.580917 
    0.677601     0.500271     0.510360 
    0.496806     0.505457     0.492361 
    0.340062     0.469463     0.410584 
    0.370388     0.401266     0.579996 
    0.477502     0.449146     0.305303 
    0.439451     0.321033     0.408374 
    0.593344     0.361055     0.423416 
    0.607628     0.618789     0.442782 
    0.579812     0.499959     0.638257 
    0.504285     0.344202     0.547540 
    0.598142     0.399116     0.578340 
    0.500686     0.421028     0.643053 
    0.604834     0.515413     0.377100 
EA23249 14.714 14.096 13.870 90.00 90.00 90.00 Sym.group:    0
1.0
   14.714002     0.000000     0.000000
    0.000000    14.095782     0.000000
    0.000000     0.000000    13.870054
   W   B
  11  10
Direct
    0.560024     0.507530     0.681795 
    0.417477     0.405707     0.650599 
    0.580935     0.363544     0.581569 
    0.485445     0.508817     0.499302 
    0.310704     0.382436     0.515767 
    0.323212     0.526717     0.411065 
    0.463359     0.649031     0.379412 
    0.521343     0.670646     0.577578 
    0.553659     0.375988     0.387825 
    0.359553     0.667231     0.517142 
    0.633981     0.629546     0.453309 
    0.451503     0.338606     0.498380 
    0.337682     0.521509     0.574130 
    0.453726     0.493507     0.337329 
    0.652464     0.597903     0.603934 
    0.678921     0.387699     0.474287 
    0.655288     0.486088     0.412845 
    0.563480     0.529876     0.353758 
    0.665156     0.492355     0.546471 
    0.407258     0.397335     0.397209 
    0.424829     0.567929     0.646292 
EA23667 15.174 13.883 13.849 90.00 90.00 90.00 Sym.group:    0
1.0
   15.174370     0.000000     0.000000
    0.000000    13.882761     0.000000
    0.000000     0.000000    13.848588
   W   B
  11   9
Direct
    0.408110     0.348653     0.565456 
    0.325681     0.502715     0.529493 
    0.504059     0.504195     0.498067 
    0.534538     0.639713     0.388674 
    0.483508     0.351587     0.397814 
    0.657562     0.470769     0.598552 
    0.319800     0.353024     0.417144 
    0.376288     0.514700     0.358464 
    0.391692     0.674281     0.454946 
    0.541953     0.581202     0.675282 
    0.691361     0.538542     0.445139 
    0.425837     0.491814     0.649405 
    0.416044     0.608332     0.600468 
    0.519257     0.424800     0.647800 
    0.600053     0.459216     0.359139 
    0.559274     0.356176     0.551959 
    0.506225     0.491280     0.313962 
    0.507566     0.670575     0.548816 
    0.620335     0.396515     0.459080 
    0.610858     0.621911     0.540341 
EA23904 14.677 14.314 14.330 90.00 90.00 90.00 Sym.group:    0
1.0
   14.676907     0.000000     0.000000
    0.000000    14.314221     0.000000
    0.000000     0.000000    14.329646
   W   B
  11  10
Direct
    0.574632     0.620672     0.375264 
    0.422340     0.544762     0.331990 
    0.576384     0.449576     0.348352 
    0.488750     0.507185     0.507259 
    0.304414     0.445682     0.410378 
    0.321864     0.475570     0.580132 
    0.467988     0.527758     0.685759 
    0.541702     0.680430     0.553703 
    0.536661     0.326368     0.498109 
    0.381409     0.646382     0.595546 
    0.633711     0.551657     0.620810 
    0.442300     0.391166     0.394018 
    0.345597     0.579959     0.461944 
    0.440627     0.387919     0.611730 
    0.667107     0.624111     0.493319 
    0.663732     0.385049     0.444641 
    0.641777     0.418417     0.552740 
    0.552941     0.411339     0.624656 
    0.663700     0.509222     0.464257 
    0.392662     0.363701     0.503339 
    0.439702     0.653072     0.442056 
EA24421 14.943 13.799 14.110 90.00 90.00 90.00 Sym.group:    0
1.0
   14.942861     0.000000     0.000000
    0.000000    13.799308     0.000000
    0.000000     0.000000    14.109959
   W   B
  12   6
Direct
    0.372280     0.448998     0.380966 
    0.403049     0.349951     0.547702 
    0.278243     0.466080     0.525912 
    0.389538     0.525839     0.646587 
    0.354498     0.614262     0.472561 
    0.461996     0.676404     0.600557 
    0.531868     0.387312     0.658682 
    0.506002     0.507993     0.507906 
    0.586783     0.329408     0.504879 
    0.610061     0.604256     0.384105 
    0.552551     0.450182     0.334257 
    0.577977     0.572443     0.663439 
    0.489624     0.663075     0.440805 
    0.462013     0.576202     0.359351 
    0.474237     0.345000     0.415551 
    0.644790     0.454119     0.574692 
    0.652802     0.564901     0.527210 
    0.651686     0.463576     0.454837 
EA24764 14.755 13.963 14.120 90.00 90.00 90.00 Sym.group:    0
1.0
   14.754708     0.000000     0.000000
    0.000000    13.963280     0.000000
    0.000000     0.000000    14.119999
   W   B
  12   6
Direct
    0.627681     0.499659     0.369337 
    0.584655     0.337468     0.470306 
    0.720432     0.436036     0.504917 
    0.608495     0.441302     0.637913 
    0.657513     0.596987     0.527427 
    0.546592     0.600924     0.670256 
    0.454889     0.327275     0.584624 
    0.495266     0.504717     0.509810 
    0.398179     0.359478     0.425189 
    0.402119     0.658332     0.450516 
    0.447388     0.543050     0.332570 
    0.421593     0.491066     0.678719 
    0.526363     0.668730     0.524346 
    0.549200     0.629726     0.411679 
    0.515493     0.403005     0.351438 
    0.348764     0.438288     0.546922 
    0.350134     0.558129     0.557421 
    0.345244     0.505830     0.446609 
EA24863 15.539 14.827 14.213 90.00 90.00 90.00 Sym.group:    0
1.0
   15.538923     0.000000     0.000000
    0.000000    14.827429     0.000000
    0.000000     0.000000    14.212862
   W   B
  14   8
Direct
    0.599105     0.344974     0.472942 
    0.723893     0.433428     0.533513 
    0.689353     0.461816     0.366345 
    0.575867     0.659646     0.526773 
    0.533696     0.426948     0.335519 
    0.481913     0.499322     0.509735 
    0.591583     0.415694     0.639803 
    0.427794     0.424766     0.685326 
    0.346506     0.381418     0.534266 
    0.514991     0.569585     0.670367 
    0.333964     0.543407     0.599319 
    0.422677     0.686617     0.583406 
    0.323740     0.643346     0.457974 
    0.571238     0.583875     0.364426 
    0.645749     0.545542     0.593501 
    0.457247     0.347816     0.445575 
    0.332046     0.502943     0.442206 
    0.397505     0.429210     0.393344 
    0.420047     0.547675     0.372080 
    0.672312     0.560719     0.476190 
    0.480805     0.342368     0.564292 
    0.457972     0.648885     0.433098 
EA25443 14.782 13.940 13.901 90.00 90.00 90.00 Sym.group:    0
1.0
   14.781921     0.000000     0.000000
    0.000000    13.939671     0.000000
    0.000000     0.000000    13.901242
   W   B
  12   6
Direct
    0.368935     0.517059     0.624307 
    0.406806     0.656863     0.492747 
    0.276955     0.545195     0.473686 
    0.393962     0.525067     0.345051 
    0.350442     0.388050     0.485113 
    0.464420     0.366364     0.347121 
    0.542376     0.655971     0.383398 
    0.505638     0.492889     0.489740 
    0.590116     0.657983     0.552811 
    0.604343     0.361778     0.584686 
    0.542546     0.495536     0.677087 
    0.586096     0.480151     0.324088 
    0.485403     0.326916     0.507063 
    0.453975     0.384716     0.610072 
    0.471219     0.627221     0.630143 
    0.650419     0.561722     0.449155 
    0.655802     0.442030     0.461528 
    0.650547     0.514488     0.562202 
EA25686 15.786 14.608 14.177 90.00 90.00 90.00 Sym.group:    0
1.0
   15.786352     0.000000     0.000000
    0.000000    14.608153     0.000000
    0.000000     0.000000    14.176708
   W   B
  12   8
Direct
    0.542016     0.547414     0.321603 
    0.498652     0.676685     0.428885 
    0.650916     0.384620     0.518121 
    0.571463     0.640664     0.595333 
    0.506823     0.307787     0.491875 
    0.381480     0.401728     0.548635 
    0.468838     0.527441     0.667471 
    0.429749     0.419810     0.362956 
    0.374123     0.571044     0.423036 
    0.516712     0.496334     0.502009 
    0.534653     0.360461     0.647661 
    0.699540     0.543230     0.543371 
    0.618927     0.606721     0.440590 
    0.577714     0.405767     0.385152 
    0.608723     0.489790     0.638033 
    0.432065     0.631713     0.559688 
    0.283266     0.501275     0.513933 
    0.352550     0.553615     0.580944 
    0.305564     0.437697     0.422681 
    0.646224     0.496206     0.408023 
EA25995 15.463 13.648 14.779 90.00 90.00 90.00 Sym.group:    0
1.0
   15.462972     0.000000     0.000000
    0.000000    13.647993     0.000000
    0.000000     0.000000    14.778599
   W   B
  11   9
Direct
    0.516889     0.684585     0.462915 
    0.559074     0.483791     0.669161 
    0.484506     0.343179     0.616976 
    0.630691     0.361899     0.542142 
    0.664624     0.633993     0.454918 
    0.511729     0.494115     0.499029 
    0.373077     0.488065     0.601174 
    0.247706     0.464018     0.487831 
    0.377690     0.527910     0.400122 
    0.558792     0.560926     0.345397 
    0.381284     0.360574     0.469804 
    0.591684     0.623086     0.581939 
    0.484897     0.614587     0.606963 
    0.660981     0.479938     0.441415 
    0.402340     0.628201     0.533368 
    0.654758     0.516999     0.559784 
    0.301050     0.595344     0.515729 
    0.591565     0.401858     0.395501 
    0.485336     0.408253     0.366095 
    0.521327     0.328678     0.449736 
EA26198 14.905 14.902 14.332 90.00 90.00 90.00 Sym.group:    0
1.0
   14.904728     0.000000     0.000000
    0.000000    14.901702     0.000000
    0.000000     0.000000    14.332019
   W   B
  13  10
Direct
    0.631836     0.496154     0.565438 
    0.485811     0.469446     0.688074 
    0.335153     0.651092     0.497925 
    0.465148     0.497267     0.500653 
    0.509665     0.673067     0.526318 
    0.421775     0.607619     0.361190 
    0.396850     0.606733     0.647021 
    0.305938     0.477408     0.578390 
    0.405120     0.426423     0.339906 
    0.570894     0.375704     0.418656 
    0.678228     0.521647     0.381067 
    0.413358     0.316183     0.461285 
    0.541171     0.332469     0.597613 
    0.316808     0.521012     0.427169 
    0.560963     0.606217     0.403296 
    0.636530     0.639625     0.591640 
    0.650467     0.624191     0.478553 
    0.553802     0.597928     0.654501 
    0.299363     0.412893     0.441858 
    0.535645     0.505493     0.345271 
    0.666937     0.346399     0.534540 
    0.712439     0.412835     0.459172 
    0.406098     0.382194     0.600466 
EA26765 15.849 14.191 13.857 90.00 90.00 90.00 Sym.group:    0
1.0
   15.848927     0.000000     0.000000
    0.000000    14.190927     0.000000
    0.000000     0.000000    13.856630
   W   B
  13   6
Direct
    0.456001     0.683121     0.479815 
    0.596345     0.608648     0.392114 
    0.605452     0.618005     0.572253 
    0.737180     0.565411     0.472766 
    0.643974     0.438712     0.392128 
    0.442468     0.595345     0.330832 
    0.410290     0.327496     0.431977 
    0.427365     0.341602     0.598742 
    0.318048     0.452543     0.533242 
    0.490596     0.488978     0.480800 
    0.587390     0.348570     0.528699 
    0.708816     0.452211     0.585860 
    0.558731     0.481899     0.658380 
    0.355356     0.579527     0.449909 
    0.366530     0.474009     0.391452 
    0.376441     0.587599     0.567763 
    0.471498     0.600280     0.619652 
    0.417572     0.494750     0.635307 
    0.529950     0.361291     0.378311 
EA26945 15.926 14.036 14.496 90.00 90.00 90.00 Sym.group:    0
1.0
   15.925586     0.000000     0.000000
    0.000000    14.035919     0.000000
    0.000000     0.000000    14.495599
   W   B
  11  10
Direct
    0.513638     0.546464     0.695232 
    0.484106     0.379925     0.646470 
    0.637305     0.398293     0.514145 
    0.491090     0.485353     0.507155 
    0.591885     0.508936     0.363028 
    0.628115     0.578934     0.574473 
    0.363443     0.542679     0.617268 
    0.286814     0.636008     0.513307 
    0.336600     0.499199     0.429669 
    0.404260     0.328472     0.436948 
    0.545403     0.660475     0.440046 
    0.519805     0.315989     0.506149 
    0.606980     0.443206     0.648830 
    0.704985     0.513453     0.457215 
    0.673388     0.620355     0.430980 
    0.537745     0.370076     0.403987 
    0.480561     0.633676     0.574629 
    0.365742     0.404574     0.552926 
    0.453098     0.562780     0.369393 
    0.462069     0.441129     0.352311 
    0.412968     0.630023     0.465841 
EA27282 14.702 14.339 14.088 90.00 90.00 90.00 Sym.group:    0
1.0
   14.701789     0.000000     0.000000
    0.000000    14.338978     0.000000
    0.000000     0.000000    14.087794
   W   B
  14   7
Direct
    0.563857     0.317634     0.514517 
    0.587649     0.403402     0.351125 
    0.514427     0.507224     0.497586 
    0.624269     0.661116     0.482639 
    0.429729     0.486453     0.319552 
    0.433246     0.665283     0.414906 
    0.296562     0.561794     0.410865 
    0.320708     0.625782     0.567371 
    0.488612     0.688220     0.581098 
    0.405086     0.351898     0.571863 
    0.519860     0.382851     0.690322 
    0.561212     0.595148     0.327024 
    0.412786     0.511909     0.667989 
    0.577373     0.563445     0.662866 
    0.661588     0.424982     0.481982 
    0.630526     0.430509     0.597127 
    0.661472     0.522554     0.418529 
    0.456258     0.365173     0.416877 
    0.670413     0.529173     0.541593 
    0.360539     0.426189     0.441947 
    0.323831     0.479264     0.542220 
EA27808 14.632 14.392 14.117 90.00 90.00 90.00 Sym.group:    0
1.0
   14.631869     0.000000     0.000000
    0.000000    14.392353     0.000000
    0.000000     0.000000    14.116680
   W   B
  11   7
Direct
    0.497643     0.499601     0.492618 
    0.645776     0.458899     0.597314 
    0.493249     0.457673     0.307554 
    0.463654     0.664028     0.574619 
    0.447726     0.606325     0.356962 
    0.637409     0.415186     0.407704 
    0.322617     0.355114     0.579730 
    0.327522     0.457520     0.440748 
    0.367863     0.519423     0.622575 
    0.439272     0.336423     0.449278 
    0.483132     0.385040     0.641699 
    0.592941     0.558139     0.370509 
    0.565333     0.641748     0.456013 
    0.650819     0.553566     0.473059 
    0.601002     0.602569     0.570937 
    0.366494     0.597855     0.486489 
    0.526562     0.543115     0.648375 
    0.570987     0.347777     0.523819 
EA27966 15.315 15.001 14.035 90.00 90.00 90.00 Sym.group:    0
1.0
   15.315277     0.000000     0.000000
    0.000000    15.000832     0.000000
    0.000000     0.000000    14.035300
   W   B
  15   6
Direct
    0.518312     0.381745     0.641407 
    0.675793     0.387196     0.534957 
    0.388906     0.356555     0.534768 
    0.534348     0.323430     0.442539 
    0.526277     0.494297     0.502598 
    0.561098     0.661873     0.427686 
    0.424857     0.556155     0.364497 
    0.295569     0.462815     0.424072 
    0.369453     0.580339     0.541195 
    0.689575     0.541327     0.465507 
    0.492668     0.558897     0.676500 
    0.641873     0.481065     0.678532 
    0.410224     0.711578     0.444686 
    0.653033     0.404548     0.364080 
    0.625318     0.629681     0.595684 
    0.423553     0.406884     0.392219 
    0.517008     0.437994     0.337223 
    0.297633     0.458022     0.574155 
    0.579276     0.533032     0.348061 
    0.486645     0.669349     0.565206 
    0.388582     0.463217     0.644423 
EA28368 15.474 14.074 13.740 90.00 90.00 90.00 Sym.group:    0
1.0
   15.473882     0.000000     0.000000
    0.000000    14.074401     0.000000
    0.000000     0.000000    13.740476
   W   B
  11   9
Direct
    0.366390     0.523008     0.402511 
    0.542183     0.329639     0.581118 
    0.458921     0.609142     0.634148 
    0.386318     0.444447     0.597421 
    0.443062     0.671025     0.469080 
    0.512946     0.491716     0.481098 
    0.681613     0.546925     0.482537 
    0.689154     0.365685     0.488749 
    0.577418     0.331430     0.379036 
    0.608297     0.499704     0.328229 
    0.424556     0.334741     0.455842 
    0.299155     0.398477     0.474232 
    0.336671     0.594560     0.543733 
    0.276730     0.501055     0.520610 
    0.529582     0.470071     0.654726 
    0.572392     0.646067     0.535400 
    0.629506     0.452395     0.599458 
    0.574447     0.633483     0.412935 
    0.495454     0.590839     0.338740 
    0.595205     0.565593     0.620399 
EA28632 15.274 15.063 14.030 90.00 90.00 90.00 Sym.group:    0
1.0
   15.274305     0.000000     0.000000
    0.000000    15.062532     0.000000
    0.000000     0.000000    14.030382
   W   B
  12   9
Direct
    0.518465     0.410507     0.664288 
    0.398115     0.348519     0.569738 
    0.549526     0.317059     0.505525 
    0.514082     0.500594     0.508273 
    0.560724     0.640807     0.386434 
    0.431950     0.514534     0.344238 
    0.354143     0.579028     0.503110 
    0.685785     0.544675     0.474043 
    0.482821     0.596001     0.657351 
    0.631571     0.539096     0.663577 
    0.406796     0.677680     0.370374 
    0.621127     0.665717     0.555444 
    0.437831     0.376601     0.423128 
    0.533130     0.401498     0.373345 
    0.304948     0.457209     0.556596 
    0.584061     0.500350     0.358147 
    0.475020     0.664563     0.512915 
    0.390494     0.484439     0.631997 
    0.351716     0.441467     0.451217 
    0.639241     0.422435     0.558105 
    0.628450     0.417221     0.432155 
EA29113 15.118 13.879 13.667 90.00 90.00 90.00 Sym.group:    0
1.0
   15.117956     0.000000     0.000000
    0.000000    13.879362     0.000000
    0.000000     0.000000    13.667082
   W   B
  11   8
Direct
    0.495820     0.497996     0.503573 
    0.577591     0.670478     0.465480 
    0.665888     0.433619     0.540196 
    0.600571     0.552832     0.643702 
    0.637022     0.535622     0.382417 
    0.424931     0.325374     0.601076 
    0.392469     0.645662     0.442625 
    0.399409     0.487285     0.660356 
    0.320186     0.467648     0.500583 
    0.432082     0.345682     0.422802 
    0.450831     0.669831     0.599233 
    0.578886     0.389059     0.413302 
    0.513006     0.457371     0.336271 
    0.495832     0.581942     0.349327 
    0.542942     0.404659     0.638516 
    0.685411     0.598266     0.527831 
    0.555457     0.335039     0.526418 
    0.325387     0.600756     0.580965 
    0.406280     0.500880     0.365325 
EA29301 14.943 15.219 13.919 90.00 90.00 90.00 Sym.group:    0
1.0
   14.943150     0.000000     0.000000
    0.000000    15.219150     0.000000
    0.000000     0.000000    13.918520
   W   B
  12   9
Direct
    0.455184     0.619734     0.634043 
    0.324544     0.576114     0.541343 
    0.437320     0.671666     0.451115 
    0.509608     0.508414     0.507424 
    0.637954     0.400333     0.419171 
    0.458565     0.411832     0.360132 
    0.422586     0.355631     0.540017 
    0.682064     0.564219     0.467300 
    0.532960     0.450662     0.680335 
    0.623306     0.581700     0.655189 
    0.530226     0.279647     0.428975 
    0.694005     0.452220     0.585259 
    0.381547     0.543354     0.399887 
    0.477541     0.565985     0.346495 
    0.309942     0.436494     0.565737 
    0.577667     0.514170     0.352291 
    0.573159     0.362003     0.556158 
    0.393631     0.481493     0.636924 
    0.345562     0.450970     0.453774 
    0.569028     0.652604     0.520480 
    0.563600     0.620758     0.397948 
EA29541 16.279 14.566 14.283 90.00 90.00 90.00 Sym.group:    0
1.0
   16.278531     0.000000     0.000000
    0.000000    14.565507     0.000000
    0.000000     0.000000    14.283354
   W   B
  14  10
Direct
    0.295885     0.401438     0.506525 
    0.426952     0.333474     0.422223 
    0.499626     0.505993     0.499922 
    0.508418     0.411758     0.677783 
    0.372890     0.485694     0.652768 
    0.623232     0.532412     0.624309 
    0.640461     0.372095     0.576171 
    0.481627     0.444704     0.315871 
    0.326611     0.448732     0.346386 
    0.411098     0.596518     0.362811 
    0.323181     0.564371     0.507470 
    0.523705     0.703915     0.420277 
    0.651403     0.591548     0.461436 
    0.540196     0.680179     0.585935 
    0.418323     0.368616     0.572272 
    0.571805     0.379111     0.438803 
    0.515298     0.344218     0.538401 
    0.488411     0.563567     0.671055 
    0.723082     0.484361     0.530307 
    0.670869     0.436289     0.443880 
    0.421474     0.670165     0.505443 
    0.550565     0.576825     0.350853 
    0.414330     0.623186     0.613192 
    0.600556     0.480828     0.375906 
EA30154 14.306 13.799 14.154 90.00 90.00 90.00 Sym.group:    0
1.0
   14.305687     0.000000     0.000000
    0.000000    13.799241     0.000000
    0.000000     0.000000    14.154333
   W   B
  11   7
Direct
    0.435694     0.320098     0.459941 
    0.591198     0.393362     0.373035 
    0.568705     0.306827     0.563123 
    0.579455     0.471564     0.651863 
    0.688686     0.422727     0.506705 
    0.406023     0.599803     0.368351 
    0.502900     0.491966     0.489802 
    0.538325     0.645612     0.628038 
    0.400137     0.542817     0.646641 
    0.331479     0.449305     0.388531 
    0.560634     0.672043     0.450290 
    0.550272     0.549080     0.343900 
    0.642736     0.572659     0.535816 
    0.646611     0.546111     0.414344 
    0.444738     0.391335     0.613823 
    0.419497     0.640893     0.520521 
    0.356394     0.432774     0.541606 
    0.336516     0.551025     0.503668 
EA30289 15.733 14.237 14.159 90.00 90.00 90.00 Sym.group:    0
1.0
   15.733203     0.000000     0.000000
    0.000000    14.236756     0.000000
    0.000000     0.000000    14.158565
   W   B
  15   6
Direct
    0.594913     0.563515     0.344145 
    0.633496     0.544175     0.595197 
    0.493419     0.500471     0.503428 
    0.495384     0.677038     0.577516 
    0.445715     0.330752     0.581127 
    0.360387     0.625033     0.463051 
    0.431450     0.538129     0.319322 
    0.325351     0.463047     0.541491 
    0.409443     0.379103     0.398839 
    0.607436     0.355395     0.548291 
    0.284887     0.503094     0.370871 
    0.370580     0.601511     0.643616 
    0.516616     0.249278     0.448683 
    0.720585     0.589421     0.454228 
    0.574228     0.393154     0.370495 
    0.535131     0.436983     0.652806 
    0.427761     0.462309     0.656135 
    0.593299     0.636786     0.477483 
    0.494687     0.643283     0.418308 
    0.504897     0.552034     0.668465 
    0.680332     0.455490     0.466504 
