14
F:    ...  E:  0
W   9.41560738095344   9.50918483915561   8.07169329430313
B   10.24901790874106   9.27356129201978   10.43003319253894
B   10.87851715259137   8.26727436547528   9.15276043536857
B   7.89802060586428   8.36754296217719   9.18551130483143
B   10.26798300016131   10.97010054602232   9.46939212299589
B   11.36412435989622   9.79827190968198   9.27290638886052
B   8.62113109761519   9.33881851087519   10.44655161155832
B   7.51149544163068   9.92648084653965   9.31582307845808
B   8.68476974346855   11.02615003682606   9.47836901896002
B   9.37247790040553   7.78575928255458   9.44010414345258
N   9.39517785150257   9.67657611746105   5.81155153649245
H   10.06353099483680   10.37939675545918   5.47626144846542
H   9.63710969309252   8.78440115484989   5.36507082341915
H   8.47091861337873   9.95023242755080   5.46183988557496
14
F:    ...  E:  0.0120568300000059
W   9.50701349620058   9.47522908510342   8.12822306185268
B   10.27459447424205   9.16470506691026   10.53217892817307
B   10.92534213868938   8.20673423866934   9.27248124349666
B   7.96039910252971   8.38501150649363   9.24147315049634
B   10.28083773659965   10.91313037486336   9.59976963046331
B   11.37112903495567   9.74833593880074   9.37271872079712
B   8.67829478285858   9.47985091320940   10.47244246442479
B   7.52654877818459   9.93918509729262   9.33358891678543
B   8.70900855497831   11.04509392925908   9.42304723551648
B   9.39679429917602   7.75811643774107   9.51983700820300
N   9.23770159971414   9.82658922669549   5.89869802195834
H   10.03118449394041   10.34892030861300   5.51343702113232
H   9.11215407944065   8.99041074040576   5.33293782512369
H   8.39761180776787   10.40508599995557   5.72498049968278
14
F:    ...  E:  0.0429930399999989
W   9.55386619656249   9.42440236131345   8.15876985588530
B   10.24835070312968   9.08108093977160   10.57674813872788
B   10.95671382746836   8.14294041259907   9.36303593920663
B   8.01362613473339   8.38886955737923   9.32569620176374
B   10.26450503055617   10.84993233356946   9.66901676007908
B   11.36094790487036   9.69888455858627   9.41389404194143
B   8.73773198237660   9.67665297462377   10.49174689219110
B   7.54589046096732   9.93584562894522   9.32591339734997
B   8.71277281836484   11.05988512382256   9.35726348254127
B   9.41979811648780   7.68529709072318   9.50947243171635
N   9.13874440641651   9.94730406610367   5.99951372389813
H   9.94427399749721   10.34025178080824   5.48987975624578
H   8.67257748877486   9.28053220702774   5.37632858966132
H   8.48246311187888   10.70967982411896   6.14424257453630
14
F:    ...  E:  1.39988239
W   9.45820728260456   9.53364899741959   7.94709955871682
B   10.23333643086134   9.18295017418009   10.47195580732810
B   10.87274068175733   8.21685822266576   9.23219949838992
B   7.95574542275195   8.40814724105470   9.20792149463835
B   10.25720240226846   10.96901880179488   9.46838426534174
B   11.28771431421885   9.77598845165748   9.29495028804744
B   8.65158179668959   9.57011630468915   10.45533807861321
B   7.56259220324090   9.95086719004618   9.28252561974847
B   8.68443573000962   11.09227146437371   9.38734885791870
B   9.37089604488117   7.71183341789707   9.28600369227514
N   9.73344505072532   9.52467881273449   5.91068375196047
H   10.05044391958391   10.36149549760300   5.41405746064936
H   9.00760157494421   9.08252906089273   5.33097266805362
H   8.25396886829896   10.34910009214408   6.74368542174114
14
F:    ...  E:  0.57415632
W   9.37069266039535   9.51051172109998   7.86998860820239
B   10.23769435815924   9.28384427674187   10.29139845305985
B   10.90306332796121   8.26882129869707   9.13801406532790
B   7.86648102586249   8.43807781181855   9.09138686054218
B   10.22580104999157   10.98191006211433   9.34353915850050
B   11.29682362129162   9.81298769348223   9.11601307782453
B   8.61399848752880   9.28806943682818   10.36873453911425
B   7.45187523866843   9.98047580068348   9.41295148727944
B   8.63901430589001   11.05667933305605   9.56849252168848
B   9.33515638151074   7.87361542507367   9.47039640211464
N   9.70152845111519   9.41965565122483   5.93172923589081
H   9.97690387224015   10.25721738414048   5.39806244957440
H   9.16626871134338   8.77986571784969   5.33191047653202
H   8.51423669399003   10.89847489782392   7.28899908952875
14
F:    ...  E:  0.132421969999996
W   9.38370213411791   9.47485868347234   7.90768254333489
B   10.29590852810442   9.23207218014748   10.35485276399664
B   10.88382038889688   8.26581954993230   9.13209646202900
B   7.86347411182216   8.39286231170568   9.16359764451257
B   10.18328390872896   10.87370836829112   9.59873409866976
B   11.30983748823681   9.80295153224749   9.10880427875428
B   8.69143203284869   9.50611804750398   10.28334424548869
B   7.41041113719326   9.92937453586150   9.35814161620551
B   8.59568317772870   11.09718269958070   9.27792829962736
B   9.33016709427564   7.88705415016228   9.50509507309134
N   9.46841645217676   9.44849720242914   5.93106400018625
H   9.86891066846688   10.25765627220608   5.43184574280845
H   9.02426689613640   8.82441521219512   5.25061697555254
H   8.72036719720945   11.26289958857713   7.95067434069013
14
F:    ...  E:  -0.0528551099999959
W   9.40202483514180   9.40038107533638   7.94084733469470
B   10.23776631112466   9.23265490175988   10.41562578106533
B   10.84929108483370   8.14804483456981   9.27507274122197
B   7.94049763725561   8.21575254783721   9.09765317280204
B   10.16532079823639   10.79900136631278   9.57208977419015
B   11.25801021435649   9.71855078635209   9.12513887175453
B   8.78836121374867   10.06453311358191   10.43939127021182
B   7.59529356647492   9.73281243244215   9.37119982311555
B   8.60322139106443   11.09566221479952   9.03980871119868
B   9.36473425017134   7.60285558367702   9.30759040329843
N   9.43523194010779   9.47158598430570   5.96931105154504
H   9.86321881380559   10.27118864647199   5.48334396829949
H   9.00631360828570   8.85290849679845   5.28305231921292
H   8.50388678992404   11.67433075685162   7.97306878710097
14
F:    ...  E:  -1.25821772
W   9.47909618341149   9.23633152306255   7.88232988755038
B   9.98100785372903   9.12549263091478   10.29714147834587
B   11.00328964294009   8.06626538557070   9.40598884904378
B   8.19102359243895   8.26504677787780   9.51372235228843
B   10.10425207178199   10.73471931287360   9.42584515219148
B   11.24203402620575   9.63516255482572   9.18670333510607
B   8.66130594480833   10.13369778815552   10.18090773182368
B   7.63315781716248   9.64228416677909   8.98650560835716
B   8.58945742701315   11.08250907101257   8.69771409333701
B   9.57563855946914   7.47670806016610   9.52382978455599
N   9.53565575607113   9.40211956868122   5.92170308979209
H   9.88331095664779   10.27872907791901   5.51330784884862
H   9.08892440511359   8.84703307162308   5.19677613116266
H   8.24725453609762   12.05045077485703   8.08643922920567
14
F:    ...  E:  -1.51256425
W   9.39849814282898   9.35358168844070   7.91452956779521
B   9.96810617508349   9.01991559938468   10.25879733620581
B   10.95998436799028   8.04709807681238   9.26922721927033
B   8.24003083585402   8.40063823800170   9.70303385020579
B   10.14066750545122   10.73893904646264   9.53125299050312
B   11.23154140363779   9.62572239502062   9.19167262074513
B   8.70505969829226   10.09925148810120   10.29509534872932
B   7.63959419175218   9.75403444685507   9.07882798791911
B   8.60173852571432   11.21376881080892   8.97120284646247
B   9.52177206425458   7.47908277717590   9.41156407983136
N   9.40697565593086   9.48018489079906   5.94826525508254
H   9.92021447317655   10.21575066559410   5.45344101147308
H   8.77450163022748   9.02271820766925   5.29492821761488
H   8.18640363078864   12.30726650007858   8.71731849423760
14
F:    ...  E:  -1.55985414
W   9.29522465272891   9.54060193238648   7.99189660249465
B   9.98832326914260   8.95480329526004   10.23869862751539
B   10.87384417760460   8.06315662115284   9.08574081431494
B   8.20445942239322   8.47220200989070   9.73305042968319
B   10.19990838972775   10.74438573568744   9.69709738487075
B   11.20832481216197   9.63160035998153   9.15354177372537
B   8.79068605191734   10.07901218166640   10.48426855877622
B   7.63599261226229   9.91228775767818   9.31335968648008
B   8.64545682593536   11.33099762939952   9.30024218350875
B   9.42092437745358   7.53409706822436   9.26524852995816
N   9.23190961748746   9.60513193436684   6.02533133542531
H   9.87752338687698   10.13193476589293   5.43484749798964
H   8.51056328048749   9.17474675594388   5.44399492848442
H   8.23391066712166   12.45107459143650   9.22743548361098
