21
F:    ...  E:  0
W   9.63603806533698   9.63689311494317   9.92021253025982
B   10.55040163165423   11.64188799327479   10.41567372364503
B   8.85411315490061   11.73086971708752   10.39925601057367
B   11.68863073095995   10.39880386714201   10.42514855213369
B   11.65063505532712   8.70221855435016   10.41360244819399
B   11.77359691956876   9.59169325405821   8.81972117829082
B   9.74975617883901   11.69697889515324   8.79476841199281
B   8.25963664023149   11.09736682759998   8.79083107022478
B   11.25879010323314   11.11939394786788   8.83671236026366
B   8.72602729634278   7.63813880943403   10.43558437208063
B   10.42348387678029   7.53550701854626   10.40330916035226
B   7.58593832693423   8.88129437147807   10.43958318614581
B   7.61400890620583   10.57905529120810   10.40824223478016
B   9.51598467994505   7.57301748244305   8.81338499764050
B   8.00092754363214   8.13731538203095   8.85986456481503
B   7.50293326834867   9.67073074809461   8.82725244766520
B   11.00973865713084   8.16947576065909   8.79749378631285
N   9.63766170424954   9.63982854464282   12.32464118219585
H   10.31406968333875   10.31500672311807   12.68985691736955
H   8.71561226621553   9.88778941431082   12.69001167356218
H   9.88627264417721   8.71661418125740   12.68661603784127
21
F:    ...  E:  0.027798279999999
W   9.57806343214934   9.61525519518016   9.87779004526348
B   10.44926860911273   11.62344243366053   10.44785478388544
B   8.75897772494945   11.70123314450453   10.35808021474899
B   11.59902318791549   10.38190016323478   10.48678056263886
B   11.57622236397159   8.69083558050961   10.44123341943594
B   11.77791248555059   9.60558093344459   8.87163317055920
B   9.71841411749148   11.67549000033478   8.78792285198313
B   8.22828231526452   11.08482581638434   8.71997287312453
B   11.23101707905814   11.12084384295498   8.89006461949795
B   8.67296389695234   7.58927092166734   10.32428044589504
B   10.37151305094133   7.50661453138669   10.35457742821482
B   7.52405219116095   8.82934391308560   10.30500759646417
B   7.53191310162080   10.53378706825108   10.30382816753943
B   9.53090104708025   7.58704953561161   8.73223849661308
B   8.01218018177866   8.13465211328043   8.73370791589810
B   7.47618101183475   9.65267244757907   8.71367468004574
B   11.02004935733343   8.18101236904912   8.77926156595864
N   9.42004127148305   9.55979463052983   12.29494042279980
H   9.91393775194647   10.31009958226144   12.77151416009834
H   8.43997708036633   9.63978342257925   12.52964629230075
H   9.75982933524866   8.67298245300458   12.64612918586895
21
F:    ...  E:  0.0848522499999973
W   9.52020274713995   9.60048491432016   9.84403378891574
B   10.36081784161440   11.60715828876209   10.47302177104346
B   8.67523509551696   11.67227611020293   10.32506546389674
B   11.51751693924768   10.37045420416831   10.53399431371442
B   11.49788356762097   8.68360844531534   10.46907075394798
B   11.76403022994817   9.60733269994230   8.91397476384208
B   9.68420923662745   11.67499840052223   8.78656141584721
B   8.19407596429313   11.09952342679267   8.65466103605859
B   11.18975652384662   11.11104735255742   8.92195816528556
B   8.60910577026467   7.55532079002517   10.21965129809811
B   10.31038790192102   7.49396857167027   10.32937009420491
B   7.44832925041162   8.79045480096149   10.16119998025821
B   7.46089199374531   10.49834109512161   10.20077701572027
B   9.54587524964371   7.58456691305833   8.67364214286102
B   8.04146102623944   8.15051082642410   8.60805518672537
B   7.46937685105269   9.65621059109886   8.59162064796213
B   11.03039309082934   8.17494911893539   8.78085587469753
N   9.20895111312459   9.46534491664325   12.25938577021428
H   9.48481855938503   10.25547964682253   12.84010607993777
H   8.20238369813434   9.36916845746296   12.34076608089555
H   9.63370784172310   8.62022197676821   12.63109465029291
21
F:    ...  E:  0.687358570000001
W   9.53719311417838   9.63188977324431   9.87971087188180
B   10.43692461876018   11.63058610840777   10.45965038615334
B   8.74753333104058   11.68711679171038   10.36912638982816
B   11.58930734029441   10.41861020491329   10.49133895570266
B   11.52538695287924   8.71371958532322   10.46496343806580
B   11.67787523532760   9.57041091911478   8.86760494383298
B   9.67126489742788   11.82828639547045   8.79707615301328
B   8.19376141769909   11.22461026621450   8.69450255785522
B   11.09787898917009   11.05915260163881   8.83608001290897
B   8.59928136338924   7.60741884495136   10.31415773965290
B   10.30167426753769   7.57535593565005   10.42444324113487
B   7.38471497691220   8.83752196243468   10.24180772700745
B   7.47461717636273   10.59252383950739   10.24455316997116
B   9.53010165244493   7.46752288774074   8.77441843528764
B   8.07493401732919   8.19063750730278   8.72484750788722
B   7.59033133306572   9.70474933506745   8.68899336496122
B   11.00328313755781   8.09413881920395   8.81635795556242
N   9.11643072332509   9.32747205082614   12.12545991286329
H   9.12672663337568   10.16643086182741   12.72294372407212
H   8.15511274967950   8.98036237591033   11.95484656645882
H   9.66180423648993   8.60000998606140   12.50139442783456
21
F:    ...  E:  1.90604619
W   9.57869987042993   9.63241249335785   9.91133517654006
B   10.48777054266799   11.66248416149847   10.40374703528768
B   8.80151035396489   11.75643100599296   10.34779467359312
B   11.67070262343876   10.43835522043978   10.43186622814109
B   11.59301242648374   8.72214880899784   10.42590367043025
B   11.78214938385638   9.60161943529610   8.89087650022278
B   9.72429503430397   11.71584819833812   8.73447711697710
B   8.24528735072380   11.15148650275959   8.74188879511206
B   11.23971558107178   11.11052551993483   8.86881777971402
B   8.74168997062823   7.49905363540895   10.31011315496734
B   10.38013460986723   7.52628884765763   10.37519096078474
B   7.56579549144860   8.87653716227452   10.56994118212608
B   7.52857107397710   10.72129251384556   10.25929205936216
B   9.55299173015937   7.56410646284191   8.78910857224216
B   7.98219994601788   8.16683619842719   8.91739089242414
B   7.44215625862854   9.67108398357991   8.91741959451516
B   11.02660438833121   8.15074276601640   8.77982894718937
N   9.50287504018734   9.50474135668209   12.07135561710844
H   9.42384588286018   10.26119046171917   12.75665686662488
H   7.46963236072953   8.91091287540564   11.78753038537221
H   9.67909875361065   8.61149463524976   12.53357985210507
21
F:    ...  E:  0.702287509999991
W   9.67090437047931   9.64179620941236   10.10478593854767
B   10.67556664473450   11.68213372765511   10.31288645048054
B   9.01054152702885   11.84307568424206   10.39267424101945
B   11.81172373721426   10.42733772528446   10.25642180048763
B   11.74238567060583   8.73243085073550   10.29001715012875
B   11.81140128224071   9.59780617990739   8.71433971782315
B   9.79658569675227   11.62401263682498   8.64321443639861
B   8.31560026446881   11.15190154852316   8.81313808336503
B   11.28854056873159   11.09784220889106   8.73158991627123
B   8.99686414672158   7.37086420443946   10.40040764908201
B   10.59679796966844   7.53573741983366   10.40538536980203
B   7.31611534161380   9.01753150906622   10.67691745169033
B   7.68950601912889   10.88103130196798   10.39549297170679
B   9.56541832440557   7.59617988816766   8.84351470726079
B   8.03620996348095   8.18778754198824   9.32182779320971
B   7.51275451546524   9.73247355146020   9.14893743808978
B   10.95791765820272   8.25219413707813   8.58835537877537
N   9.50276727178684   9.54095956331012   12.12091211626567
H   9.37591491956440   10.33944232933181   12.75840226500161
H   6.91437025488239   8.69065971752788   11.76915688123371
H   9.80990481935988   8.68069561699347   12.59187564700208
21
F:    ...  E:  -0.519220470000008
W   9.75476809925195   9.67872440615450   9.81367886929751
B   10.82270300459574   11.66397539387369   10.26457398779904
B   9.17804889504300   11.92916750661073   10.32597791526205
B   11.87973397414191   10.40797393548485   10.22428184472304
B   11.81686018905732   8.75148449282100   10.24510590672435
B   11.83032536432280   9.57894277121331   8.60102438044265
B   9.87406656294728   11.70834372098723   8.65276683860311
B   8.36586404809550   11.18206836232228   8.94590747727648
B   11.36794557643292   11.09734355338503   8.63580199016129
B   9.07611909088396   7.32442808702250   10.57822473397622
B   10.68536063641980   7.55682207661582   10.36582774343244
B   7.91151646664810   9.24693116806140   11.32925606377474
B   7.82116861601874   11.02975186709545   10.54577945740997
B   9.55810601923599   7.59570023697572   8.99825178306113
B   8.01419777529444   8.18058424861106   9.67013004858097
B   7.50411293396946   9.73990303327507   9.53810814432457
B   11.00428165158520   8.18011684560726   8.61989224304635
N   9.33495654706449   9.53437002701461   11.96167359361499
H   9.39625653127170   10.38186718119710   12.53558065890804
H   6.97894890953856   8.70883925263921   11.82292676697164
H   9.89333171395110   8.77511005608224   12.38394309292877
21
F:    ...  E:  -1.02428825
W   9.66673629822367   9.60786725634995   9.80545185218963
B   10.68755342012573   11.65797275000578   10.32044155771986
B   9.05716308887993   11.87857747187836   10.29102943916457
B   11.73177156705378   10.41609572896988   10.33086689817288
B   11.74425235434388   8.72454237231908   10.28754489841511
B   11.93274288539595   9.61520363500951   8.73420014201664
B   9.79198193801591   11.63595952538887   8.67864174374805
B   8.24400170549595   11.13001913523597   8.95592160251824
B   11.27904942467306   11.06747604386548   8.68913817220379
B   9.05958000961513   7.15264165398440   10.24488123089575
B   10.68423417048798   7.44275925511981   10.24418550745978
B   7.77893214200655   9.65472483886009   11.59735193000711
B   7.70201720586090   10.93998103452458   10.52743809658011
B   9.69357020936869   7.58694740613619   8.77888493441154
B   8.00611263534273   8.07005737598339   9.48226649878494
B   7.50765369651251   9.63705959966497   9.34870391752281
B   11.15807985276991   8.19525974284011   8.62636449643585
N   9.23583063850760   9.56568052844491   12.01075410659607
H   9.73648040093079   10.40157595973634   12.34943351462162
H   6.95793231902581   8.85753416917246   11.95426395112399
H   9.62147811018887   8.71675815364672   12.43218227962023
21
F:    ...  E:  -1.07064296
W   9.60149084303077   9.57963387412922   9.76723676560201
B   10.54294961724220   11.63522016796896   10.39960474925371
B   8.92602662187430   11.82643777358273   10.26646383875786
B   11.61617264054614   10.41106878074462   10.44064751157836
B   11.66002894130950   8.72298593736414   10.35085259323544
B   11.94308009513973   9.65976307187398   8.85151770559945
B   9.75715098320477   11.63226854802861   8.69511639852389
B   8.21391950588998   11.09998370528490   8.85541385443937
B   11.25003592878278   11.09537390457758   8.79174657520413
B   9.02922259721348   7.09998515851190   10.09306401229751
B   10.63781196250163   7.42229114616247   10.19240609422360
B   7.60431256648402   9.58692495220361   11.42267790339451
B   7.55777169845422   10.87552873783205   10.38437523821775
B   9.73651266885361   7.60680568812305   8.68071619774799
B   7.99469527862545   8.01910489401365   9.30707928200981
B   7.46835092194901   9.57979126731653   9.20106164906810
B   11.19704211016141   8.24187759736277   8.64189832805181
N   9.01709326453405   9.45590365681497   11.92770872403415
H   9.47722424497186   10.27614114577211   12.34486621016393
H   6.75762219539666   8.78861466111153   11.74602824165828
H   9.29781343601114   8.59007718438259   12.40194339876467
21
F:    ...  E:  -1.10173578
W   9.54660752511155   9.56057768219227   9.73547163035346
B   10.41846102596335   11.60041666068336   10.46858941311303
B   8.81380907813774   11.77878233096917   10.23881422763427
B   11.51954866464321   10.39272390381891   10.51939094361128
B   11.58870216390300   8.71823491245548   10.39071071123655
B   11.91913163686748   9.69411038165403   8.92484752926124
B   9.73076077798679   11.64548005597628   8.71229458037600
B   8.19767204486500   11.07386437367018   8.76736536255070
B   11.22939343996946   11.12948655176250   8.87499154759175
B   8.99771073676665   7.06290543820590   10.00144854518912
B   10.59571414380029   7.41407497010756   10.17074510903510
B   7.41543003365130   9.49228178697000   11.24001948593710
B   7.44904791841920   10.83285046273822   10.23951817874694
B   9.75473439215186   7.60962291896143   8.62172939514397
B   7.98322454413271   7.97975122527216   9.17485893572967
B   7.43879055304157   9.53625659230569   9.06932652046778
B   11.20190235595956   8.27922078762743   8.65051891939277
N   8.79467950985999   9.35568924766553   11.84891507193087
H   9.15403775432297   10.14863418674337   12.38364486595275
H   6.56587957135351   8.69670383596458   11.50641659426738
H   9.00363828994443   8.46399462453638   12.30617609691694
