23
F:    ...  E:  0
W   9.91419856570982   9.90495397285436   9.70622264245653
B   12.36199744737696   9.87633031601436   10.75603862579650
B   12.15607593055261   10.70934860073027   9.16504062978635
B   11.66590526553602   11.29820790659736   10.77305787458460
B   12.09450439669190   9.08748101929998   9.16214319026672
B   11.09046294144565   7.81752028390586   9.20640707326582
B   11.79283306461660   8.36122061806137   10.77544208900766
B   10.33422273938769   7.75029018975989   10.82147560429018
B   9.50040841095124   7.51198976656364   9.22142599894091
B   8.77137836874407   8.12954291310752   10.79313247521909
B   8.09882216938484   8.36040458799434   9.11044700398446
B   7.60745512682913   9.88240944924788   8.99624512611848
B   8.17515275486159   11.41605754250030   8.97883855801016
B   7.54335462014418   10.79124037523305   10.57337579236706
B   7.60690372857544   9.19097558752134   10.63106384081853
B   11.15885074039184   11.98104664515155   9.17311165298721
B   9.53890647694640   12.25304002493986   9.07342130141407
B   10.22236306421880   12.00429301706624   10.75385869744818
B   8.64331104634779   11.95075404216322   10.60635868194991
N   9.99584152165536   9.85361658150242   7.42729729265329
H   10.69550980913037   10.52113139814359   7.09283705060897
H   10.26177584899865   8.91510813134423   7.11717051842298
H   9.08456031445791   10.09216291028490   7.03132006343582
23
F:    ...  E:  0.0337973400000067
W   9.94702748436738   9.88718431810170   9.73346699188636
B   12.35814710097804   9.86350955282125   10.85312393238868
B   12.19055692597247   10.67031292914729   9.23983521560981
B   11.67701279005171   11.29010776373137   10.82893948046279
B   12.13751632825366   9.04832254041502   9.27450433823270
B   11.12538799584088   7.78527572024027   9.30696802268931
B   11.77343708307857   8.35479736374876   10.88564896095662
B   10.31069941291629   7.75627185662440   10.89995675386936
B   9.52936805304101   7.50044173640368   9.26113942445223
B   8.75045555945790   8.13115441983508   10.81107140654496
B   8.13831306931094   8.35320853601152   9.10464851067893
B   7.66838171070407   9.87733526044124   8.95560576643405
B   8.24346622525340   11.40569070969081   8.93899639186966
B   7.55671246476056   10.80221989067513   10.51457879003185
B   7.60391384211550   9.20001707611157   10.59434665128680
B   11.21736282858183   11.95650230042484   9.21944902482989
B   9.60393710368971   12.24252746915788   9.06427761604050
B   10.23820014986388   11.99763693185382   10.77545475195635
B   8.66487580264009   11.94954858726698   10.58005401733654
N   10.15045533738880   9.79323305942019   7.46816996893035
H   10.63315257849856   10.65132272048979   7.15871070513552
H   10.73396006079858   8.99437737791878   7.21216882009587
H   9.23339083251734   9.74319191678366   6.97465649160908
23
F:    ...  E:  0.134276530000022
W   9.96016087453394   9.88280115423074   9.74745479354333
B   12.37634549063448   9.87536368063304   10.89403252877047
B   12.19091785944765   10.63059455368844   9.24342336000525
B   11.78903229687461   11.36262787248863   10.80195497914059
B   12.17183486182798   8.99708645516393   9.33570184445477
B   11.14262519476384   7.76318637264374   9.37094721051864
B   11.72780036945106   8.40639086585845   10.93919544120768
B   10.23471272615391   7.87157026273319   10.96605420565087
B   9.52218539617225   7.49555302327027   9.27909486837946
B   8.65243345325940   8.05023255429194   10.77788439500180
B   8.16381831086399   8.34706514055312   9.08039362543109
B   7.70292761798571   9.89001545873450   8.93669579220136
B   8.25386279081870   11.41116763009422   8.94698581325082
B   7.57139622548046   10.76895220769839   10.49924392339670
B   7.53688738117142   9.15182722170555   10.57254600971763
B   11.23902710918947   11.92643425092150   9.20468258146888
B   9.62563789750671   12.26295190221817   9.10316275592277
B   10.32505037408517   11.98448751124055   10.77314544112340
B   8.72901324807003   11.84211552627949   10.62147588506095
N   10.26623318613257   9.77724517080860   7.50199990016453
H   10.60215061182275   10.67967477002753   7.18843433767438
H   11.05455173056005   9.11957806718524   7.45295609373632
H   9.48263659113499   9.46833014959292   6.92494891784614
23
F:    ...  E:  1.29078697
W   9.89247944412886   9.92092665364049   9.71081812256205
B   12.32088334296963   9.86776826779955   10.67097092008593
B   12.11630616215147   10.69019181732810   9.04460769132014
B   11.79708817030136   11.37586162414202   10.62844813192990
B   12.06845552752756   9.05758552321824   9.06386775183306
B   11.01897001901793   7.82175063531306   9.08598462100975
B   11.73757652613552   8.36365377400129   10.63707862067513
B   10.25155392519274   7.85565553955805   10.84037497115608
B   9.41040474520568   7.50754390181233   9.17631270835700
B   8.67056124190018   8.00913193424094   10.74958224772060
B   8.05076333981812   8.36854670066739   9.09132259017248
B   7.55408638306918   9.90253112192542   9.04673529892436
B   8.10445900920736   11.42844066266567   9.03181125821473
B   7.57648972872625   10.73126559422778   10.63916068410790
B   7.54444104093282   9.11798093464850   10.67034585719436
B   11.14568825835805   11.98421013577524   9.07040862155677
B   9.49468050181925   12.29667663171568   9.11221694961816
B   10.33511582705046   12.02577905775109   10.65570352775612
B   8.73222208916991   11.82235915205094   10.64764159036223
N   10.07725820251184   9.89581419294021   7.52512116335248
H   10.65778832386268   10.65801025349363   7.15723765227498
H   10.79047364541324   8.95358965749368   7.78530227634085
H   9.17775703199381   9.93098455515150   7.03244913665616
23
F:    ...  E:  1.83487327
W   9.92715592461357   9.88638859065871   9.65483806317221
B   12.26698161984389   9.87117816984940   10.78767040453821
B   12.15061444973323   10.68485211363813   9.11243646747566
B   11.77849442731602   11.36666900447038   10.70367257056161
B   12.08749839987598   9.06355156340203   9.08466824731287
B   11.01853467066920   7.84673203902594   9.12201692532011
B   11.70478649767121   8.36279480842427   10.67660684280422
B   10.23027806254486   7.81484750862302   10.99007370388401
B   9.44004672305983   7.55339780320692   9.19916716584119
B   8.68145021414896   7.98095586215159   10.78734348546571
B   8.09330135166745   8.37379263698916   9.08393785247472
B   7.55012942012467   9.89942861743992   9.02538664457096
B   8.08131624675047   11.43753079957492   8.99281584396238
B   7.57888265966912   10.72558281083952   10.58946264076221
B   7.58192222186975   9.13986414901296   10.67153797039805
B   11.18293117677567   11.97170310379290   9.10987255708926
B   9.52680436173840   12.31747989844705   9.07866350826377
B   10.32657042757832   12.02463296011830   10.65451729749004
B   8.74272049719548   11.80464614408273   10.58556491921966
N   9.94853634530085   10.21903517759710   7.60403379406105
H   10.73258043284795   10.65890694879402   7.13875738565116
H   11.51485116138366   8.44410373434154   8.02341325920456
H   9.27605339351848   9.82800270105366   6.94093623682526
23
F:    ...  E:  1.13392948000001
W   9.90742546886367   9.89359384353507   9.71183463002706
B   12.24326072789706   9.87219968328711   10.78730436811675
B   12.15782826255368   10.68382998596166   9.07362474192239
B   11.77266853300137   11.37943626451123   10.63487477642970
B   12.05709737735337   9.06288558715134   9.04284502469735
B   10.98183751623544   7.83392217097997   9.10533606289945
B   11.70581583386069   8.36143390489693   10.60172193480568
B   10.22590070798739   7.81207846724213   10.90124217328902
B   9.38776610139667   7.54828987159198   9.15007758410792
B   8.66694717536496   7.94043619621192   10.74513137902657
B   8.06797226589364   8.38450006954679   9.08066579106238
B   7.50623912643404   9.90326432799587   9.08486664944612
B   8.01246733994070   11.43371696179247   9.08138952798707
B   7.62063745902317   10.71628407129348   10.64532156335763
B   7.59083637144213   9.11039872023381   10.70174741177892
B   11.16995953337925   11.97154936551877   9.10142794004945
B   9.53927332252815   11.87559588786517   8.53251742579868
B   10.31350909227255   12.06425956194904   10.64370819932028
B   8.73959336833178   11.82926687616381   10.69572432983334
N   9.86858990920985   10.57038992871908   7.63209931491912
H   10.76034945649315   10.72125072602874   7.15271235365822
H   11.23812985341977   8.45976702014616   7.96607714225638
H   9.12683472287200   10.11107168882234   7.08337928744662
23
F:    ...  E:  0.571237480000008
W   9.88508057423594   9.88700368543987   9.71512534635943
B   12.28004057651177   9.88294284855776   10.74362824715339
B   12.09901402077703   10.72428407840539   9.11229188989930
B   11.77142594396680   11.40524108284470   10.67731479732302
B   11.99463747602359   9.10802190100639   8.96132316030142
B   10.97032878378580   7.85495745183375   9.08231727104056
B   11.70261209697509   8.40122626089919   10.58988414741909
B   10.21771010656841   7.84307183785318   10.87941878982191
B   9.39158426748896   7.55682655182819   9.16134238890876
B   8.65477262384475   7.94798688114695   10.77278203488039
B   8.06165269088595   8.40284289119884   9.11168665862579
B   7.49270582424966   9.92145072895697   9.10751529597503
B   8.03310863183688   11.45278239953197   9.09561462076861
B   7.63146224631040   10.72685324339131   10.64865181852583
B   7.55901336168744   9.11907432185884   10.70386532097776
B   11.10232954873773   11.99959391688820   9.15847739514282
B   9.55925400589464   11.82064054122512   8.44723690677418
B   10.33737752075827   12.02638938182401   10.84802358048425
B   8.77020290065507   11.81827537835577   10.72569093209587
N   9.80040145348403   10.55710424046280   7.59343005202633
H   10.69239566829366   10.52153945992817   7.10459123214391
H   11.66950993349039   8.38958976467580   7.92601139980872
H   9.05391028823719   10.14765621137225   7.03160539397663
23
F:    ...  E:  0.435469730000023
W   9.87787780096096   9.87180541522605   9.70541633983188
B   12.32412108059969   9.85331410792785   10.69830088180460
B   12.05739105268686   10.72562486205020   9.19541120778480
B   11.74538488453363   11.38262577110141   10.75184324882831
B   11.96847319771148   9.07846486823734   8.93995885109504
B   10.93886423149691   7.77922672997970   9.24540739846235
B   11.72691284928404   8.38328689888376   10.62615089694262
B   10.20855245709815   7.82559399910661   10.89712959691852
B   9.37334312705659   7.51726471891322   9.22933043939826
B   8.64939267016647   7.99878805617613   10.87509335320776
B   8.06418354560984   8.40136595609535   9.13139716731085
B   7.48929535759621   9.90266360112170   9.09524069159987
B   8.06395768089273   11.43142870432942   9.04902880905130
B   7.61070198401547   10.76102339721512   10.57731612925530
B   7.56199367567191   9.16725478359855   10.72982416567249
B   11.06268511507738   11.99431692303749   9.22460283459560
B   9.58661332083070   11.78309140392114   8.40019423454908
B   10.34559383443338   12.02810615493262   10.94997663123426
B   8.80401701951019   11.80091181332276   10.71039606210329
N   9.82847111322253   10.51334912633170   7.55491480254967
H   10.74352614635088   10.42526457222457   7.09767862275853
H   12.11420105856085   8.61096902293468   7.81463410640164
H   9.07240009075602   10.11105254645878   6.99414888068752
23
F:    ...  E:  0.273448459999997
W   9.88740432104615   9.85768365104666   9.69385602812612
B   12.32912420639466   9.81394224707485   10.70180497945168
B   12.04943298579451   10.72824582199303   9.27151985230595
B   11.69549737429533   11.33591913736204   10.82750587152355
B   12.01682499260915   9.05079325033671   8.99913324415760
B   10.92749266851492   7.78384584561456   9.29827842688796
B   11.74723613637836   8.34044935709953   10.68907330071193
B   10.22520207499825   7.76301117060093   10.92118577542885
B   9.36363773328388   7.49857138679944   9.28916118103551
B   8.68783894197816   8.06693145165062   10.94817161188424
B   8.05733000418807   8.37762965922857   9.13220752061232
B   7.49650129630942   9.88124803022738   9.07262521053498
B   8.12189203800048   11.39673394413473   8.97639598793065
B   7.56666238336420   10.82444222370917   10.49121992763961
B   7.64162137080108   9.25167209567901   10.75054045557378
B   11.03381449591894   11.98461669851247   9.28803319289610
B   9.63465722659661   11.72426760827718   8.34375078676190
B   10.32945899088200   12.04354656770845   10.99990213176494
B   8.79716541684239   11.77724405241577   10.76645163677784
N   9.89552867658199   10.46413494459398   7.51037245483391
H   10.81130668712463   10.34007933108083   7.08167478325697
H   12.47039253778512   8.73168350869544   7.91287560432435
H   9.14027616766679   10.06513984585344   6.95718663600880
23
F:    ...  E:  0.219346330000008
W   9.91879414570278   9.84347627609949   9.69505632424691
B   12.29204034511614   9.80391194842375   10.79107560659338
B   12.09267298632664   10.71270015133063   9.34259040004506
B   11.67067714781553   11.33253153775977   10.87086709500693
B   12.11545789552394   9.01454917059317   9.10904293496700
B   10.96530136714368   7.79568359095928   9.34707619624364
B   11.74989226594010   8.31847552665256   10.78752802647917
B   10.23698206411267   7.71565436129316   10.95006130931982
B   9.39829898060002   7.49615114104516   9.30210393104111
B   8.71253591274123   8.07918614219515   10.94745283654733
B   8.07640703426436   8.35459215595749   9.13563766019320
B   7.51773246751673   9.87093790293556   9.05137941720035
B   8.16941262565304   11.37185460911589   8.93088884854711
B   7.56780448583192   10.84415869795294   10.44954169626581
B   7.68937818223701   9.27516282688679   10.72990586492555
B   11.05020252506256   11.96075985122069   9.30041685186299
B   9.68486892158188   11.68525462191590   8.31307312766134
B   10.31958397045233   12.07502644110230   10.98763191373224
B   8.78583807798539   11.76617646100095   10.81152846936859
N   9.95451746319847   10.43063648354609   7.49025021390006
H   10.87315396139109   10.29444736956904   7.06447458705377
H   12.78300537815149   8.71416210534449   8.14019404966125
H   9.20571279000363   10.03372874377072   6.92330599773898
