12
F:    ...  E:  0
W   11.02802562122664   10.85946216810157   11.73053391799231
W   12.06539700444663   11.56125154538247   9.83292741654341
B   11.72930233352719   9.51504101779343   9.97883466086483
B   10.48931581644103   8.80888531582427   10.70281891186804
B   9.08661521492581   9.50527096540337   10.91734350511291
B   8.92773116777944   11.06024435682168   10.68213543048565
B   10.02975793970765   11.96529051876585   9.95624624958596
B   10.15329847096747   10.23397920024270   9.70846577310395
N   13.94641479432861   12.86452045970435   10.03346270695784
H   14.06377797974509   13.01203921093924   11.04189511092659
H   14.80524112409175   12.42237130988717   9.68734413961065
H   13.88286166530255   13.78876201944997   9.59225657316863
12
F:    ...  E:  0.0433859500000011
W   10.89117153922068   10.89474268734062   11.72799427571996
W   11.84509853744440   11.59005097973434   9.78558402951202
B   11.61400509435364   9.54899100398313   9.98492152047419
B   10.43992403610280   8.78971914146648   10.75430174399587
B   9.01096639715051   9.40973930605049   11.02599974683678
B   8.75182608975586   10.95146404322606   10.75577711566752
B   9.77343314596236   11.88964955286418   9.95801205103288
B   9.98360603314236   10.17112055389761   9.75261215473852
N   13.95989331975292   12.51715710313865   9.87783691249426
H   14.22623541516807   12.65036771541968   10.85250263981986
H   14.63801097458003   11.84208510703352   9.48723463542939
H   14.11583445475581   13.41927811804789   9.41694503121007
12
F:    ...  E:  0.351837220000007
W   10.81337840776475   10.89384190223427   11.77455623042138
W   11.75761228444514   11.65842996255927   9.85686344540274
B   11.63068748623052   9.58414636720819   10.02628586540084
B   10.46038512013773   8.79121182616798   10.76554212630543
B   9.02161268697904   9.39075949476362   11.03494272015936
B   8.70542748298944   10.91894959857092   10.75587264807269
B   9.67815948591783   11.87074809787646   9.93836167248203
B   9.97834694895188   10.17133624296179   9.76709558426146
N   13.90430266934106   12.33163986700153   9.86941115594924
H   14.57088245882471   12.45310005224371   10.65933778093441
H   14.05941173849145   11.40077945828024   9.45952859436784
H   14.10310839615639   13.07173242112422   9.18522091738617
12
F:    ...  E:  1.77082957
W   10.95026782274417   10.83546343559790   11.77872652185924
W   12.13453232622682   11.60125937654859   9.91800848369294
B   11.78267608117281   9.51108063662329   10.03506590466510
B   10.52923853314783   8.80945400318332   10.75678959701676
B   9.14199520859403   9.53679695272261   10.93112898838683
B   8.93474112315364   11.08149183316602   10.63528983214474
B   10.03799638077701   11.94761300794347   9.86598325648611
B   10.18280083392350   10.21388500541688   9.68526439146135
N   13.58783267056521   13.05538715599336   10.33653085197589
H   14.38247099422336   12.90721106184372   10.99451880928053
H   13.91842618361614   11.53377210514458   9.19262768398661
H   13.99848116807702   13.30638037790234   9.41747886448790
12
F:    ...  E:  1.13124101
W   10.99428108907411   10.88712283007744   11.77643421128267
W   12.22214773444363   11.70478502454546   9.91933754056757
B   11.86815945024095   9.58503710368841   10.10940116419023
B   10.60715665708361   8.83991817824419   10.76018962950833
B   9.22628605411506   9.56144643697979   10.90661699195057
B   8.99353665263029   11.09324836597467   10.57494287620456
B   10.08760644441788   11.96872602029578   9.80062423317015
B   10.30044452299233   10.24480411799567   9.65626572249853
N   13.56163738266773   13.14857395069181   10.35321620164367
H   14.43554335929521   12.94862456072244   10.85775232678491
H   13.71425872575839   10.86398892820477   9.31161812757527
H   13.72599391710956   13.80588820948960   9.59973252741458
12
F:    ...  E:  0.393150950000006
W   10.99022119727124   10.93369208520385   11.73757095419078
W   12.17438709992306   11.73324126420295   9.82744983872698
B   11.94539770878499   9.63030283748728   10.12492749429104
B   10.62941229391822   8.86857695323617   10.72774699572200
B   9.23201076077001   9.55363331535993   10.93869622932597
B   8.98850611456944   11.09108176553670   10.63064887966840
B   10.07531091892137   11.89755712862650   9.77873281931035
B   10.30601522153211   10.22242289274973   9.65620300985440
N   13.62490464412056   13.03830734129888   10.23284195264468
H   14.53097044849472   12.79592374166275   10.64267784159509
H   13.20898726614370   10.25230738117222   9.44048280842860
H   13.65891342369601   13.88825766828408   9.69994073867744
12
F:    ...  E:  -0.712645159999994
W   10.94923816660043   10.99955293407685   11.75456140017690
W   11.95470894479280   11.98383295860045   9.98065872609039
B   12.06292912265961   9.80664145122396   10.08501786998372
B   10.87074431815476   8.97002056454274   10.80944972382342
B   9.35495156656922   9.44945319577314   10.77809531581658
B   8.91304865521103   10.93180080945340   10.51186623119541
B   9.84849743240525   12.08726514267322   9.97653624036592
B   10.37927290853783   10.30166808600024   9.65877090717727
N   13.67945393125354   13.06734013226938   10.13372256766583
H   14.48305651376608   12.82671301475549   10.73592303697751
H   13.12686602765909   9.84719173223346   9.45901991334558
H   13.89108222968826   13.93258167044835   9.62958584727322
12
F:    ...  E:  -0.793135210000003
W   10.98176670483650   10.97098644489206   11.74620101082633
W   11.98708166796369   11.83812858196389   9.89437648447150
B   11.94294473842596   9.68657834872918   10.03214371392425
B   10.74897693625002   8.97514147440534   10.89157830092931
B   9.24490968589421   9.51114289104244   10.89129362657851
B   8.85563097885618   10.97660344748762   10.50491290149614
B   9.89201574600237   11.99816519921318   9.94518509487836
B   10.31467538957759   10.21268410550797   9.68543146652769
N   13.69102137025958   12.91353310017563   10.00676879743612
H   14.57700222482131   12.60179725958638   10.42223176167935
H   13.01510936905915   9.55694930276577   9.42336228685460
H   13.74077218595689   13.91449596749947   9.80565791352064
12
F:    ...  E:  -0.969546620000003
W   11.02307116988791   10.93482613620575   11.72331976236195
W   11.99620002297125   11.72895676195755   9.79690868451137
B   11.87391192910797   9.58551502165608   9.95854030134709
B   10.65106966492229   8.97100977084786   10.92749312483290
B   9.18332249787908   9.55653412084384   10.99131914027345
B   8.84664510858187   11.02733124429874   10.55059666717468
B   9.92757821479777   11.97027377270049   9.88698145433671
B   10.23973291943886   10.17776062313163   9.70564959955102
N   13.66465255484968   12.84476394998456   9.92592205909536
H   14.60295464533457   12.48018435504996   10.15521836346146
H   12.80340347057933   9.01114434698185   9.44331875822639
H   13.68268064944913   13.87075990844098   9.93259003963144
12
F:    ...  E:  -1.02082313
W   11.09534317711565   10.85909706966424   11.66079577331766
W   12.03471362283145   11.52240259401821   9.68058638958826
B   11.72570567539528   9.38928779020577   9.92006103135533
B   10.49696737521811   8.92714448065403   10.97475004754175
B   9.10521809570061   9.65218345735756   11.10069345698591
B   8.89127775217609   11.12297821123999   10.60369352710532
B   10.01538746963567   11.92594820669072   9.83994826049462
B   10.14477923210859   10.11035059035123   9.72886391379275
N   13.64569311243344   12.71736071355002   9.83097014420050
H   14.61394166913324   12.40352609451406   9.91542162389826
H   12.51662334162849   8.61303626493024   9.44069183447815
H   13.61582170494712   13.72372719532454   10.00098810125273
