22
F:    ...  E:  0
W   9.70213448902286   9.73250489928238   10.22944109060892
W   9.76848616166556   9.66050457999730   7.90179838189798
B   9.10204647320147   7.68906306687005   9.02772159782315
B   11.39299313837783   8.31330585780336   10.70582277918478
B   9.88205871433788   7.52644741212010   10.68413823829611
B   10.70573518957470   7.82868390884852   9.06791715625447
B   11.74260682993491   9.06053200525915   9.06144808622337
B   11.60432789360831   10.66370168703978   9.00635001654223
B   11.90708781408488   9.93705370631135   10.67115132621285
B   11.12500138399193   11.44884458451133   10.59823295256442
B   7.98848471389922   11.17561970853644   10.51909582360907
B   8.25941012635640   8.04221588466463   10.62682005864970
B   7.87054414923385   8.72410577608289   8.96117204334181
B   7.73335973851438   10.32746568135062   8.90582893311931
B   7.47365754524200   9.55199835352824   10.55402300646668
B   9.50073816287609   11.95957993379337   10.54086275943698
B   8.76934387410931   11.56011676104657   8.89931189168961
B   10.37285602155455   11.69912861253989   8.93973627766509
N   9.63004924060749   9.81074980175160   12.76034574062369
H   10.29942200115235   10.50066369212882   13.10110998043885
H   8.69235855066285   10.06946549486571   13.06867604979544
H   9.86831743962561   8.89377151855926   13.13856360598671
22
F:    ...  E:  0.183985309999997
W   9.68613381782160   9.72654171144132   10.21171829065800
W   9.76546299961712   9.65849539217194   7.87640559207545
B   9.09919673604231   7.68720734196115   8.99313909239042
B   11.37874625182648   8.30782262835875   10.69422165128371
B   9.86758260149311   7.51137671374291   10.64361211741111
B   10.70341505983221   7.82815316897313   9.04607052056139
B   11.73864345112358   9.06168625383769   9.05281355396554
B   11.59789846647218   10.66404850042904   9.00504032239352
B   11.88771034756010   9.93110062024781   10.67468599168232
B   11.10669142208039   11.43760356924046   10.60675693579753
B   7.97416763754752   11.17044529759877   10.49841753896409
B   8.24351998300019   8.02847623617763   10.57961963538152
B   7.86411863989402   8.72314023761013   8.92752760214190
B   7.72772338702786   10.32766344859632   8.88056145977440
B   7.45683647548223   9.53916665894000   10.51591509566327
B   9.48824321819165   11.95092186521629   10.53821007985725
B   8.76473079212482   11.56109749414953   8.88586980275707
B   10.36848479362186   11.69841985962316   8.93686575082141
N   9.43512766600434   9.63091109150373   12.71478329521955
H   10.14330943510557   10.13305910883762   13.17841416073247
H   8.53018410378018   9.84263535002752   12.98553758884132
H   9.62311872609609   8.63475099472370   12.82571068261242
22
F:    ...  E:  0.674549569999982
W   9.67253105231016   9.72353788172030   10.18799646105543
W   9.75435294909910   9.64716328654732   7.86018080962241
B   9.09219567031459   7.67769579620123   8.99155164195787
B   11.37765026245908   8.30790157252645   10.67558632387081
B   9.87043917812441   7.49987784900784   10.60927798355427
B   10.69803488856550   7.82821551911642   9.02507793515651
B   11.73108885230122   9.06264789879122   9.03435957620494
B   11.59002381187219   10.66373820559931   8.99712927138349
B   11.88024802146389   9.93017344408503   10.66615728471912
B   11.09915089856501   11.43232853115413   10.60480149274906
B   7.96618755401910   11.17417554741229   10.48383364080948
B   8.23121994147417   8.01694624213679   10.54186037567824
B   7.85682422165758   8.71923134541327   8.92137402151928
B   7.72390045140156   10.32571158295897   8.86437465464893
B   7.44401753912625   9.53774863085211   10.49259441302674
B   9.48357239156413   11.94942061382405   10.53245942835450
B   8.76070422941035   11.56038492503984   8.87303056531760
B   10.36408010003804   11.70019872712672   8.93077880952049
N   9.24754354972206   9.42378247922371   12.66563709103113
H   9.92295143485057   9.85286020679616   13.15825805552032
H   8.27706964570229   9.45450119662108   13.04024088565207
H   9.47793894707421   8.45838529098429   12.42557207965767
22
F:    ...  E:  2.55589344000001
W   9.70227728497607   9.75470675871999   10.24153610057428
W   9.71548748224346   9.58194375043724   7.91061521572844
B   9.07911400215437   7.64725307318940   9.17131079346208
B   11.44016892089355   8.33446937471474   10.68568882355956
B   9.93883158195953   7.53397281144327   10.70941987299114
B   10.68309601507323   7.83182479713836   9.05716896085001
B   11.73036327359188   9.06071939885401   9.04953185972491
B   11.58550440916307   10.66158791496097   8.98973598866949
B   11.92080133294934   9.96098399429273   10.65265266362468
B   11.13025542743997   11.46493299259793   10.58968261098726
B   7.98989141115363   11.21161509546071   10.51435794986635
B   8.25031263009358   8.07696522847137   10.67012057950836
B   7.85616321388730   8.70220473827531   9.04018123316931
B   7.72896903602505   10.30976178981852   8.92020328615917
B   7.46265553220081   9.59374540218778   10.57625996959626
B   9.50886806940666   11.98362595445075   10.52687955682959
B   8.76409219120188   11.54646514399847   8.88375280626805
B   10.36496423379386   11.70139697681225   8.92529195339337
N   9.43781001206849   9.35301145420551   12.74347041288948
H   9.83356776182321   10.31689204934286   12.90699028856863
H   8.50600268147330   9.36208434393196   13.19552326494757
H   9.29276386704042   8.43369295741399   11.91882248588767
22
F:    ...  E:  3.01679967999999
W   9.72903182112851   9.78267095686920   10.33838164575908
W   9.69364589364937   9.53997743581872   7.96445363386777
B   9.08872878510436   7.65154039683990   9.21791680524266
B   11.46450267082097   8.34837384777152   10.70883793241308
B   9.95911705203685   7.58191726645695   10.75911451750205
B   10.68995119019784   7.83973755390099   9.04560091272793
B   11.73806981962144   9.06319877614044   9.05865206593374
B   11.58753356963232   10.66140492612057   8.99242019868814
B   11.95261295195017   9.97681428971553   10.64689744065883
B   11.15245126451157   11.48452881833813   10.59110236206561
B   7.99979495252640   11.23513620061812   10.53474004587795
B   8.23623667158212   8.11719057873632   10.66861855000154
B   7.84054040137935   8.70537023639189   9.05611223843344
B   7.74137713112968   10.31357411082929   8.93178760665602
B   7.46308466538568   9.64000269430899   10.58239853891452
B   9.52252998489071   12.00324268245005   10.52981753954320
B   8.77566807677605   11.54188354583560   8.89231035481400
B   10.36670064394596   11.69245145140637   8.92969663927476
N   9.62515895391587   9.61615110623945   12.67297404394925
H   9.89546734618416   10.55545697593972   13.03069741027520
H   8.68433043835866   9.47935217002576   13.07227877857899
H   8.91495693588879   7.83179521947793   11.80248401029982
22
F:    ...  E:  2.60690295000001
W   9.74493187299846   9.76880584132124   10.37799106964023
W   9.68207088020992   9.55937578478419   7.97346743234582
B   9.09226711060631   7.65666443536688   9.21552094140511
B   11.50610687412443   8.34338293295736   10.69435687017986
B   10.03696323794044   7.58928277675370   10.69718949387329
B   10.70014159424123   7.84636150217543   9.05057143022719
B   11.74285420203597   9.07703785448172   9.01773727221618
B   11.59637932305266   10.66810558729026   8.98459639704867
B   11.98203441075576   9.98168261278341   10.61867955751036
B   11.16836635536209   11.48676150350774   10.57855801319581
B   7.99861725885693   11.24743303326806   10.53158359871668
B   8.29185342192938   8.12608637946397   10.78673728190341
B   7.81257831153386   8.69150690287077   9.06213799273813
B   7.74060061989266   10.30623371333760   8.90934860890503
B   7.48912133470849   9.65962228741150   10.54381039573975
B   9.53031397325086   12.00577689576885   10.52104675969378
B   8.78670679729203   11.53352896601573   8.89432621763184
B   10.37124276840922   11.68900748737488   8.93877398087056
N   9.71249216436888   9.73352981473115   12.60960352059423
H   9.66374953842955   10.67955598697765   13.00705012030022
H   8.96298374347125   9.25255568677506   13.08780027906582
H   8.43460763125519   7.67063215528151   11.87110456016357
22
F:    ...  E:  2.18223356999999
W   9.75030700411016   9.76596525475690   10.39399958514814
W   9.67523642951915   9.57207174442899   7.97057017889041
B   9.09105033581415   7.66066934260126   9.19084244034456
B   11.53014614018545   8.34913815911777   10.69601325243867
B   10.05810742949872   7.59063796260719   10.66792140939085
B   10.70656319558607   7.84847903306270   9.06912276188345
B   11.73105689091088   9.08700981485126   9.00622860207759
B   11.59603422376829   10.67130697418231   8.98411413254441
B   12.00728418875643   9.98647185834348   10.59807865727769
B   11.18386287403181   11.49615831396773   10.56260698688310
B   7.99197721061575   11.25362589490066   10.52272776586074
B   8.30698206365061   8.11577791757230   10.81154976926502
B   7.80382584116016   8.67960312271843   9.05598061516508
B   7.73111729026212   10.29768790584359   8.89599512654162
B   7.50224279348189   9.66476606842159   10.51818603673316
B   9.53139974723282   12.01331430405255   10.51556124294799
B   8.79050002187001   11.51436190736233   8.90356679556065
B   10.37148736891286   11.68801271658042   8.95129398279783
N   9.67628496941020   9.78783136370259   12.54190631535599
H   9.37710413390767   10.64531474106741   12.99885354062143
H   9.25254024010373   9.02341326851516   13.06384820916481
H   8.10249204202553   7.52818606512876   11.84566109916340
22
F:    ...  E:  2.03431839999999
W   9.72634989204023   9.74073974029815   10.33255912969839
W   9.71319227270233   9.61067576046259   7.85041970184624
B   9.09249586198090   7.64831769773346   9.22183236017826
B   11.52127774586295   8.34684013621795   10.63736620319360
B   10.08070075304248   7.51652372706763   10.63990993184616
B   10.68921866317464   7.91198985402603   9.04961436212344
B   11.74688250132555   9.11318222366369   9.01885407394859
B   11.60574162532040   10.68798564049608   8.97113599987831
B   11.97794374419136   9.98617606207505   10.60059313563940
B   11.16811414385410   11.48621741514281   10.57795677879644
B   8.00012120018692   11.25069801778748   10.47574060940996
B   8.29086051727402   8.06233484044214   10.88608529982196
B   7.83421696543302   8.68063143303525   9.15167560439070
B   7.80538460045096   10.29059079410573   8.92016762704634
B   7.44551353724705   9.67809488815093   10.52507553770849
B   9.53943142516816   11.99949010435742   10.50837721853262
B   8.80554980108319   11.54265179766833   8.90556683668733
B   10.38117685853911   11.69495981668517   8.92859682210723
N   9.70399104181425   9.77703396881190   12.55604157982514
H   9.02405691653995   10.47716879114030   12.94438898620138
H   9.40883398127805   8.87883395334864   13.00925767189563
H   7.88635891892544   7.47688172900490   11.81576071423119
22
F:    ...  E:  1.88517722999998
W   9.71092936241500   9.73337033064868   10.32922450478780
W   9.72403320722699   9.61585582861602   7.86980775798029
B   9.09042599977116   7.65236430738986   9.18249198558521
B   11.49394198887515   8.33852690786584   10.64509749644931
B   10.05325887012859   7.49373134836899   10.63077590732025
B   10.68968283106840   7.90514516212626   9.05182368011645
B   11.74453387616879   9.10685967633755   9.03643867380238
B   11.60286020749817   10.68233544660323   8.97516092233273
B   11.95483841802541   9.97768839365069   10.62118455001065
B   11.15450475274053   11.47632782047149   10.57981791054669
B   7.99696432087295   11.24654673738072   10.46818216448631
B   8.23575130993169   8.00102908871848   10.81349173828613
B   7.83153367481149   8.69175891422053   9.12010076360778
B   7.80559898875260   10.30179191973078   8.90928773147080
B   7.42409143014286   9.67514444349837   10.50465577736072
B   9.53340817957141   11.99129326074182   10.50968926061918
B   8.80512777532579   11.55084294086557   8.90077316694302
B   10.38276310600911   11.69355679825145   8.92250131767491
N   9.61877518026090   9.75531248063633   12.56228967890729
H   8.75806982862857   10.19999137749145   12.92265100337001
H   9.63256841894204   8.81633473274417   12.99262149638960
H   7.69309238375467   7.34331453694232   11.59988541581164
22
F:    ...  E:  1.79886463
W   9.67839896231461   9.71043398704444   10.33196610112357
W   9.72928811772510   9.61664504545275   7.88802637288653
B   9.08899221637904   7.66043387939617   9.12103176944018
B   11.45483140308670   8.31867840395922   10.66350220069180
B   9.99748889997018   7.46643128957004   10.61645175423310
B   10.68980889261220   7.87850672479184   9.06010645670774
B   11.73198111360139   9.08951685503805   9.05778111099229
B   11.59101881095346   10.66688920811485   8.99432679839163
B   11.92606410836967   9.95579434641182   10.64750843646483
B   11.13344760878111   11.45576801561740   10.59148080259202
B   7.98579310237764   11.23537894100779   10.47273360054595
B   8.17520223254795   7.94109712902975   10.67252847189824
B   7.83699147974409   8.71190346378767   9.05550726237725
B   7.78501998852476   10.32092821208930   8.90152112442708
B   7.39670881190849   9.65255700239891   10.47491658098116
B   9.51920724971646   11.97901322740008   10.51921027162934
B   8.80063356780783   11.55480399288690   8.90079949262470
B   10.37999585316542   11.68609269558900   8.93147381157883
N   9.52344609407229   9.67985745816411   12.55780803326261
H   8.59336242271643   9.92661356156440   12.90834854502444
H   9.76805342241972   8.77893671974343   12.97935899978210
H   7.50370604406997   7.19100277224174   11.32111310862928
