14
F:    ...  E:  0
W   9.48958144338216   9.63908036505516   10.70827183006909
W   9.59823270613342   9.45001893989175   8.38968175082145
B   11.58826559235149   9.59113571193704   9.63507547620243
B   11.01749050233504   8.13528385160879   9.72700788187318
B   9.58352224426443   7.50468585038236   9.71083275405206
B   10.96151779942800   11.01928527033182   9.48877795262461
B   9.50457334966956   11.58350664049049   9.37477442630699
B   8.07086153583274   10.95265735523502   9.35877510047101
B   8.12650072509675   8.06841260157316   9.59689456859070
B   7.50013034387728   9.49660965586527   9.45058450135934
N   9.37639267366601   9.83388582751240   13.08940753921565
H   10.03286808253954   10.53831512548971   13.43862674596060
H   8.43889255075507   10.10734329288338   13.39831644612719
H   9.60464606266623   8.94675009295822   13.54870304687070
14
F:    ...  E:  0.0373151999999948
W   9.44076700655021   9.67211793605954   10.66839133630392
W   9.61084285786079   9.45436830297233   8.35719570926599
B   11.57983285825826   9.60457660939862   9.63791740506236
B   11.01235171592217   8.14824366879756   9.72976284956154
B   9.58131249239035   7.51381650532497   9.69918202983913
B   10.95328277776706   11.03073740819739   9.47635133658766
B   9.49623830285996   11.59164715864204   9.33946979512920
B   8.06262751084656   10.95739585062780   9.30652444886720
B   8.12452602268658   8.07315259132269   9.56335174239418
B   7.49415392959562   9.49902359142831   9.40093763875864
N   9.49530105474465   9.82655944931136   12.99902642026123
H   9.97285762560773   10.64232371998133   13.40137414810563
H   8.57779652634244   9.73686220277130   13.44789658799785
H   10.03549341648167   8.99575302131076   13.22516074320738
14
F:    ...  E:  0.117577960000006
W   9.35824515479399   9.68257823372987   10.64275405049765
W   9.62724954269389   9.45857482486759   8.34072547016246
B   11.56726744377282   9.61221873833314   9.66752129935301
B   11.00325883800541   8.15494345791293   9.75100820413013
B   9.57308011797477   7.51969142834760   9.69203028315602
B   10.93775726897197   11.03553554560122   9.49944595544909
B   9.48197965551621   11.59201236892408   9.32812775819925
B   8.04817370391936   10.95738080304943   9.25612419859273
B   8.11616056895840   8.07391577159547   9.52328961458190
B   7.47961238732998   9.49646633011708   9.33872705414852
N   9.60203568141329   9.81527928259576   12.90681226612537
H   9.90190782865249   10.68712953295830   13.37365353069615
H   8.85783447664522   9.37045670772671   13.44806340958096
H   10.39917236392484   9.17610220932397   12.85467220047184
14
F:    ...  E:  1.60843641
W   9.33193060610167   9.65746184440757   10.79193823852219
W   9.64544959295056   9.45169929731595   8.39737053874617
B   11.59716134249151   9.59710868253296   9.68523062911544
B   11.03339588534766   8.13200330966066   9.75409717427739
B   9.59888436354222   7.51891505703572   9.71908709969970
B   10.94926978038305   11.00969737231647   9.57502788062662
B   9.49723121458736   11.56525594745136   9.41774809727967
B   8.07503736180855   10.93755041130874   9.30914881872252
B   8.14169249851560   8.06916366284482   9.57458660141272
B   7.50515326570566   9.48116979107878   9.38083365602620
N   9.39907233147671   9.95832579978759   12.85153986608287
H   9.89700370284216   10.65109547162498   13.41230616344614
H   8.85603173797749   9.34251835539254   13.46809533610411
H   10.54243788089212   9.23464030960723   12.14448619226599
14
F:    ...  E:  0.784571799999995
W   9.40136090937732   9.66574330045691   10.99089748515496
W   9.63198264244123   9.44600061508056   8.37165232192814
B   11.63186271875265   9.57454549410414   9.55986370071848
B   11.07502075496355   8.11398309332836   9.63607409376312
B   9.63653063338195   7.55085565105589   9.74851769139691
B   10.95546524292168   10.97038733852967   9.59852109178428
B   9.51029596610629   11.52902695895792   9.47928097722732
B   8.10016231561693   10.92364505454656   9.34859259662482
B   8.18488221237690   8.09884896906394   9.63800449840936
B   7.53975793421199   9.47883578949834   9.39393596192550
N   9.11445740780002   10.03019097195559   12.91497122703960
H   9.75752700647318   10.64576809046181   13.42435646683389
H   8.73496360263037   9.35027386100091   13.57912948905914
H   10.93204510864116   9.19827232465773   11.63118750406709
14
F:    ...  E:  0.190972090000002
W   9.33221596609202   9.62406927988158   10.88883850285600
W   9.69402900416006   9.45869266401537   8.45360206142472
B   11.59063070250175   9.58730499049588   9.85281797715223
B   11.06017300371616   8.08088590467867   9.69021617844062
B   9.61083146364239   7.51238843872793   9.78169005913439
B   10.96092081420744   11.01677500813655   9.57826607029592
B   9.51048663181638   11.56609081724263   9.49180881160772
B   8.09598469135383   10.93047954392653   9.35653486093816
B   8.16807320062070   8.07810565719338   9.58608518232368
B   7.53401166424288   9.48439206943300   9.38209460874459
N   9.22160602519109   9.90971885391872   12.87428476850502
H   9.58188054857590   10.72465879430133   13.37406979810085
H   8.91860946894268   9.22058060173312   13.57395509152719
H   11.20474156707569   9.32072689173625   11.09190158095173
14
F:    ...  E:  0.170375519999993
W   9.38729836441625   9.63199622734925   10.84650247678296
W   9.69147121217761   9.46841871728277   8.43465432642659
B   11.60849014701382   9.61331611299333   9.75506150191801
B   11.02813203081512   8.09800451148862   9.62244807122016
B   9.59395751284004   7.50822829660648   9.78224989437804
B   10.94231262660703   11.04741958676520   9.50677196603613
B   9.48540769259201   11.58849166229313   9.47942641043978
B   8.07782528018659   10.93034850680542   9.33964937343079
B   8.15891944310020   8.07138486475167   9.53802634957284
B   7.52675982438684   9.48032791701590   9.36509480773555
N   9.26980536199414   9.80898598317328   12.84487450347417
H   9.26543542482448   10.70745993770383   13.33342529357377
H   9.24812054051462   9.06884922176218   13.55606837076333
H   11.69174457642774   9.38284912759719   10.97264400546569
14
F:    ...  E:  0.116202869999995
W   9.40154148114454   9.63460129124827   10.83539138488509
W   9.67407784122312   9.47560691275659   8.40982608557173
B   11.62314523142236   9.61832896158318   9.73643767534129
B   10.97293483319281   8.12807550512243   9.60722377832585
B   9.55873201341248   7.51024764922517   9.73800078074910
B   10.90916160505903   11.04094632988340   9.48230034046421
B   9.45494344297847   11.57775651060243   9.46521866611050
B   8.05064371405832   10.92156646980532   9.33390952467091
B   8.12311452185274   8.06505654083838   9.50065772008982
B   7.49794636501139   9.47521676817121   9.35397441465185
N   9.29570176563074   9.76045377947021   12.83685584628242
H   9.06991409811457   10.62860700156229   13.33115516169558
H   9.43336421485100   9.02590522011666   13.54155973551466
H   12.27818781385486   9.46231600738125   10.75601424077728
14
F:    ...  E:  -0.279689059999995
W   9.44997140801736   9.61399887075395   10.85541717925530
W   9.62978353453989   9.47625024775395   8.31456042026535
B   11.66430277920493   9.61791279911427   9.84922669263335
B   10.89831839882608   8.22045754534827   9.69489423111203
B   9.51881018926241   7.54507650530277   9.68456364743105
B   10.86476168334283   10.96400739775089   9.53899457269707
B   9.43375323870033   11.52893135587287   9.45933204075285
B   8.03216592425526   10.90641136172035   9.33567957233870
B   8.08720400653907   8.06486283829947   9.47358125913740
B   7.48747801399327   9.47064683629980   9.34933663363717
N   9.30368639369402   9.73687563473413   12.82703456415662
H   8.94699326093041   10.55446498090563   13.32634868148234
H   9.55044242986430   9.01179241756892   13.50955698279582
H   12.75774637832359   9.55057434942862   10.36614556225833
14
F:    ...  E:  -0.378727470000001
W   9.48608040654277   9.60561855751302   10.85917178083762
W   9.63907169017291   9.48627036676012   8.30208726010571
B   11.76661455054827   9.62390786940331   9.69114863914198
B   10.94414639067380   8.25594356774492   9.70346757612430
B   9.57005906327772   7.56680409160965   9.65287884627578
B   10.88331654444286   10.93978611099653   9.54094615873207
B   9.46346012487152   11.51907587488741   9.45230546926667
B   8.05192406430017   10.90922682311886   9.37416705839538
B   8.12386721763037   8.06485674803324   9.48733901753437
B   7.51213618991061   9.46918623230393   9.37716443595712
N   9.29662343189465   9.66527649772205   12.82524875194039
H   8.78693464404789   10.39060556061643   13.33499360852163
H   9.69040666638482   8.99883245089636   13.49268544141279
H   12.97206688064948   9.64263242648095   9.80668660420900
