19
F:    ...  E:  0
W   11.21118987013679   9.22708665585190   10.78115553824542
W   11.98508290424212   11.93766512859689   10.81949963385166
W   9.30025589572132   11.29704844664720   10.88788102231476
B   10.54435544214030   11.84279415817828   9.10345797944719
B   10.05162945244200   10.18687270552356   9.08683441457615
B   11.72994805529528   10.58740033694602   9.04397629309033
B   10.65298506751585   11.76240485371206   12.61597048603835
B   10.16050106441985   10.10647567028796   12.58600988077692
B   11.83773731677902   10.50668600589919   12.54337137286151
B   9.10450943902547   9.23923975073012   10.04575682179643
B   13.04765401144953   10.18012481912482   9.94531034386550
B   10.26203050447887   13.13206723869166   10.09786984569432
B   9.15323981703137   9.20385614448502   11.64562644987852
B   13.09726160432015   10.14493491614949   11.54514043892146
B   10.31166420783008   13.09538782200383   11.70218413146979
N   11.73319759834742   7.03529317362581   10.69343444743914
H   11.86020094185785   6.71743640526156   9.72873721361204
H   12.60372249604083   6.85028466601299   11.19853961171202
H   10.98748089594370   6.47206128498130   11.11251232265572
19
F:    ...  E:  0.0190171999999933
W   11.21639108208988   9.24967449823215   10.78741818690836
W   11.98753009353687   11.96194808889616   10.81194686155710
W   9.29847340530335   11.31392782844639   10.87695797956903
B   10.55136712598079   11.84661568862154   9.09090486824406
B   10.06037472213209   10.18899531212650   9.08607424421876
B   11.73878739770938   10.59394112339152   9.04515333882979
B   10.64732904095710   11.79080467867758   12.60650315434197
B   10.15837518204508   10.13274455889125   12.58626804380920
B   11.83470485236274   10.53545342614419   12.54673545703858
B   9.10757891911368   9.24946173404627   10.04979148084195
B   13.05567562253293   10.19649851336558   9.95563750204450
B   10.26211812935361   13.14055384002299   10.07565407792096
B   9.15544905168349   9.22284262618955   11.64937688833387
B   13.09765773231822   10.16804590517661   11.55600576058040
B   10.30628667059933   13.11571043396575   11.68173444841223
N   11.59498734206553   7.04687902387626   10.66400445137034
H   11.91846468009170   6.75521755724428   9.73839285175445
H   12.29536938458204   6.71616471248432   11.34479645526758
H   10.69827494775452   6.60900440929727   10.85378724018096
19
F:    ...  E:  0.0705132300000031
W   11.22100443569004   9.27269253621507   10.80712404144774
W   11.99187367530690   11.98170512625579   10.80508068649141
W   9.29535526162282   11.32478992674349   10.86753711227100
B   10.55938252245931   11.83866174409843   9.08098122903800
B   10.06945759037524   10.18004996904619   9.09022268124230
B   11.74855840889644   10.58903202460732   9.05040046492484
B   10.64081861802659   11.81883162990285   12.59701510235814
B   10.15405534591372   10.15860431137184   12.59224293824070
B   11.83184565399377   10.56562554255732   12.55544789913210
B   9.10976156001094   9.25403901543373   10.05958565621860
B   13.06369740135833   10.20437451939054   9.97088128204722
B   10.26270532039954   13.13897482242918   10.05114707514865
B   9.15557534484416   9.23875532927922   11.65953890900226
B   13.09938793169586   10.18980649870240   11.57239697325279
B   10.30060578406115   13.13087257163822   11.65829866531786
N   11.46676146739306   7.07533255129612   10.63109058942887
H   11.96443706613206   6.77837961035115   9.78479482650692
H   11.89794352643600   6.59499452448898   11.42832944673671
H   10.47470945220729   6.82157163454495   10.56136154248265
19
F:    ...  E:  0.339229449999991
W   11.23666510107881   9.29266660964893   10.84348976233521
W   11.98804938679638   11.98409531932093   10.79889441841185
W   9.28792720016571   11.29909501797206   10.85400074154940
B   10.56247400406171   11.79943864173161   9.07189301336639
B   10.08339964398449   10.13965922141224   9.09680057783784
B   11.76098165846192   10.55789884104651   9.05598874521115
B   10.62930508101431   11.82236589361261   12.58654519459948
B   10.14999057120665   10.16297994009401   12.60406799009051
B   11.83439317625291   10.58344284873483   12.57116600904402
B   9.12257054047782   9.21985781560569   10.07427207374274
B   13.07427721258857   10.19673913876257   9.98668890722390
B   10.25153845557593   13.10658686652301   10.02609021753556
B   9.15520370973679   9.22964101601670   11.67595783625190
B   13.10891736668433   10.20686753830903   11.58899712547306
B   10.28122679025135   13.11714649465315   11.63361396515198
N   11.36507334683106   7.14163256772548   10.59642126748174
H   11.94518025897729   6.82329039997924   9.84638698839057
H   11.46295920004716   6.53481621821385   11.41706599012230
H   10.39049211691069   7.23292766374596   10.32772730817124
19
F:    ...  E:  1.44857051
W   11.30031499068609   9.20954533488071   10.82895784269350
W   11.97414338265869   11.95561964714430   10.80271041612383
W   9.29803326807976   11.21681506883289   10.83021059775840
B   10.55766498299481   11.76773487953557   9.06844555393705
B   10.08975692922130   10.10480035409050   9.10016944487942
B   11.76624540549563   10.53428022627101   9.04490402846824
B   10.62746760222518   11.77512179206581   12.58357045803388
B   10.17326695745366   10.10421414256727   12.59943563925271
B   11.84524470703749   10.54679829212314   12.56105873010376
B   9.19671230915956   9.07711992434448   10.08012264636823
B   13.08087063168540   10.18852573190046   9.97754183549228
B   10.22120115381585   13.06454403036733   10.04098701006879
B   9.15093571431120   9.20280833394830   11.70382062825116
B   13.12659184598786   10.19797426669134   11.58100294645475
B   10.25675782095215   13.06727179862535   11.64611162191696
N   11.51370161496229   7.16046765351212   10.65226347245223
H   11.96469337770547   6.79564886535558   9.80651814421187
H   11.74205838911789   6.56893944933001   11.44548053749557
H   10.13333373643982   7.75650037751722   10.39180738229489
19
F:    ...  E:  0.68695606
W   11.31634102039955   9.11810754382970   10.82324512858946
W   11.95424570608325   11.93782427015060   10.80230417599630
W   9.30217986196516   11.19044190113252   10.83166196806532
B   10.55347026572003   11.73429154597634   9.07113565144275
B   10.10851787032027   10.09459053485172   9.09432068885228
B   11.78229207372850   10.49228209796984   9.04678285053218
B   10.63109599831057   11.75566240113202   12.58745967821738
B   10.21158216134389   10.07535421786994   12.61832695679089
B   11.86815554666578   10.53588244232106   12.54501238365522
B   9.14723066332027   9.09597244795740   10.08243539563525
B   13.09114999093099   10.18632866112351   9.98047056678446
B   10.19055329073391   13.03001112375003   10.04001333633774
B   9.14122138976506   9.23445822595760   11.75116706325618
B   13.13428404831754   10.19920225173252   11.56861370439925
B   10.22844874187584   13.04141130144766   11.64762449667504
N   11.77379466204633   7.20127653199956   10.71600191494080
H   12.10717056938880   6.77823513354742   9.82507605061318
H   11.96582232714055   6.55348401535916   11.47524294308533
H   9.64145616868995   7.97798012862660   10.27348349530456
19
F:    ...  E:  0.390136049999995
W   11.32822388051395   9.13111661934879   10.85586993647129
W   11.96043440687358   11.95428211155141   10.81057682788910
W   9.30328573785734   11.19133166872641   10.81646606068394
B   10.55762466336438   11.73307485391324   9.06912777687282
B   10.09381795198797   10.09182987139192   9.11747700706151
B   11.77997792142773   10.47428538414943   9.05838796881876
B   10.63996260147869   11.79959119062220   12.59234972662981
B   10.22203031136546   10.11821516841066   12.62725790935869
B   11.87564888978487   10.57686286332921   12.54958787054471
B   9.12253491717838   9.09492637462145   10.08438984814364
B   13.09653108414715   10.18734613236630   9.98682111470629
B   10.20325381489418   13.04107228173739   10.02848154909677
B   9.16554873850842   9.27025768201264   11.75693772001318
B   13.13181115774025   10.20845348685802   11.57759555764593
B   10.23964552007317   13.06767927043726   11.63603018496475
N   11.77467121498238   7.22383648371124   10.72075100656784
H   12.29792587043040   6.84175567365884   9.92400165816520
H   11.70261438926266   6.50535409225383   11.43678055039743
H   9.26837387933707   7.90496439785304   10.02705398292325
19
F:    ...  E:  0.149864999999991
W   11.31144138461442   9.14273964752482   10.88141705680390
W   11.97141208434240   11.95918562950023   10.81694925709406
W   9.30899627911117   11.23736241650294   10.81637403151586
B   10.56290871309884   11.73663787791437   9.06845196108696
B   10.09468977514607   10.10467483712031   9.12552423188558
B   11.77371936175587   10.46575168309091   9.06834842615346
B   10.63933323922399   11.84321828281293   12.58989667581563
B   10.20233167243367   10.16612632430096   12.61865196047290
B   11.86737911436652   10.61075281638714   12.56125375113710
B   9.09975601322502   9.08609276124173   10.08732710355595
B   13.08700619538332   10.17722890922706   9.99434982515042
B   10.23446365422486   13.05618876195537   10.01172771122408
B   9.17696375388392   9.28478323500006   11.74273365286410
B   13.11988395332528   10.20530454639872   11.59203025244516
B   10.25863641367721   13.10192362665012   11.62236967110171
N   11.72358975592472   7.22809862256470   10.71487993555363
H   12.41461541083561   6.87094155036414   10.07251195858206
H   11.40948928985899   6.47877208976034   11.33180272349455
H   8.96444373074950   7.91904006900542   9.81212640037212
19
F:    ...  E:  0.00438523999999063
W   11.28012496400557   9.14499454257060   10.88796470749559
W   11.98535374444676   11.95504903159684   10.82818201930333
W   9.31421937731291   11.28174130495230   10.81814966608830
B   10.56744544283300   11.73828395148549   9.06750792834832
B   10.09355069932146   10.11243430990732   9.13332025546312
B   11.77027880446634   10.45549411367214   9.07665198688677
B   10.63609860825215   11.87543343054926   12.58292073210965
B   10.17357255605559   10.20152287190405   12.60115167717925
B   11.85204877848962   10.62830675597887   12.57140619758451
B   9.05646263472501   9.09528902041951   10.07363208157225
B   13.07125913419385   10.15940248866276   10.00622983661999
B   10.27390382783069   13.07506944071623   9.99183176496603
B   9.17078513502405   9.29471601662205   11.71159671562859
B   13.09818871828147   10.19147533839712   11.60760771603258
B   10.28006150336979   13.13858896508438   11.60611948968388
N   11.67719433467918   7.22317836093995   10.71865962616880
H   12.48550980320657   6.86558130844764   10.23733906271302
H   11.18999346998818   6.47241829328697   11.20648419097125
H   8.64515623162158   8.05158152712124   9.63929679672775
19
F:    ...  E:  -0.047769130000006
W   11.24215488590311   9.13923756549351   10.87675135559723
W   11.99359128157664   11.94227699651588   10.83652772435553
W   9.31932985541211   11.32229953896577   10.81485813104798
B   10.57228158156868   11.73768922173920   9.06071153616501
B   10.09138968962388   10.11492456990223   9.13299084798848
B   11.76455940758406   10.44454159023803   9.07987095781784
B   10.62854649652614   11.89280189997995   12.56937196485731
B   10.13789936084108   10.22076629588642   12.58068931236731
B   11.82832123458746   10.62893581580561   12.57924682651335
B   8.99490686860436   9.13768125873660   10.04658923554744
B   13.05136316006819   10.13669474791828   10.01971752751811
B   10.30995564352777   13.09159502775555   9.96868713954702
B   9.15035490537771   9.30308643994216   11.67602310798272
B   13.06916019470528   10.17031563371296   11.62320544058649
B   10.29623008692136   13.16719805023585   11.58480354493619
N   11.63820768956852   7.21492188146950   10.73029537103871
H   12.52784750306588   6.83772657756697   10.40786664778268
H   11.03928984864156   6.47384550722072   11.09318138196454
H   8.33166978267021   8.28609674202499   9.51268944419200
