31
F:    ...  E:  0
W   8.26428780004127   10.08309368886317   10.09051967549052
W   11.89485726696296   10.08743234407240   10.09143586209993
W   10.07817915525396   11.01134133242893   12.04758145992336
W   10.08111157054159   8.54573064833423   11.54272079003710
W   10.08186024520505   8.21817048502174   9.06332930823683
W   10.07938439533328   10.47390561275818   7.99619327157126
W   10.07706613815917   12.18443894072659   9.82158841897751
B   8.18785779879537   9.01522987132287   7.83437542982531
B   8.19690388662227   11.89061013328405   8.37186144936425
B   8.16733035716698   12.26137650235991   11.26866778039050
B   8.17295956875098   9.61180332970099   12.52320743740031
B   8.20068437236722   7.60790575307665   10.39893753872545
B   12.33182346617628   12.55131988271379   9.75593427987333
B   12.33062860587992   10.54327825098771   7.64318209858620
B   12.33392886066846   7.90609909125273   8.89164766728187
B   12.33625677990165   8.26641576663811   11.78451177944559
B   12.38133168765966   11.12259330752057   12.27908984442292
B   11.97313412736059   9.01887919608002   7.83361281455703
B   11.95926149145463   11.89385207352478   8.37177734100846
B   11.98792562163528   12.26507399174733   11.26879494757749
B   11.98819327793374   9.61674523208247   12.52286301082825
B   11.96486300556986   7.61249617297406   10.39837447700096
B   7.82252369286630   12.54773029500972   9.75579338449237
B   7.82798339344876   10.53903881395214   7.64366760201459
B   7.83042619882115   7.90126285716108   8.89232575187207
B   7.82764709155661   8.26018868456349   11.78545552600244
B   7.77198599653352   11.11438359450880   12.27294690566047
N   10.08649761146973   11.98437807238196   14.11206813648041
H   10.74607505879443   12.76719433475564   14.13616857735355
H   9.15427791918449   12.32244253433027   14.36547510279369
H   10.38897279524344   11.30830558474594   14.81819397984216
31
F:    ...  E:  0.0365669100000048
W   8.26908954369484   10.08965764496352   10.07189606895967
W   11.90216509862089   10.08362400627065   10.06948294174915
W   10.10010160029454   11.00600064088023   12.03311168596395
W   10.08036667409188   8.54625637712839   11.52715984696758
W   10.08357195321973   8.22264528679153   9.04628104861036
W   10.08614720580611   10.47781048050252   7.97945841985946
W   10.08409360855052   12.18627424452376   9.80815637265011
B   8.19191146727041   9.01705429898005   7.80986175731470
B   8.20172000115831   11.88993422230863   8.35223641387342
B   8.17707231342284   12.26495405974286   11.25177636775323
B   8.17961032588769   9.62111558509002   12.50549471516708
B   8.19763706353096   7.61970428893722   10.37557354332744
B   12.33980731462418   12.56745092991187   9.72845974486895
B   12.33944806371549   10.54456621741992   7.63572772866926
B   12.33571807204872   7.90511851681956   8.88213475487661
B   12.33471370735844   8.24121106222789   11.77350415689003
B   12.41449666869881   11.10416137443677   12.23034340809748
B   11.98252979592540   9.02031358302674   7.82482168845148
B   11.96524006032620   11.90010881539721   8.35149143179228
B   12.00894459933500   12.26279003090153   11.24083318474100
B   12.00840734940265   9.60499381711434   12.49433159116602
B   11.95797226746675   7.60230330105577   10.38347874552452
B   7.83309246085714   12.55119961952652   9.73665445869082
B   7.83498375824805   10.53993177532085   7.62088499991426
B   7.83199192441240   7.90525806404696   8.86673447783556
B   7.83172356062254   8.26986888276235   11.76646908586977
B   7.79389409493052   11.12907636698525   12.27287712750668
N   10.26548961348329   11.89302995834668   14.14027276365400
H   10.66514408373494   12.82569505189734   14.02191459494676
H   9.39228747769548   11.97630619074559   14.65755031653672
H   10.92298941562306   11.32820569847317   14.69064685701245
31
F:    ...  E:  0.170430799999991
W   8.26749195274858   10.09506391758914   10.05401530826165
W   11.90240748082151   10.08087054524552   10.06614079978405
W   10.10080557702396   11.00317278911660   12.02094772851774
W   10.06812069185842   8.54754650483187   11.52057659877173
W   10.08660671046260   8.22837070091746   9.03719828536718
W   10.09589399329519   10.48844597807117   7.97425820438833
W   10.08396809575665   12.19200301575453   9.81016618549546
B   8.20448789138674   9.02059396735231   7.79268914313043
B   8.20745835156917   11.89339472661305   8.33695482221866
B   8.15673110441484   12.26812445363683   11.23546234939652
B   8.16793777806560   9.62712977439270   12.48980035283438
B   8.19347877442813   7.62607014930905   10.35828404940674
B   12.34713599760909   12.57902350518763   9.73902344781237
B   12.35286319169994   10.55512930352755   7.65316218001038
B   12.33914318885462   7.91204252643164   8.89079188818485
B   12.32387223467174   8.21745171331136   11.77904632153688
B   12.44523954815262   11.08077499750358   12.19565116463491
B   11.99547643227137   9.03079558484083   7.83532560393381
B   11.97542182621759   11.91163392425057   8.36385624530278
B   12.01267134393705   12.26421028334677   11.24798226556686
B   12.01539617327175   9.59279557605850   12.48200606217769
B   11.94596681928779   7.59342141375583   10.38393322256316
B   7.82858074180847   12.55713458602971   9.71726714462151
B   7.84672832622482   10.54234703204372   7.60391115481203
B   7.83840996272226   7.90945644048905   8.84697229315559
B   7.82322914103361   8.27519349500094   11.74948204839636
B   7.78868726940453   11.13610133167664   12.26433944267044
N   10.44318294975735   11.82892666081395   14.11800854788429
H   10.52382731853158   12.82889606260360   14.04321286507141
H   9.74721251463565   11.62491904351296   14.85218540619514
H   11.37944942449877   11.40846997257801   14.33022432620858
31
F:    ...  E:  1.23176941
W   8.21392270131101   10.07759047070645   10.04778828507451
W   11.85566504991884   10.08607848031554   10.20930818093198
W   9.95853625221885   11.01934777761930   11.99894214647055
W   9.99371870678867   8.54669920346194   11.58585173198191
W   10.09507899723538   8.23527051617615   9.10632704646827
W   10.12117431771884   10.51410818863113   8.06219909539401
W   10.03773994372284   12.22761735617186   9.87812074230986
B   8.26063267234240   9.02767085435191   7.82358110018750
B   8.21926721571453   11.90971503726221   8.34309491143440
B   8.00099166988328   12.25634462964371   11.22653616551292
B   8.05877829051068   9.61748323631536   12.48622437595322
B   8.17867946184749   7.59619464238515   10.37128240964079
B   12.33860223574372   12.54742391759257   9.93905691897672
B   12.38621217767765   10.59830410526714   7.78411589058917
B   12.35737245875721   7.95330977636670   8.98976751948419
B   12.26520106252231   8.23135643157125   11.88662470702380
B   12.43708430266197   11.05616256576722   12.25980397503986
B   12.01952362118666   9.07910107191135   7.94834092228526
B   11.99819715443922   11.91948189509610   8.54390962231290
B   11.90488937142354   12.30143367826650   11.42853803526789
B   11.90309170270709   9.60150194235599   12.60459761830312
B   11.93923942133520   7.62039374908249   10.47240093114691
B   7.76950038921988   12.57222314192999   9.69980680599646
B   7.89537314523878   10.54653267687468   7.60940457025470
B   7.87063703778830   7.89083027441623   8.84817741585916
B   7.74634634039754   8.25417820992750   11.74435026680835
B   7.62629097298348   11.10596936429041   12.22646686783072
N   10.38694009608063   11.94957507265287   13.85152189412989
H   10.53670183556252   12.95053168079209   13.97057353071409
H   9.83270531560725   11.58912222482987   14.62221796593191
H   11.27560085794431   11.35488276847179   13.63194487749141
31
F:    ...  E:  1.73482636999998
W   8.22410839954889   10.08971183435260   10.05842832213094
W   11.86702918403231   10.10038945817186   10.24550388814501
W   9.96129533659205   11.08867959035136   12.12206944648112
W   10.01117704260305   8.55085541051902   11.60075633105813
W   10.09611331829223   8.25079694638110   9.11979407598954
W   10.12185927429907   10.51183726184514   8.07495837145381
W   10.03508657756933   12.23572867888469   9.88197858480714
B   8.23990484259195   9.02645008915274   7.81230987743696
B   8.21889800823955   11.90257104649514   8.35256074897453
B   8.02853007301598   12.24873343475976   11.23447482148593
B   8.10263766601334   9.62009372061279   12.49591650912761
B   8.18720004417592   7.61499746376575   10.37272069464450
B   12.33950949171864   12.58982811285228   9.87238744119284
B   12.38841253143975   10.58377205172690   7.76532251178903
B   12.35626776865707   7.94071490345698   8.98116239445075
B   12.27217537561269   8.20376855010369   11.90174039285860
B   12.41428797826590   11.11131373856657   12.21374675008948
B   12.02102469245108   9.06109730622652   7.92598864734172
B   11.98498877900065   11.91686876027319   8.49871983514947
B   11.89810294247776   12.34381299750697   11.36511642902787
B   11.91627340697385   9.61444280360155   12.56887446202225
B   11.94261002839330   7.61572678454128   10.47189597370802
B   7.78424287190653   12.57065880596885   9.71125987695040
B   7.89435258946845   10.54784297474974   7.60603987798648
B   7.86938332954198   7.89847308338342   8.84821056137109
B   7.76204550237516   8.26689213339870   11.74806041366350
B   7.64350688598198   11.09920085646548   12.22567874105870
N   10.15363640710650   12.00550066753320   13.90173467705406
H   10.52586276753323   12.96683891977869   13.98234344724740
H   9.67736249108110   11.73428460555300   14.74421311793266
H   11.82420243546434   10.83840587776722   13.38600706157254
31
F:    ...  E:  1.36685835999998
W   8.22272821325909   10.08090998055662   10.05438457678920
W   11.89406115174369   10.07270822258024   10.23428909623150
W   9.92401108456807   11.06390056744331   12.12908382985136
W   9.96598896182628   8.49570898901749   11.61991577747203
W   10.09682214250436   8.23855325227061   9.12303482367009
W   10.12644249867242   10.51805927691806   8.08525641587766
W   10.01218888923813   12.22341186900985   9.90828389546012
B   8.26564715423687   9.02934572869014   7.82250713444433
B   8.22567768896427   11.90836514918011   8.33722401838785
B   7.95697889994043   12.23564064085028   11.21912580117999
B   8.09451247922923   9.61235078974371   12.48495798925251
B   8.17654761972842   7.59168037231226   10.36318400523062
B   12.30530599441941   12.51923363200611   9.92406171648840
B   12.37393753407891   10.60275486036072   7.77514320872540
B   12.35810055568255   7.92783310981586   8.97014483308095
B   12.23139258539155   8.25186088397390   11.87089974490031
B   12.21459258983137   11.14412008128004   12.46996190073402
B   12.00614466555889   9.06392883428069   7.91685297896965
B   11.98867300839471   11.90321255514846   8.54468993760521
B   11.83559197289428   12.28497040501284   11.40461533919322
B   11.71407010333665   9.60119520142343   12.49765094723893
B   11.94663408516432   7.61265698554933   10.47031181297363
B   7.76677954496869   12.56211155452741   9.69521924008867
B   7.89426965173880   10.55042293524207   7.60637066482894
B   7.86745292991288   7.89017868718535   8.84352122528656
B   7.72907169496753   8.26978922463292   11.72272342266664
B   7.59659230693750   11.08753835716828   12.22042244011751
N   9.97062378939991   12.16309235439745   13.83290433853822
H   10.46625570133088   13.05764104409374   13.93569228156672
H   9.40103911005535   11.89892369910071   14.61313522491089
H   12.40127105706264   10.91491101818042   13.68628096725776
31
F:    ...  E:  0.792082099999988
W   8.22980687180973   10.07150628633827   10.04816830510089
W   11.91293633210740   10.02841776915461   10.12596060747895
W   9.91668486086228   11.05166051630538   12.15244034317326
W   9.96133582604603   8.44611770027105   11.60436169857783
W   10.09155985103780   8.22322071725728   9.10757240157144
W   10.10912377196735   10.51899872340371   8.05332885130292
W   10.01898224776025   12.21570087819407   9.89494440214105
B   8.29267121681247   9.02445378874993   7.82240625747915
B   8.22155178277978   11.91283697054027   8.32381591858744
B   7.96337755224990   12.21577714280771   11.21582899580487
B   8.08895030180602   9.60486755899509   12.46577176858072
B   8.16121914678801   7.56665705734207   10.34227968339024
B   12.27601250448524   12.44966773794872   9.98091736120575
B   12.34889532191795   10.59998460645560   7.74267003168101
B   12.34708419551190   7.90021442641592   8.94640746634948
B   12.19273134707498   8.33700444994865   11.81616655400454
B   12.12834538015480   11.19977241923161   12.78556571767983
B   11.99555129119493   9.05375362994081   7.90180806490968
B   11.98758859288947   11.89958951946424   8.54556574603613
B   11.79286178271314   12.14303195189715   11.45786754277026
B   11.63195091041735   9.67003161861502   12.46787976930616
B   11.96373031265876   7.61139786333186   10.45074288390550
B   7.76782166816183   12.54641543298890   9.69086999202069
B   7.87780642778431   10.54436147989883   7.62330213843843
B   7.85406415684446   7.88206870149990   8.83091633738457
B   7.73770311409844   8.25704388361616   11.69969142520366
B   7.58304621583997   11.07890574052391   12.22108216985074
N   9.83061767528050   12.19489073693721   13.81819518894123
H   10.57445831856400   12.84068171036357   14.07682201650623
H   9.08407795512061   12.12050655170239   14.47549023454730
H   12.66432223305167   11.29822247745678   13.86133363459433
31
F:    ...  E:  0.595906009999993
W   8.25034783126216   10.07196166684189   10.05158147690356
W   11.92231431296912   10.03248065029885   10.07712273737439
W   9.97418684446577   11.04411502685958   12.16792275312952
W   9.99857539669827   8.44876048926486   11.58019401892597
W   10.08711487274039   8.21787850786536   9.08074598835806
W   10.10122905213344   10.51376909805800   8.02719290531663
W   10.04492415170914   12.22934503193642   9.86278407732286
B   8.29310864108441   9.02902895378176   7.80751487871213
B   8.21588588881458   11.91316567018267   8.32555882327297
B   8.04096772171403   12.20755040180460   11.23757733400832
B   8.10910967099383   9.59940053533195   12.46053602743469
B   8.16753898018016   7.56692131868031   10.32569350889836
B   12.28398619176742   12.43856769775304   9.94179722403611
B   12.34682125027834   10.57568465123899   7.69339799071010
B   12.33711324964684   7.89106495878676   8.90024463442431
B   12.22455290330885   8.35381024545940   11.77485006066585
B   12.23521014495428   11.21829464148120   12.74379904753762
B   11.98038671678545   9.03904615448963   7.86649287569767
B   11.98932692763151   11.90127072292197   8.49378686339361
B   11.78815917848212   12.11383880356952   11.40431842532708
B   11.69093797360980   9.67547891847688   12.46856334612733
B   11.97188326724669   7.61241154580059   10.41540979426014
B   7.78550139893365   12.52722611581233   9.71235529272650
B   7.86987226703973   10.54685770548945   7.61686962592134
B   7.85085844241155   7.88935642963704   8.81619536868555
B   7.75988034391833   8.25560890704577   11.68908058103640
B   7.62694503053736   11.07988366510591   12.24212275968146
N   9.90156359554050   12.05996987231220   13.89316105342024
H   10.73766639513909   12.45566453576582   14.30717284622268
H   9.08553617312721   12.17274183519070   14.46418098637131
H   12.89531882465744   11.52955677045633   13.71953755922434
31
F:    ...  E:  0.451524879999994
W   8.27212701118305   10.07743604890689   10.06229230728495
W   11.93242335917869   10.04621883189023   10.06677967594134
W   10.03726882160088   11.04416146256958   12.18594504203908
W   10.02669424921070   8.45620770328294   11.57072294295114
W   10.09003981991118   8.22082243935610   9.06794633122491
W   10.10307243587653   10.51544239173978   8.01816846200138
W   10.05753491670405   12.24368839188363   9.84575196723324
B   8.28483150564575   9.03907960762489   7.80733406665191
B   8.21808656231721   11.91483168992470   8.33836011804748
B   8.11190884569823   12.21202233436279   11.26408590789853
B   8.13726540537272   9.60047094270301   12.47061013797961
B   8.18417348292951   7.57479661025461   10.32679621184606
B   12.30348548446100   12.45402602363218   9.88531420396671
B   12.35010484354893   10.56026142778839   7.66434905917754
B   12.33681652130379   7.89610505988780   8.87045833949290
B   12.26516966332072   8.33257860569980   11.75453891692408
B   12.33300621717279   11.19814968269478   12.61317996658329
B   11.96353473462216   9.03539567831022   7.83976377524083
B   11.99470419851927   11.89904379236282   8.44652893757110
B   11.79302942544933   12.12772895106626   11.34454059705119
B   11.74488225075083   9.65229968276595   12.46120323136827
B   11.97641740676541   7.60974388186616   10.38874908718620
B   7.80511103741396   12.51376015859753   9.73931576856509
B   7.87067359147888   10.55712187692268   7.61639233754067
B   7.85508711227726   7.90031066219853   8.82048564397685
B   7.78208749996448   8.26269917700738   11.69169721400228
B   7.67526464819030   11.08743073498560   12.26589632599181
N   9.96526490552620   11.95122312773180   13.96102334868757
H   10.79612250871281   12.24958040911434   14.45695906617668
H   9.12536263897920   12.13849916727721   14.48702808946551
H   13.15227252313072   11.53725188603236   13.44634079896452
31
F:    ...  E:  0.369503199999997
W   8.31068903759983   10.08749312479195   10.07748036836935
W   11.94158840896841   10.05594804380433   10.04416322596823
W   10.08856013413344   11.04687531933875   12.20070581718217
W   10.04431690091669   8.47518098158969   11.56634081987750
W   10.10257695841799   8.22641983035345   9.06187184454168
W   10.11396150322836   10.52067077296657   8.01131005612893
W   10.05969452839524   12.25583676888565   9.83522675572939
B   8.27758587307087   9.05233795576574   7.81615733043576
B   8.22796738966353   11.92047976117097   8.35437641275754
B   8.18328180103104   12.22167523295112   11.28856481741409
B   8.16983375249212   9.60729930456359   12.48595315324641
B   8.20747419594018   7.58602496106612   10.34032402021757
B   12.31289317967272   12.47483553180623   9.82808321118820
B   12.36107691612380   10.55532439143088   7.64314721743615
B   12.34788815185770   7.90596502467820   8.85422123653758
B   12.29734523250682   8.30714663499000   11.73420724325350
B   12.41580363295740   11.16497682367019   12.47073350567386
B   11.95770190748054   9.03397063074205   7.81421992502718
B   12.01340937493386   11.89969587793932   8.40145438617955
B   11.80798697914202   12.14308403006352   11.29151362418764
B   11.80214842041838   9.63492317755247   12.43867607241159
B   11.99301412519127   7.60568351647881   10.36668979262964
B   7.82987417721209   12.50186114337076   9.76711220865919
B   7.87457575011906   10.57261787398523   7.62299468804642
B   7.86138842238447   7.91819845666390   8.84171823913758
B   7.81134123658181   8.27497985528298   11.70400738936899
B   7.73641786222683   11.10089082676375   12.28914249106099
N   10.00775372574047   11.85246718228581   14.02253474205286
H   10.81813259546931   12.08076063392736   14.59465488420107
H   9.14132613207220   12.07144391990019   14.51092329903100
H   13.38863491954185   11.45550952317259   13.11665443747316
