22
F:    ...  E:  0
W   9.08905346939615   12.87545360617607   10.94060039322805
W   12.95826553128419   11.75894165693019   8.22904001837283
W   9.09112960787090   9.04400736010887   9.34555485410422
W   13.03237148176975   10.23004407132154   11.89882149121176
W   10.40089810941154   10.40132502262573   11.48260220233864
W   11.96039593104139   12.62240181302150   10.77374443673689
W   10.37922382877239   11.48431694554599   8.88505186104675
W   11.96307197963561   9.34303089288207   9.40734741606146
B   10.45221931891066   8.24011717491843   10.66754905173040
B   11.79694997851534   11.67908088273996   12.76662229740401
B   10.36259871477682   13.68088489842416   9.53625175370624
B   11.69930779315210   10.30446617069601   7.42301866467765
B   10.36508605649049   9.47535562405929   7.78488967086340
B   11.79787258637855   8.59214829256666   11.48175194489046
B   10.44752858557031   12.49963735063989   12.44399434335499
B   11.69775749880164   13.35441311693901   8.69383840149553
B   13.50567136800606   10.99725775941359   10.05958073737134
B   8.61210412084061   10.94365084325109   10.18152002045937
N   9.19351418978849   9.66174955278751   13.25456254608111
H   9.55095663555551   10.09820463426993   14.10826375074604
H   8.20807543042325   9.90919454795521   13.15100257989381
H   9.27719619504488   8.64556619416364   13.32563997566202
22
F:    ...  E:  0.0701021200000014
W   9.07559043666311   12.93225959777195   10.95047754831113
W   12.95923448232721   11.82170878338078   8.26619448670788
W   9.09235159011284   9.08804188045238   9.37241865092960
W   13.01808121663315   10.28543859160943   11.93378683985252
W   10.38923327533402   10.44722393709679   11.49567593272596
W   11.95456973260235   12.68554896776709   10.79962388712160
W   10.38384118835015   11.55600322834435   8.90675644656531
W   11.97484593548189   9.40447347046010   9.45079117891783
B   10.46936951782300   8.27839343187785   10.67772037547804
B   11.77238635489557   11.73062056733857   12.78728960785110
B   10.36052148113023   13.75012172549100   9.55881216836586
B   11.70580701603219   10.35809169294353   7.46550010374164
B   10.37164380166962   9.53180888017877   7.82982923519130
B   11.79619433840324   8.63581524609088   11.51694523470617
B   10.42347568215610   12.54823215669057   12.45517437697111
B   11.70368261368582   13.42957744171501   8.72244703092080
B   13.50360173708305   11.06482804444504   10.10151800836388
B   8.60806035899996   10.99674386760168   10.18664793136835
N   9.18592647543599   9.46464423624476   13.17267743558132
H   9.42454107174724   9.82404158366577   14.09108372602180
H   8.18152646925800   9.51243973838254   13.04672714049277
H   9.48676363561147   8.49519134188754   13.05315106525063
22
F:    ...  E:  0.394186889999986
W   9.07099677498561   12.99289057453437   10.93977402306992
W   12.95446482861558   11.86201921378150   8.30688971472812
W   9.08775355656048   9.10923883035366   9.44093671907072
W   13.00181875542449   10.31763885443521   11.98152333203890
W   10.36325411423908   10.48556628288561   11.49944189271587
W   11.94960736591590   12.73959297811903   10.79839719772276
W   10.37609587559765   11.62634270491760   8.92563688084225
W   11.95453413527968   9.42595713257064   9.52951046266985
B   10.48498876026425   8.27350182116600   10.72926241272249
B   11.74059986392684   11.76429849281411   12.78623936346320
B   10.36549473622216   13.83238812552904   9.55445408739027
B   11.70115165510895   10.38264568814389   7.55133416869455
B   10.34928419744981   9.57534357793016   7.90295430067783
B   11.78427166533480   8.65599331574942   11.60243140037236
B   10.40400454437629   12.59894536439847   12.44749715352194
B   11.71198146351343   13.50430101516142   8.72312702360422
B   13.48009764195691   11.08043499334159   10.14005720190885
B   8.59355600998499   11.04197277282882   10.19906934468037
N   9.17453713507817   9.34722070873466   13.06812464744795
H   9.39700159265817   9.55107388720342   14.05129155106421
H   8.17901013780042   9.13351489673810   12.96845495813845
H   9.71674360114086   8.54036718010005   12.69484057489156
22
F:    ...  E:  1.31208523999999
W   9.08539699569992   12.96581461114605   10.95229743316276
W   12.94651832932842   11.80420588541761   8.29123450291381
W   9.08554205765918   9.08229571550644   9.47233425011170
W   13.00593544371038   10.28884309567791   11.99899998087215
W   10.26713641796929   10.45885737216778   11.67642259646791
W   11.93643685354086   12.68140447186161   10.75971459948597
W   10.38458621918501   11.58442026551848   8.95089746242871
W   11.85990794068806   9.37098939199694   9.57061114329099
B   10.44296896878473   8.23546631320749   10.84331490673732
B   11.75739927683667   11.74300667978133   12.77803475551771
B   10.36412580143939   13.79970586753848   9.53465660091745
B   11.69395588217824   10.31734128164539   7.56540547648693
B   10.31966275808919   9.52447598025573   7.90502268338372
B   11.82420634875976   8.62664484954639   11.62721668000413
B   10.44002177312272   12.59831001675813   12.44662566389083
B   11.70894975165097   13.46544193713830   8.69114202800226
B   13.43117790750209   10.98897964798013   10.12276934917219
B   8.61154918807236   11.01071812272912   10.21825700763122
N   9.14363274984455   9.60450444262430   13.16369816950623
H   9.39555341046003   9.78097848069282   14.13696970134813
H   8.15709259559227   9.37839783753432   13.03993957762619
H   9.97949174132180   8.53044614471173   12.09568384247822
22
F:    ...  E:  0.701858390000012
W   9.09603435392707   12.95096142558729   10.95004552391742
W   12.94843193955621   11.79587023074377   8.27722475535028
W   9.10055117163146   9.08109569163581   9.42623472481213
W   13.06711095415287   10.34120035410373   12.01149978058272
W   10.22931858985203   10.46571763819906   11.78375548835303
W   11.95650273961199   12.67464255828062   10.75928390715820
W   10.41382761246923   11.51849671625546   9.00492788759912
W   11.84412791264191   9.38223605653344   9.52910774190928
B   10.48094113729708   8.22787545071286   10.79922365999127
B   11.76758812701525   11.74906264915257   12.78086874394835
B   10.37796672383541   13.76239066131945   9.54410007510942
B   11.70698539406400   10.31137155525207   7.51022083023378
B   10.32170927955180   9.52085498810686   7.85169309422589
B   11.83725234613442   8.76850350045332   11.58121554733096
B   10.46688991832971   12.62363900580282   12.43980778206488
B   11.70825949274232   13.43479318412372   8.69681848296075
B   13.45181891172033   10.96026443413595   10.09743383554829
B   8.62179242329876   10.98342923560665   10.24234278382028
N   9.12457193701695   9.85527464448812   13.29102409204251
H   9.25059743352447   10.09524983696330   14.26049150551787
H   8.25565814060135   9.31713067942207   13.20553817081327
H   9.81331187246139   8.02118791455725   11.79838999814654
22
F:    ...  E:  0.597142459999986
W   9.16150589120909   12.88889478893149   10.92335821248325
W   12.97705801341691   11.75736198382670   8.21100828543853
W   9.14414133392691   9.10856621251606   9.42593481159742
W   13.11145922509026   10.28728154972500   12.03278797231633
W   10.24114953858405   10.41488594435722   11.97243042157444
W   11.92257501871139   12.47041092265240   10.66661168474772
W   10.24411688769189   11.63649799369758   8.60625413090809
W   11.68707698035947   9.71744021459645   9.68038271967392
B   10.49373851250965   8.27135288842573   10.88648706867152
B   11.84518718310966   11.72226030850300   12.79651508375640
B   10.41713849551326   13.69793549036901   9.49739860029136
B   11.69715334044192   10.32688009375773   7.46572899252848
B   10.30832579691133   9.54955990235830   7.79509630113591
B   11.90355859952212   8.69795002757366   11.64266901227514
B   10.54356091730565   12.58534356813331   12.42132938056899
B   11.72905995029155   13.36789577143539   8.61648421804770
B   13.53523069976032   10.97474495184790   10.09378768318273
B   8.70815347601469   10.99216562501679   10.21333585470846
N   9.02136422408944   9.86273097516552   13.39592813735565
H   9.21136278305258   10.16030034098134   14.34308710431459
H   8.14706407026785   9.32960911783502   13.30648840939819
H   9.79126747365615   8.02117973973064   11.84814432646153
22
F:    ...  E:  -0.0781523900000138
W   9.18319715164293   12.94291944258613   10.91225020973493
W   12.99574182181636   11.80076132085929   8.20210900961947
W   9.23793606797000   9.22691837044345   9.49176441168891
W   13.14458770410944   10.30759127874611   12.08068939997072
W   10.20059069960535   10.43526203101745   11.99458407669841
W   11.80829720821612   12.33017406399090   10.60338068163271
W   10.19161738886844   11.73933078913208   8.46053619000153
W   11.65852758686207   9.76775189732415   9.69518597659420
B   10.45675033781720   8.31735708505159   11.10041539963765
B   11.86655343664282   11.72724573919598   12.83544822214558
B   10.40059939527657   13.71498211402394   9.42817085226971
B   11.72421103306640   10.37560057296128   7.45682524991591
B   10.28844873679000   9.65948616926994   7.74174450288520
B   11.91446048765536   8.76820764110936   11.69549370661774
B   10.54279294277127   12.55715608986802   12.44557752057996
B   11.76172371829009   13.41140476778879   8.60685426238746
B   13.54574315876748   10.99670060743041   10.12511964620954
B   8.72968750030823   11.09290286984563   10.17673489225982
N   8.99810440616941   9.79005253529216   13.37486528512761
H   9.15024482512523   10.17727093723442   14.30539277469790
H   8.26488716590011   9.08816998792336   13.28601294241043
H   9.77654563776519   7.61400210034164   11.82209319835090
22
F:    ...  E:  -0.451956899999999
W   9.18747629927451   12.99414659445921   10.91438167351762
W   13.02472099950921   11.85986810660433   8.20788238482087
W   9.26436060799593   9.27572124538934   9.51617537046135
W   13.15133978855473   10.35450049100084   12.08142870753217
W   10.15078204268412   10.41248951769607   11.96984949744840
W   11.78610915934451   12.35821600467176   10.62983910267868
W   10.19584102687117   11.77906067577858   8.48678422413235
W   11.66746761360330   9.80845278992847   9.72005468209831
B   10.42888300985638   8.29613965988863   11.13629902709562
B   11.84031357397982   11.73598266487708   12.81531899332055
B   10.40709707481939   13.76488914504264   9.42519654762091
B   11.74618377855838   10.45100059773053   7.47278529379508
B   10.32035378277246   9.72107792403418   7.75335668348919
B   11.87934998491194   8.82760711359655   11.71769682638486
B   10.50592422408706   12.56982316815895   12.47074189091576
B   11.77469012625239   13.44738525623662   8.62262252226760
B   13.53283398024204   11.05607963534947   10.11977906379576
B   8.73924676519483   11.14924121708167   10.17929745016198
N   8.98655727990564   9.68569103139243   13.35661678141523
H   8.93416381565050   10.14478209666981   14.27173883736064
H   8.43906460138741   8.83032470705514   13.34097533912096
H   9.87848887598045   7.31876876879388   11.63242751200243
22
F:    ...  E:  -0.613284620000002
W   9.17448514228625   13.01721528882174   10.93232086990468
W   13.03677160089859   11.90920141718133   8.24538411915690
W   9.26804954069881   9.30117023688575   9.53549225601686
W   13.13767381232840   10.38529388015866   12.10614152237041
W   10.12548455959853   10.38383006328046   11.96407202416201
W   11.75971062181824   12.39193561248569   10.67037092717115
W   10.19185643770256   11.81274900416028   8.51232306128077
W   11.68108230689208   9.85112443114343   9.73280077432732
B   10.46557794124997   8.27193001818273   11.08670895791541
B   11.80650626345329   11.74271825838271   12.83767172683658
B   10.39849201395270   13.80169815918758   9.44481527969226
B   11.76217367530593   10.50086545661358   7.49545557478981
B   10.33911312416842   9.76305185617461   7.77910141953656
B   11.86777402857311   8.84666091167285   11.72226442826671
B   10.45592998609840   12.55943581111766   12.50611751743947
B   11.77229577412730   13.48096601615464   8.65664794984019
B   13.52735873561416   11.11403395984196   10.15628918773812
B   8.72263195221930   11.17906547458284   10.18639050785408
N   8.98614776435714   9.59669362089461   13.34720744288050
H   8.75139068744654   10.10931937916433   14.20198391767383
H   8.60380163623524   8.65522526444585   13.37684634185431
H   10.00694080640983   7.16706429090289   11.34484260472736
22
F:    ...  E:  -0.504418700000002
W   9.15146574796885   13.02463514123706   10.95757882519503
W   13.04119681611604   11.95310206756320   8.29303429415970
W   9.26145333663717   9.31506277399320   9.55116875142544
W   13.11521819421708   10.40615919158952   12.13432183818487
W   10.10956055038992   10.35563914392282   11.95656869462872
W   11.73311273203312   12.41582924267379   10.71789291064035
W   10.18942189773868   11.84907197320993   8.54051552202818
W   11.69734431253399   9.90062562801107   9.74336550161227
B   10.52467828827659   8.25323466466618   10.99851385601852
B   11.76153539606904   11.73675145303087   12.87259723131268
B   10.38928546315168   13.83295655070731   9.48448608490278
B   11.77127919601471   10.54294497107439   7.52074796123109
B   10.35822006603259   9.79878449338271   7.81866636740750
B   11.86490799462604   8.85889844400985   11.72067441025103
B   10.40331906878484   12.53697712708726   12.53854989923783
B   11.76547585140226   13.51575017338299   8.70132512928458
B   13.53015208212696   11.16859129860420   10.20227929977807
B   8.69796993283611   11.19596567381951   10.19103544548502
N   8.98691525610391   9.51619287257550   13.34171767506446
H   8.59891974053165   10.04353836700159   14.12494708108381
H   8.74181064562736   8.52971813748735   13.41138368014848
H   10.14800584221827   7.09081902240637   11.01987795235639
