22
F:    ...  E:  0
W   9.00102856190492   12.94921998874577   11.80541760129194
W   12.90230282268410   11.72791555393972   9.14688052211826
W   8.95781067739408   9.12481587097423   10.21573235689560
W   12.90103600491342   10.20228934400401   12.81709219873286
W   10.31410478178538   10.47639055849534   12.23013129945142
W   11.90440518772188   12.65819172394439   11.68531999523270
W   10.31492348818691   11.50498519790753   9.75435006001649
W   11.88257035798760   9.30324626634079   10.29092604684044
B   10.26929697024215   8.29223145065286   11.56842091073800
B   11.67967423387596   11.68250329309819   13.64248545709551
B   10.31504381068494   13.69956778960466   10.41008480108742
B   11.64190101731961   10.27763569137444   8.32877378321020
B   10.27039741171931   9.49602590687927   8.67194291017025
B   11.64043081058572   8.59970546827721   12.36537683496536
B   10.31525261089118   12.49105626753138   13.32183714785088
B   11.68066477319023   13.35698237931521   9.61293941671681
B   13.40082288140239   10.97774054116032   10.98740238796092
B   8.48197637111580   11.05313948136027   11.01852904323054
N   7.33501984675804   14.36441336698631   12.39321079627911
H   7.74953383295049   15.27819175883133   12.60939915856872
H   6.64299855308439   14.51305369760247   11.65071484564078
H   6.83017155903282   14.05400792060797   13.22958844333959
22
F:    ...  E:  0.107624790000017
W   9.08373521826468   12.93147828061942   11.86277110742859
W   12.91634641700232   11.73738868424637   9.14476524673893
W   8.97019208932504   9.14388743539342   10.21725947112628
W   12.94104922796324   10.15258384370604   12.79277233626787
W   10.33734766243196   10.43335155707210   12.25517120684601
W   11.94262608990177   12.63092174754956   11.70151758570506
W   10.33605884047055   11.49673205888277   9.77192526438824
W   11.89519086439162   9.29077664058400   10.28154691376917
B   10.28248465542930   8.27036895634089   11.54511465946264
B   11.75378088593699   11.61405446574756   13.64650184579190
B   10.34972555864744   13.69496018139936   10.43527881366120
B   11.65945643558721   10.28579794422486   8.33055935010726
B   10.28475101103052   9.50645102721925   8.66787978437507
B   11.65333188381662   8.56710690841326   12.34682820630935
B   10.39634226506159   12.44013289544155   13.37205769901894
B   11.70708621841415   13.35578912930773   9.63591837867418
B   13.41446404818504   10.96098399262366   10.97095970998096
B   8.51080882060252   11.05648114482614   11.05185763637401
N   7.48228489584991   14.38023148731019   12.19166835155469
H   7.76840970608107   15.34085193091692   12.52278272128846
H   7.15113408900763   14.51454165716769   11.21385335539346
H   6.68938777567241   14.07969943571384   12.75612843986003
22
F:    ...  E:  0.924837480000008
W   9.12890225470783   12.91822730094631   11.94382735654043
W   12.93942056251062   11.79717125135131   9.09406226360831
W   8.98703993185246   9.16162043974405   10.19553107504044
W   12.97585310370826   10.18101811796881   12.78359870947829
W   10.20967385067230   10.37202904826328   12.44009371511734
W   11.88906627186760   12.54623353120495   11.67230774407069
W   10.31389234302651   11.46605962414562   9.79257478412058
W   11.83073487893846   9.43581365330445   10.30628165145983
B   10.28520941527973   8.30227714787512   11.54739145353199
B   11.73218290601417   11.52827391474477   13.65951882364356
B   10.32217931307510   13.67188942182927   10.44978080882367
B   11.66836401810674   10.35844321286543   8.28942623614021
B   10.31207726220228   9.52879048985032   8.61677449758140
B   11.61875898564452   8.65829504755467   12.38145611789855
B   10.42820950246595   12.42553040529597   13.41373908459765
B   11.65670452999664   13.32260574203476   9.60274002241980
B   13.45937292201120   10.99510133862528   10.93678701416518
B   8.50197080670275   11.04015336019086   11.11073218272608
N   7.63361777418941   14.44936849517324   12.20174701104809
H   7.38688934060056   15.46072063100523   12.31169534758103
H   7.79170187430425   14.29159614032926   11.13962636186600
H   6.83406955428080   13.90437992749480   12.46398901934216
22
F:    ...  E:  1.22728132
W   8.88900240811954   13.01282417343769   11.89202779991530
W   12.83168667028209   11.80908022541806   9.17953889572155
W   8.95286890974760   9.14502039552194   10.19720510536018
W   12.90325900642273   10.22847809970928   12.79819593075492
W   10.27368216983407   10.46785334700283   12.26978650457243
W   11.88715240168710   12.70341064887318   11.73283816144957
W   10.30951316465561   11.47706593727877   9.77807634885338
W   11.85159966276735   9.33437715911909   10.29619591709777
B   10.24548322450153   8.30152427882975   11.56548212343682
B   11.67272930726259   11.62548680954182   13.65803465879715
B   10.20736561092724   13.67354055220239   10.44467239552558
B   11.65421529180045   10.28948454160414   8.32359924143024
B   10.26730091313039   9.51426823045009   8.62968461265684
B   11.61889511986957   8.64146940489549   12.34789551756090
B   10.37810936343610   12.49553766797703   13.33106260595214
B   11.57301671705579   13.41515544615887   9.65528023299133
B   13.40294315969120   10.99666991817598   10.96753767077922
B   8.45695458521476   11.06326121567300   11.04431039529036
N   7.66907516893221   14.35546907591645   12.72469814265651
H   7.47751145321978   15.38999753409907   12.52916607280770
H   8.18731978291061   14.02618695079641   10.51402386778872
H   6.72750858037327   13.93453247284238   12.92029280444051
22
F:    ...  E:  0.160556320000012
W   8.85343776554615   12.98443933914567   11.90707896127515
W   12.89116699210286   11.82555788306499   9.13539346068396
W   8.93589907518865   9.15003512368282   10.18356904021259
W   12.93006846186447   10.25474396223837   12.85655834843825
W   10.16206116601344   10.50357205212670   12.35557237312248
W   11.82136060377269   12.54219245997272   11.66882075320966
W   10.23118730785254   11.49154761620092   9.69759174785526
W   11.79684617944876   9.51889719290178   10.31846044084426
B   10.26175362447569   8.37449684570909   11.56883301217248
B   11.61163196961984   11.61590109640403   13.65942820887578
B   10.17981419073398   13.68269773441847   10.44658468102586
B   11.63768776623038   10.35853501503237   8.29031008930391
B   10.28776162871488   9.51587274961945   8.62353875698472
B   11.59597373062702   8.74330586768201   12.40696884467187
B   10.31614262794333   12.51587770049236   13.34132074675203
B   11.55956939741535   13.34789925522619   9.60566718147000
B   13.45937245136681   10.99968224624702   10.97170714443773
B   8.41643405198843   11.04019960444539   11.00073708715151
N   7.48881558385623   14.21965014614858   12.64583649251459
H   7.20798558538519   15.22728491900762   12.48989708718691
H   8.76258256159758   14.16928281347679   10.45966895730620
H   6.84127695624767   13.85322120627424   13.34527165097178
22
F:    ...  E:  -0.460532199999989
W   8.83367206460690   12.93151189848296   11.89443805147630
W   12.93261319559014   11.86238477416678   9.06004491071437
W   8.95592615412766   9.12612789350250   10.22920862013977
W   12.92018699486734   10.22720281797733   12.83760848333715
W   10.08100461174274   10.36631568232831   12.44663275935411
W   11.77009936964258   12.46519575800980   11.55223650105920
W   10.20643234577951   11.59021801079343   9.67662271159725
W   11.72675955133207   9.71806456155821   10.44439508076119
B   10.29622317230736   8.29943663321937   11.58585920449642
B   11.61024909029874   11.58044225291747   13.62814966263071
B   10.18062121033178   13.74422976460642   10.43943608330432
B   11.65069703463090   10.41178608914481   8.29728407652916
B   10.29945003284402   9.56413345205732   8.69097883581901
B   11.57636189158212   8.68047963234028   12.48422319971956
B   10.31374868384591   12.45254484039132   13.26322924882648
B   11.57572913476700   13.37610060538246   9.56308524054800
B   13.50353313441773   11.06982397637529   10.94828522231586
B   8.39413407398700   10.99663012599336   11.01633354496989
N   7.37805215800545   14.12848158966058   12.50737399604509
H   7.08733154623081   15.13653919676248   12.30448967059603
H   9.10344368197959   14.28383652815872   10.58436849389836
H   6.95622718893568   13.90458527262904   13.42590219326936
22
F:    ...  E:  -0.612098609999975
W   8.85848382095971   12.86573507566145   11.89909663804128
W   12.89278138392729   11.95574202228022   9.05992188601736
W   8.94775240901995   9.08568389785707   10.20975289806202
W   12.93512186576130   10.22593932330673   12.81213587577311
W   10.08185588379376   10.30830958887526   12.46776649990378
W   11.73437113279634   12.47745172723191   11.55234714093230
W   10.17358805968309   11.56328656881423   9.74364756129258
W   11.73940507752568   9.73775820194029   10.46892563779254
B   10.30398405730861   8.27891167902012   11.56429010105229
B   11.62554225996143   11.55727577044544   13.59959229933854
B   10.31540259017083   13.69538760961522   10.45592309373974
B   11.62504493564587   10.48390000875338   8.32796361268041
B   10.30496292769063   9.57412298077973   8.69890331090989
B   11.58153937774514   8.65300294144557   12.49031675067337
B   10.28776916352629   12.39672266027404   13.31271070219787
B   11.54214502178601   13.41861873982569   9.52643630791425
B   13.47689255301319   11.14427688650419   10.93489057790375
B   8.38407517643473   10.92218188271708   11.06694082585403
N   7.37327343577277   14.06930932913938   12.42592544090614
H   6.98601795183293   14.91349841414952   11.97044665025029
H   9.34593702869080   14.36884805140698   10.58366365935308
H   7.14136913599180   14.16476578591864   13.41858115271716
22
F:    ...  E:  -0.789016679999975
W   8.92437682091286   12.90536328731593   11.84178876840391
W   12.97426983341157   11.90416982200438   9.05040013343942
W   8.96208234351400   9.09387011099817   10.21552281089150
W   12.92690713584998   10.18928710559920   12.81487130247016
W   10.10664791782386   10.27901562464476   12.45385253724677
W   11.77281144499730   12.48794322272600   11.53726352821343
W   10.19555379440799   11.58830143937253   9.74112756411814
W   11.73025458703056   9.72889663548783   10.48272058990362
B   10.30946085937948   8.23563699482999   11.57354213721295
B   11.63242147580352   11.54167241381434   13.58563708325091
B   10.38097684942126   13.78411665352080   10.42746845233349
B   11.62084626008927   10.51815324316708   8.34294442960891
B   10.31601614077487   9.57940242598131   8.69884936776301
B   11.59233302163603   8.59260978515647   12.49610893337378
B   10.28097567478209   12.37351463332870   13.27640762713001
B   11.63661117584757   13.40227318913197   9.47157246098279
B   13.47023701205237   11.13562650757473   10.95522427466389
B   8.41429593800218   10.94131521583965   11.07640512129578
N   7.41449877903515   14.01975405157872   12.40349762307283
H   6.73379999161511   14.51540716182797   11.80186955488633
H   9.39925672877883   14.49501098251205   10.56726753712728
H   7.34270462801643   14.46223675814142   13.31913890385795
22
F:    ...  E:  -0.891298599999999
W   8.97041918718607   12.90261377556811   11.79917436278780
W   13.00561179586647   11.85646994555528   9.07012443523468
W   8.99462830769869   9.10191284066656   10.20708629340677
W   12.93008991540540   10.14598559142155   12.83244859463017
W   10.12126589944653   10.25932209385359   12.44534808815028
W   11.77298076960159   12.47805132013348   11.51273246258802
W   10.20264958161197   11.64671753203218   9.73324363187491
W   11.72137699793797   9.70475134578857   10.50000967664294
B   10.30997053231210   8.20784115186872   11.58845333716272
B   11.64550051199712   11.52098707087315   13.58301557818936
B   10.41287307619405   13.86602489192946   10.37031037308745
B   11.63497740463001   10.50216267649043   8.35567599771871
B   10.32997036315117   9.59025188732343   8.70040566408723
B   11.60277003970872   8.54857457927015   12.49658350715415
B   10.30548948898370   12.35658516555105   13.25745765350728
B   11.70517671002112   13.38044296877474   9.46070765977242
B   13.48373790965615   11.07664323777661   10.97749608953564
B   8.44995624370518   10.95401478635134   11.05970339991165
N   7.43570893578689   14.00531337384186   12.34503428690434
H   6.58799071940812   14.17734710687608   11.78389685375910
H   9.61188157197035   14.76082974909973   10.42225893060627
H   7.42333909738125   14.63613779588276   13.13660494105618
22
F:    ...  E:  -0.976420229999974
W   8.99209455289098   12.89001919778614   11.76160329443395
W   13.04478208515409   11.80359055181493   9.08910795179988
W   9.02717838309881   9.09875285862815   10.19893634133685
W   12.94315181293090   10.10799644473966   12.85571641788831
W   10.13279241785152   10.25102746021102   12.43964016439215
W   11.77289080333129   12.44734384911613   11.49039674969295
W   10.19217859966483   11.70204895743341   9.70652910697714
W   11.71018722132280   9.68126331482008   10.51748282530169
B   10.31244678594352   8.18674539214227   11.60234393530987
B   11.65129800892657   11.50724065313565   13.58851386361231
B   10.43876423276825   13.92157975007553   10.32398161041165
B   11.65106408997586   10.48414364823408   8.37231188095064
B   10.34129470821563   9.60009456757039   8.69753861543582
B   11.61997897095739   8.52009932815364   12.49238160792230
B   10.33164095768287   12.34300108333800   13.23840250997726
B   11.74176687746568   13.36347910327554   9.46307143855664
B   13.49304773060104   11.01288774540630   11.00083333036098
B   8.47708453482340   10.95232886772485   11.03485112924486
N   7.42800964996698   13.99482844802519   12.25003823686715
H   6.51804299309086   13.96042298940537   11.78875279471969
H   9.97203801903698   15.03349559000072   10.22320902181934
H   7.42293062429726   14.71559074231124   12.97286166738098
