22
F:    ...  E:  0
W   8.68488216963761   12.67190719747142   11.53183651757829
W   12.73424640717866   11.50076057747321   8.81108703784763
W   8.73506784985322   8.89068899003455   9.95935286446085
W   12.73387860966950   9.91581925940979   12.62116670919112
W   9.88009180071519   10.16978246443641   12.07841624925850
W   11.54259700968064   12.01356095354685   11.25694904413611
W   9.87707461249684   11.29610999516719   9.37148863562372
W   11.59753063556154   9.31126000718046   10.13387656327734
B   10.10132335549210   8.06993839934163   11.29407075456979
B   11.34086592728116   11.26455274790011   13.39086859813239
B   10.03323496556124   13.38705778600284   10.12997552738935
B   11.39482974390422   10.14324283738799   8.04867856741643
B   10.10077818843605   9.25985516169276   8.43587109789549
B   11.39567678438550   8.41803931240380   12.19369340215589
B   10.03102186624980   12.17979328430259   13.02863393754339
B   11.33772395243665   12.99627583412734   9.21909971855059
B   13.30890458866699   10.68709622525156   10.70749354261424
B   8.13142847987944   10.78541224586889   10.74851982906720
N   12.46225929705279   13.93994983787488   12.05779781553146
H   12.83840468346138   14.51000804959427   11.29779597241105
H   11.70927360698323   14.45969015701025   12.51528352247941
H   13.19339077043028   13.75759542255751   12.74854323218838
22
F:    ...  E:  0.0465640900000039
W   8.64553659894966   12.62848069207578   11.54606025917684
W   12.71229153294674   11.53267020078005   8.82976575201165
W   8.76079671076395   8.86443983349674   9.94612187864530
W   12.74279516828892   9.92047312870606   12.64094760022504
W   9.88611626037079   10.15000564337941   12.05012045733253
W   11.50422701807069   12.01383172509050   11.27342333390318
W   9.83748500161463   11.29150451793534   9.35007464676513
W   11.61496507692912   9.32575338782428   10.12470966778676
B   10.14889243783627   8.04821363389960   11.27082155236587
B   11.31778930934922   11.23450624891030   13.40158860298065
B   9.98473287948689   13.37191506945641   10.15283099940258
B   11.39045953264146   10.16891886234501   8.04945442607895
B   10.11286431807873   9.26264638872367   8.42099062527027
B   11.43208318190265   8.41566092876005   12.17947090535873
B   9.99781010694104   12.14245847762276   13.04404966722164
B   11.29370039014933   13.00185421813022   9.24374378895181
B   13.30601166534365   10.72426937471395   10.73469862902553
B   8.11187156675381   10.74889040969894   10.73404570389425
N   12.48774728555430   13.80944795498310   12.28053223232255
H   13.09597697458518   14.38910759150506   11.69147271030695
H   11.75231775717842   14.39551422230734   12.68715313680661
H   13.05838259766661   13.42045430493141   13.04114245938721
22
F:    ...  E:  0.221091020000017
W   8.62845098105051   12.58377342934670   11.54504588654199
W   12.66755145688601   11.53006282005868   8.84973314573466
W   8.76483628646786   8.80954378556455   9.94196899567540
W   12.75736127916195   9.93824337477642   12.66281646739485
W   9.95469565553552   10.17716187973285   11.99429396105057
W   11.50753785582912   12.08416801350283   11.27331883730123
W   9.79450446822471   11.27946361144154   9.29951232643454
W   11.62424072520695   9.35582236465783   10.12476360711244
B   10.17864386010450   8.04376889614478   11.26292733356059
B   11.33063917314642   11.24919008046820   13.41081052105760
B   9.93432489138391   13.34843997773635   10.14089187262940
B   11.34644837737286   10.16285451069193   8.04329168905955
B   10.08835567049782   9.23344574686148   8.41437861127743
B   11.46826297072747   8.42097373209886   12.17130305664426
B   10.00369255205117   12.14810681033667   13.04660355884318
B   11.23644478578983   12.99796443102671   9.23216325449710
B   13.31347595280887   10.77192959372871   10.77492751469201
B   8.12480676594735   10.69555837294127   10.72330690152016
N   12.51987948438454   13.74513546859799   12.47055252857204
H   13.30350210037123   14.23695420336134   12.06319201589384
H   11.87047420726590   14.41755956975865   12.91475454061444
H   12.79971872169919   13.04983225219800   13.17521943405894
22
F:    ...  E:  1.40157702000002
W   8.70389389366503   12.61792210805116   11.55473594294147
W   12.63052477311531   11.45871883206554   8.75922833160325
W   8.74339883903123   8.77690200884933   9.97247907166062
W   12.72793813570708   10.02962467425755   12.59649088405457
W   10.10843166231512   10.32431601349672   12.02994989542709
W   11.66380621505870   12.23543248850766   11.25147437214249
W   9.87643425583797   11.21798003198662   9.27382132227204
W   11.59489916312315   9.33301623320582   10.07075029701157
B   10.10630875756479   8.12036097407643   11.33537935855754
B   11.43071050216286   11.49105782360265   13.45057150034552
B   9.99279662808493   13.30014458537432   10.10477433615177
B   11.30430259305625   10.05106036174964   7.95678843109634
B   10.03754403173597   9.14250442224980   8.39276137189353
B   11.46596301730430   8.46202042616256   12.15159574283517
B   10.06090457101289   12.29324448938575   13.09179461117011
B   11.26877434604376   12.97158519380367   9.17381561251449
B   13.30152825939088   10.75825158337203   10.67247516363649
B   8.27485734236006   10.68251819610037   10.77576217399758
N   12.43186837060371   13.88786892662695   12.30560385352901
H   13.19104997280059   14.40472701688001   11.85296259866547
H   11.87990610362827   14.50341390901676   12.90505841471727
H   12.39913737108949   12.79517690438442   13.01954176496151
22
F:    ...  E:  0.839231420000004
W   8.70777764617630   12.65128035535813   11.53545502527379
W   12.62815521023676   11.46080996232283   8.79261931918349
W   8.73672639074697   8.78205342968520   10.00521262147841
W   12.70464524538919   10.02990582036351   12.58580611528416
W   10.19865280421782   10.36035057440054   11.95114607938244
W   11.75736970398682   12.39169337686620   11.27622155142601
W   9.91650938409039   11.25784420606803   9.27799669217735
W   11.61164057530824   9.26490881664023   10.08064184370869
B   10.10138385508959   8.10395325158811   11.36464514249617
B   11.38167852963289   11.49612326004141   13.48375609387529
B   10.00505316071285   13.32527639910783   10.10053272209512
B   11.28812242612426   10.05124651891447   8.00724647351564
B   10.01433706784188   9.15470827342878   8.43879675088414
B   11.48076048993992   8.42240441017952   12.16375821667824
B   10.03520467551604   12.30523836020370   13.05506208264243
B   11.29207922266861   12.99654848578306   9.18619421470604
B   13.28579232244714   10.77179243896714   10.67577053855302
B   8.30057210094724   10.71149120882903   10.77021596469389
N   12.38411395546655   14.07733131457844   12.12823244845206
H   13.07006315881238   14.63023965167436   11.61733131247205
H   11.84847093743622   14.62229088164094   12.79800256060466
H   12.43824573811908   12.18301453712797   13.12381193307588
22
F:    ...  E:  0.195717050000013
W   8.65083664912249   12.64809791518387   11.47702281220255
W   12.60291447253839   11.46817941340381   8.81546501866638
W   8.74358071831367   8.78808116428381   9.98186348102751
W   12.64793801752117   10.05075774551453   12.54179844423534
W   10.17473097720714   10.31633231904801   11.97648019364841
W   11.69356734412637   12.52704279929214   11.32124168476923
W   9.98775615597304   11.16347249264245   9.43490013763339
W   11.63865473770504   9.10091263839472   10.00658920156843
B   10.09072209746095   8.06122014091990   11.32964980563665
B   11.32007581388701   11.54650091016108   13.45149432434582
B   9.93517300965604   13.33911427881558   10.04770083201103
B   11.35601609685916   9.98313146872625   8.02123246835996
B   10.03760925314451   9.11869624786303   8.40097234989957
B   11.47816977471287   8.40287894920295   12.08671425314307
B   9.99359085644198   12.31883494891133   13.01545782101620
B   11.26840368547596   13.00832935393886   9.20623756732241
B   13.16329961244977   10.77890418867216   10.67507147747971
B   8.25854516486238   10.70111668372510   10.79251645608096
N   12.49511424278388   14.17509385655092   12.11209618044635
H   13.01912286679702   14.79004939902598   11.49985429035654
H   12.12799625650283   14.64963337669923   12.92792995649523
H   12.51029620232972   11.94331977736526   13.54383909943207
22
F:    ...  E:  -0.257870989999986
W   8.68219629264438   12.65031299803656   11.44482680606745
W   12.56480671082465   11.45538598826028   8.73293649666849
W   8.76086663337255   8.74933524150881   9.98799561926431
W   12.61438745841607   10.10438084470273   12.47754718848135
W   10.20031887775779   10.30076759939271   11.96263449951676
W   11.67585155215287   12.55210913768238   11.28799509652085
W   10.01413415597288   11.15395610796597   9.42901753566423
W   11.60394943854018   9.03244176720194   9.98750477142401
B   10.08233592832774   8.03733098034708   11.36943074669685
B   11.39691413279331   11.68103540695854   13.42170268306991
B   9.92006398407807   13.35262799540797   9.98678337185978
B   11.34232291321999   9.93331108767928   7.99421652818270
B   9.99045244510415   9.12396362691753   8.36758956352251
B   11.51691321525492   8.35927458805078   12.06200367970693
B   10.01384335792986   12.33478451999190   12.96933925454699
B   11.26542094560634   13.02961582054069   9.16484951450981
B   13.10000454794823   10.75491879228081   10.58433089928763
B   8.30278058315589   10.67438705937035   10.77702495807135
N   12.50722326121067   14.14978594040456   12.09793404311889
H   12.93860205781217   14.85442151884280   11.50360249484667
H   12.33507490601744   14.50511066198584   13.03921199583980
H   12.36798202201522   12.03152916626437   14.10307573418475
22
F:    ...  E:  -0.518725959999983
W   8.66413444349261   12.60623564264669   11.45982085424988
W   12.55529800039878   11.49027407083137   8.73503307688976
W   8.78218393284618   8.72844548924349   9.96517693861391
W   12.60540789917264   10.10931170401951   12.46122502737950
W   10.18205855245651   10.27497076699472   11.95724701843812
W   11.65100973164242   12.53615929816382   11.34947200366197
W   10.00835282285392   11.17030399748420   9.42321664436007
W   11.61623233536125   9.03960622793211   9.97987091455985
B   10.10396497668741   8.01310873533094   11.34919091146209
B   11.42018318010632   11.67125376156994   13.47903108683690
B   9.90129707755104   13.34711641443618   10.02110351055159
B   11.35321586780693   9.95608159273273   7.99117305282755
B   10.00054642250944   9.14477662610475   8.35341292649326
B   11.53475724027580   8.33543470904492   12.04781915560602
B   9.98876139728178   12.27857473390346   12.96393301768894
B   11.25398279675539   13.05051867604030   9.19704414551655
B   13.07672452784923   10.77364190201006   10.57049379065029
B   8.29360041747253   10.63914460517677   10.75455945943833
N   12.56827973632095   14.05466732525559   12.19391170012949
H   12.96793410713766   14.81251584147286   11.63743316385480
H   12.58044303179766   14.27165543357662   13.19558565723806
H   12.10927291135063   11.98138138646761   14.44244415201134
22
F:    ...  E:  -0.634377149999978
W   8.63302317943496   12.56642829260912   11.48873608338874
W   12.56590172469649   11.53288114046222   8.77753399350267
W   8.80811366681576   8.72009699479473   9.93211622191187
W   12.59532141812878   10.10610821612856   12.48170250936450
W   10.15985503259313   10.24097338044820   11.96209547026920
W   11.62948158239183   12.51470572938025   11.43756981683696
W   10.01295989233491   11.18860676529301   9.44094441145737
W   11.64205427490725   9.06462945610072   9.97567585316350
B   10.12975568263652   7.99727489356506   11.31451237939434
B   11.35743586353139   11.58120633754618   13.55044755759218
B   9.89845277324033   13.34745737279001   10.09629890497357
B   11.37706016085610   10.00727751239626   7.99838037954057
B   10.03302568811137   9.17675609974485   8.33952708897066
B   11.54766164934198   8.33234726138884   12.03089125071161
B   9.94268548306159   12.21334193641268   13.00104353975356
B   11.25688723903913   13.07353062246512   9.27021239560539
B   13.08033076737978   10.79211240638646   10.60053109587156
B   8.28121385248056   10.61268703732357   10.74170183265827
N   12.63027397670575   13.97960464327872   12.28148403740254
H   13.00074753490613   14.76443531173018   11.74121240200668
H   12.77524838839053   14.11447213630002   13.28493293949980
H   11.88352772408989   11.76754643301176   14.63717616046911
22
F:    ...  E:  -0.682195309999997
W   8.60848633625113   12.52780201994249   11.52473767840658
W   12.58196718843585   11.57811403927556   8.83232733668274
W   8.83038519794580   8.72291418737775   9.90558235465209
W   12.58804320486333   10.10142114301486   12.51548963929451
W   10.13782752293161   10.19297412598504   11.96601146305065
W   11.61850835193430   12.48365796633278   11.53051693124891
W   10.02342176023598   11.21257082469542   9.47065353404386
W   11.67174869573263   9.09637225072384   9.97556227712777
B   10.15518465319852   7.98250833156209   11.28172324316180
B   11.27585411340076   11.46845698937402   13.62227519170886
B   9.90823099736205   13.35179324895066   10.19034527169428
B   11.39975259611357   10.06584556266812   8.01278247123072
B   10.06586655867018   9.21562306348723   8.33513889623260
B   11.56313613841914   8.32958110614811   12.01419929110669
B   9.89875987342596   12.14286085569025   13.04698534652310
B   11.26834535710418   13.09295651854168   9.36483846337295
B   13.09615508221581   10.80126532132851   10.64043059365732
B   8.26934779929869   10.59430387244050   10.73142144434394
N   12.68678147975457   13.91475460987990   12.36295093986562
H   13.02333849636661   14.71888391295596   11.83079026214908
H   12.94061661980917   13.99691436955882   13.34519191256935
H   11.65381167244889   11.48249012511796   14.78438966548417
