22
F:    ...  E:  0
W   9.08905346939615   12.87545360617607   10.94060039322805
W   12.95826553128419   11.75894165693019   8.22904001837283
W   9.09112960787090   9.04400736010887   9.34555485410422
W   13.03237148176975   10.23004407132154   11.89882149121176
W   10.40089810941154   10.40132502262573   11.48260220233864
W   11.96039593104139   12.62240181302150   10.77374443673689
W   10.37922382877239   11.48431694554599   8.88505186104675
W   11.96307197963561   9.34303089288207   9.40734741606146
B   10.45221931891066   8.24011717491843   10.66754905173040
B   11.79694997851534   11.67908088273996   12.76662229740401
B   10.36259871477682   13.68088489842416   9.53625175370624
B   11.69930779315210   10.30446617069601   7.42301866467765
B   10.36508605649049   9.47535562405929   7.78488967086340
B   11.79787258637855   8.59214829256666   11.48175194489046
B   10.44752858557031   12.49963735063989   12.44399434335499
B   11.69775749880164   13.35441311693901   8.69383840149553
B   13.50567136800606   10.99725775941359   10.05958073737134
B   8.61210412084061   10.94365084325109   10.18152002045937
N   9.19351418978849   9.66174955278751   13.25456254608111
H   9.55095663555551   10.09820463426993   14.10826375074604
H   8.20807543042325   9.90919454795521   13.15100257989381
H   9.27719619504488   8.64556619416364   13.32563997566202
22
F:    ...  E:  0.0368464000000017
W   9.06717621080803   12.91092641569524   10.93208774422349
W   12.94603059704438   11.79265466656400   8.24666079093504
W   9.06857194460481   9.07730950577808   9.34430864339840
W   12.99644541665857   10.24716691924759   11.91156055468171
W   10.37738601020525   10.42727705632080   11.46917972485289
W   11.94132805473630   12.65738968865482   10.77668443736817
W   10.36173473356165   11.53238588059545   8.87881989947879
W   11.94256305429382   9.36982949712652   9.41939583682956
B   10.42583324050394   8.26073346262565   10.66452059805857
B   11.76628694283969   11.70799860662237   12.76633321972128
B   10.34964749491312   13.72434051580658   9.53769258226045
B   11.68722690010444   10.33933049409764   7.44152118342919
B   10.34786671404199   9.51495524415065   7.79555410265315
B   11.77211515413743   8.59939498536757   11.48306984199666
B   10.41636061107090   12.52673681206121   12.43767274115461
B   11.68883164763270   13.39789146054885   8.70046800419514
B   13.47625846236849   11.02109081400235   10.07834412100303
B   8.59002837179450   10.98180883285571   10.16729102107940
N   9.27035121459608   9.54861360501776   13.25218028765412
H   9.47388966621284   10.07064138269691   14.09720223498812
H   8.25594406345571   9.52871779683461   13.12298016086680
H   9.61937190585195   8.60405476876577   13.31772068060812
22
F:    ...  E:  0.155468990000003
W   9.04160693228936   12.95313124690491   10.90875804288378
W   12.93869250086862   11.82905279679225   8.27348264513930
W   9.04075503690292   9.10937467125371   9.34261362398722
W   12.94878143254960   10.24819186804508   11.92767117022277
W   10.33461316892717   10.44211540463351   11.44556927346431
W   11.91050344075701   12.69105283723101   10.77632197692160
W   10.34049449417272   11.58819848499354   8.87135917268700
W   11.91434096873710   9.39745205712011   9.45006050590942
B   10.38850567111218   8.26551386078733   10.66184141106253
B   11.71304872529966   11.71586082039677   12.75395123745281
B   10.33801788414881   13.78164869584127   9.52787713586724
B   11.67837452327227   10.37930978454779   7.47653072661301
B   10.33223952043548   9.55757896330649   7.81521639721275
B   11.72821801230097   8.59225900479172   11.49597280805371
B   10.36909754811642   12.54726062360542   12.42272115230334
B   11.68199765428260   13.44754032643288   8.70055914589462
B   13.44779724241440   11.04720837752068   10.10840521900386
B   8.55731585808972   11.02345134012717   10.14734971141011
N   9.33922282642437   9.46404132868953   13.25226685498047
H   9.39737861671169   9.99969036433605   14.08637935407829
H   8.40923857364280   9.11096562053438   13.11582360651115
H   9.99100777998088   8.65034993354432   13.28051723977731
22
F:    ...  E:  0.712454489999999
W   9.04068020058611   12.99917156702282   10.87703397105275
W   12.95255439339209   11.83009078160130   8.31228892342267
W   8.98596246042512   9.12352650950468   9.36932558381766
W   12.89781972730338   10.19204632442302   11.96152810463689
W   10.23856912605560   10.45670349470961   11.44004603810093
W   11.87354514795517   12.69677239652437   10.74997049112389
W   10.32025686912731   11.64419412730104   8.87650188115846
W   11.85662596862561   9.42309965085735   9.58827626395774
B   10.30499154410220   8.21938374901350   10.69171640196767
B   11.66077981319490   11.67339464086918   12.70622637727031
B   10.34690373963411   13.85008179774803   9.49082420472174
B   11.68581723909017   10.37632861603385   7.58137544053362
B   10.33020345561032   9.56468386015363   7.90522550834067
B   11.61467211417901   8.53409342357098   11.58443173190793
B   10.34360581490669   12.56586007202229   12.40455245880493
B   11.69473923913420   13.47902776179369   8.67381434363947
B   13.44409277992298   11.05305067855058   10.16593010522306
B   8.50775335562718   11.05958600063037   10.13476890100332
N   9.38818477513597   9.44557322119872   13.19737966134592
H   9.44282604502254   9.94691700470903   14.08455035570281
H   8.59202054897964   8.81672358072194   13.09270516883988
H   10.31864405342636   8.89093915247595   12.95277649486357
22
F:    ...  E:  1.24328854999999
W   9.06103811592523   12.96544319698715   10.89493916646781
W   12.95660647954642   11.80315350970756   8.30005415859202
W   8.98272023503197   9.09922512097594   9.38801184998045
W   12.92993032600641   10.20051067838467   11.96274614876069
W   10.17940363606555   10.43436907636042   11.61563821861367
W   11.87161188912919   12.65629624199770   10.74543412757753
W   10.35256506534204   11.59475143485945   8.93412609607246
W   11.84807297318144   9.40335081979647   9.62249083673306
B   10.32022252295372   8.17387467478571   10.65028270189689
B   11.69392525857315   11.67017999192632   12.72180833385259
B   10.34973928701201   13.81751565191903   9.49070281436090
B   11.69091955525397   10.34192757489341   7.58931474676192
B   10.34459795695273   9.51974616369537   7.92700531565924
B   11.61055095552632   8.53622353151550   11.60083492935896
B   10.37925813853419   12.56338628491624   12.42174084670112
B   11.69971396420423   13.45006830297022   8.67173514997591
B   13.44755523635851   11.01228769258853   10.15518836483534
B   8.54119296920225   11.01878381261257   10.16436781337269
N   9.23041796803155   9.63281436444405   13.23494455935901
H   9.35517672618992   10.05922868794445   14.15028577818751
H   8.38062977289895   9.10866082264187   13.14077928675541
H   10.61539937951706   8.77945077551334   12.45881716756122
22
F:    ...  E:  0.580937599999999
W   9.09576384257499   12.95964058732677   10.89071827116622
W   12.96964493798845   11.76828939215993   8.27258071280966
W   8.97127728470433   9.14861993474696   9.33410481696504
W   12.91446859796795   10.17746291511118   11.90576474203835
W   10.09271066977877   10.40457644366949   11.70245212754207
W   11.88480768021386   12.60235844403586   10.67780934309882
W   10.36950854524023   11.60294848473079   8.86333248146432
W   11.85012566440307   9.50152832247028   9.67332713929179
B   10.25921153429148   8.27952918176526   10.62627460449050
B   11.68099695023130   11.62692443267842   12.70441605866123
B   10.36161604136645   13.79848699785578   9.48007111474392
B   11.73372718216877   10.30976596919760   7.51659854835545
B   10.35442348021073   9.52129335518206   7.89104765964224
B   11.53340733643791   8.51090376833947   11.64199984867301
B   10.42009505651530   12.58030168503884   12.39930376262662
B   11.71086284359732   13.42858676225222   8.63821491710547
B   13.55603119075167   11.05719962701423   10.14579931447686
B   8.56713342754466   11.04848196366949   10.13991971913634
N   9.07559522886710   9.79709435572370   13.25024888166434
H   9.28914756675929   10.13860118711560   14.19933431362485
H   8.23940172486761   9.24075448142779   13.22120072287981
H   10.91129162495508   8.33790011992456   12.66672931097948
22
F:    ...  E:  -0.0940041599999972
W   9.07351705590552   13.00372412669885   10.87366902057711
W   12.96941914640474   11.79940633330568   8.24578035490463
W   8.96124154917924   9.19097105151285   9.30883746380491
W   12.88878022165920   10.18538046845933   11.91856769888063
W   10.06014310142333   10.40485907838963   11.73064241967973
W   11.85751598555323   12.53432849973846   10.64301437361135
W   10.35325520988871   11.63543474588430   8.80201899002526
W   11.83673132333021   9.60029809008882   9.68321440288235
B   10.20859578258911   8.37329305931826   10.64642396782462
B   11.64393785652037   11.63211155256838   12.71025392062926
B   10.36267895197963   13.81524373265117   9.48374757420731
B   11.73854582412618   10.33722334373254   7.48543563628485
B   10.35944159371089   9.55783419468096   7.87839126322099
B   11.47463869502490   8.53150290992239   11.70394051204877
B   10.38915793574696   12.57484042081881   12.37943008064190
B   11.71117737589323   13.45949361952582   8.62876457743760
B   13.56567230606981   11.09574553029629   10.14067041138523
B   8.58816964554054   11.10147294875495   10.10582935627606
N   9.03082052244512   9.77977861617387   13.24836384922653
H   9.16374837844947   10.19411610950799   14.18123361392013
H   8.37392650336164   9.01424138138243   13.26733005565716
H   11.23013344663438   8.01994859802385   12.77568886831015
22
F:    ...  E:  -0.423798229999989
W   9.04197490624376   13.02801597764527   10.86243989797665
W   12.96476335623891   11.84288166219877   8.24011115231159
W   8.94795189919677   9.21825800128528   9.30342588858902
W   12.87498318891051   10.21559540646219   11.92786230919725
W   10.03563714190509   10.39453199673479   11.73260035092373
W   11.82344098761904   12.54151187304036   10.64248679639347
W   10.32524887695860   11.67873722229349   8.79809917333652
W   11.81726559194905   9.65142600998586   9.70318513844740
B   10.21286855496748   8.39798465527453   10.66106869747313
B   11.60799039491346   11.64792465205938   12.71046129307665
B   10.35147907346781   13.84959438156268   9.49056139782820
B   11.72340971383520   10.38891256855214   7.48809519492719
B   10.35680215134610   9.59878788025341   7.88554251917780
B   11.46183689980303   8.54028917806813   11.71474168890827
B   10.33944979635821   12.56736635752274   12.37750238799210
B   11.70127641780367   13.49126078046493   8.63513877730047
B   13.54491474198980   11.13870339176198   10.14154791364233
B   8.56541462221835   11.12916552454040   10.09574526089097
N   9.04435104809093   9.67596117520482   13.24057236070191
H   9.00640279555963   10.18032791002922   14.13026190476074
H   8.60275587013331   8.77026751527926   13.30944261267162
H   11.49103038192808   7.89374429121583   12.75035569490924
22
F:    ...  E:  -0.605616800000007
W   9.01721873088479   13.04302619731042   10.85625960535620
W   12.95579770579665   11.88255661983910   8.24646831277850
W   8.94121830230877   9.23087210219852   9.30898845382436
W   12.86365235864843   10.24041701485298   11.94152473863583
W   10.01721153108858   10.37646370579538   11.74267372242369
W   11.78521977518145   12.56334239696079   10.65034945958189
W   10.29391775673807   11.71694975453141   8.81224516398863
W   11.79345803125507   9.69980866897894   9.71528549890887
B   10.22838524706411   8.39474772727961   10.66983913646355
B   11.57685877105995   11.65996540468391   12.71219630299743
B   10.33706373034842   13.89141866273480   9.49513174399811
B   11.70284095161871   10.43921641332480   7.49931205556540
B   10.34666569524269   9.63659933688174   7.89344806726292
B   11.48831634467203   8.53917400534426   11.68994430737377
B   10.29176526508752   12.55484263668446   12.38378791358044
B   11.68534189132572   13.51957187943834   8.64209190261094
B   13.51640257763741   11.17762460634309   10.15431387996113
B   8.54068814676764   11.13731492217435   10.10734903748980
N   9.05133009672087   9.58114894066284   13.24153810007905
H   8.84464564523746   10.12127995635461   14.07596400868191
H   8.79341836098165   8.60619049343129   13.35516441032118
H   11.76983149577063   7.82871696562878   12.64737258955169
22
F:    ...  E:  -0.671630550000003
W   8.99838826524438   13.04847180319502   10.85743286642826
W   12.94571774894767   11.91968048083825   8.26581088802300
W   8.93997807964801   9.22896418555634   9.32512766607832
W   12.85145261716775   10.25090341665331   11.95955874129694
W   10.00498493250050   10.35709974592974   11.76161724284698
W   11.74761092824328   12.58693839408538   10.66220638589442
W   10.26133602961723   11.74995058183746   8.83745395901062
W   11.76689855199257   9.75087213532944   9.72177166390566
B   10.24229382385386   8.38179287480506   10.66471385956534
B   11.55403780031365   11.66551444560143   12.71531611868320
B   10.32119979360440   13.93550750050451   9.50351471230761
B   11.67756334763429   10.48893276403941   7.51495931571792
B   10.33397941982675   9.66989149156343   7.90118744256196
B   11.53438359321208   8.53770364303189   11.64240326240833
B   10.25145609881182   12.53356964101693   12.39405285998198
B   11.66514572146640   13.54715773334053   8.65011143937200
B   13.48887483344370   11.21004083143184   10.18045235863309
B   8.51841003434209   11.12974944335596   10.13531780697799
N   9.04791883814107   9.49366111233569   13.24280234420174
H   8.68975597064327   10.03421041177653   14.03087256353963
H   8.92568756422053   8.49433283963559   13.38898570066591
H   12.07417441856179   7.82630293557317   12.48557921333587
