22
F:    ...  E:  0
W   8.87828234958856   12.78964660482148   11.67657658418301
W   12.82834602732893   11.65323825325109   9.02932793250605
W   8.87825599396445   8.97281539430770   10.08592371870879
W   12.78903083435018   10.11672186809635   12.71477599930425
W   10.18652534843830   10.35497050579565   12.14395925300171
W   11.77842080710599   12.54328793163316   11.56438747059572
W   10.17378016223135   11.38991556176193   9.66075640560380
W   11.77854957951389   9.22621644554060   10.18161837611932
B   10.18372061421922   8.17432787627930   11.45618460738966
B   11.54389866932491   11.57507309042211   13.53468762910464
B   10.18753558138629   13.58416643730110   10.29722466765657
B   11.54045895309643   10.22520304387712   8.23499455462942
B   10.18742511172915   9.39327573767889   8.55080400405229
B   11.54397477755821   8.50797329167257   12.25620666107303
B   10.18386197475624   12.37862874755592   13.20836726451915
B   11.54176291528272   13.22335124316314   9.48574429138048
B   13.30281857070125   10.88060828423307   10.87987261753689
B   8.35573969061661   10.87296764380104   10.90097592382792
N   14.39052563213821   12.28411817220921   7.51734053470172
H   15.11822724186023   12.88437073437236   7.91973701446834
H   13.94008209563596   12.81502244973849   6.76439636000275
H   14.85597091833449   11.47893826079121   7.08681357213641
22
F:    ...  E:  0.073321639999989
W   8.81256646677262   12.75564502149062   11.77975361373133
W   12.73961856797151   11.73834062440809   9.06389453450035
W   8.86819101619374   8.95999025926399   10.12943251907947
W   12.80025532440455   10.13144236840815   12.71761119965598
W   10.19533370546902   10.35581947325429   12.15346297916325
W   11.72219224409700   12.58025857297959   11.59519137214506
W   10.09278263983601   11.42621605106246   9.69033091623329
W   11.75786575829047   9.26338780362782   10.19062702251667
B   10.20471674198484   8.16980713905323   11.47874797099695
B   11.55476976515302   11.57215878353029   13.55606278098959
B   10.07642216225124   13.60694064142765   10.38193014451603
B   11.47988600302807   10.29428893680963   8.26861352065834
B   10.14552744513892   9.42672265023089   8.57751319253694
B   11.57689910083679   8.50615495760261   12.26127809317136
B   10.16941918337714   12.35394873098453   13.26852911104874
B   11.41803692438900   13.27710382371437   9.53456051600792
B   13.26408107370904   10.93846350589523   10.87716071752596
B   8.31911465249913   10.84438536376701   10.96666673096973
N   14.47015399103830   12.08113480140569   7.67431423052265
H   15.14740248579733   12.75815805774526   7.98562374821445
H   14.17520206080611   12.34644899851170   6.75275013380675
H   14.92850932907132   11.17260813387765   7.70227774626409
22
F:    ...  E:  0.291865099999995
W   8.78754810172898   12.73333000452074   11.83897971148612
W   12.65987214289360   11.82935272144876   9.07423139209044
W   8.87312974828488   8.95749719693202   10.14883844111220
W   12.84052464082488   10.15391150448342   12.66584802432330
W   10.21926320741753   10.35766370255460   12.13762108900394
W   11.71144601484371   12.59824247538992   11.56699589308557
W   10.03793788870125   11.44829906238642   9.69830142700530
W   11.75177182298782   9.28688450864930   10.15882081548754
B   10.23987494990787   8.17009011224455   11.47494052445285
B   11.59449280392456   11.57320396281186   13.52767838124765
B   10.01093536382190   13.62760129310406   10.41985907542110
B   11.43565449422702   10.33874049900062   8.26298554429890
B   10.11829625355653   9.44869596275031   8.56892283737953
B   11.62300182014380   8.52024938077845   12.22800186935418
B   10.20499144744972   12.35432670433652   13.27284212896152
B   11.30692910411059   13.34004290787976   9.53534847971746
B   13.26433287183491   10.95698812858498   10.83412653860438
B   8.30660300523625   10.82848311778897   11.00408133387872
N   14.49530602195314   12.00687665220909   7.81049538522758
H   15.29313464888139   12.68338097114784   7.85785464728716
H   14.22480498701670   11.86652193746070   6.84870306808604
H   14.81637118613626   11.16231582541610   8.27320380940165
22
F:    ...  E:  0.987595879999986
W   8.86172826058409   12.74146437809314   11.74177879914398
W   12.98202700342976   11.71727469192808   8.89080190649849
W   8.94466277721684   9.01002684084740   10.06646447211508
W   12.89366453964307   10.12645184413707   12.65535069930025
W   10.20760799896207   10.33385033076341   12.17726973299571
W   11.78439756837156   12.50786077709860   11.43536634886242
W   10.14875550713161   11.45804334020830   9.59478850438520
W   11.72815518229582   9.34382441880817   10.18526670455476
B   10.23077889960833   8.18910469796898   11.46563876027724
B   11.61671249519236   11.55276056870380   13.44514152533464
B   10.11889549756286   13.58916309439616   10.35975464277312
B   11.60324961583842   10.31956761312388   8.21558791118110
B   10.23852894684131   9.47090720046489   8.51653446724931
B   11.59165868886685   8.54660108297958   12.27649507400872
B   10.24302653478884   12.34404050016388   13.19039051279520
B   11.42684510317905   13.22366098738854   9.46173607901440
B   13.34154761401942   10.91955223460340   10.81080517060708
B   8.40458902746149   10.85521529704949   10.93416885859972
N   14.17107071044377   12.81740163435279   7.68724207151807
H   15.17806665914703   12.96004559411821   7.84572626368993
H   14.09521799048278   12.38244907631107   6.77555572887232
H   14.19574242873471   10.42143191203711   8.35856250015403
22
F:    ...  E:  0.573330099999993
W   8.88170893046611   12.76383866852093   11.69114540813722
W   12.97161580137696   11.74442673714289   8.75783511369442
W   8.88295229535027   8.98144345534473   10.08665755516556
W   12.92426201764118   10.09988181519463   12.64178812517106
W   10.04686699333288   10.29093598752760   12.26847707659179
W   11.81039670436796   12.27778904152702   11.37397682141106
W   10.18084053708153   11.39868262134729   9.67955537215462
W   11.71296258682486   9.48591791774804   10.28334758420868
B   10.19771945771444   8.19642291592832   11.46937749204887
B   11.58615050439764   11.48493472829917   13.42425883276717
B   10.20385302930627   13.58541525638723   10.29178053231376
B   11.59295491672220   10.26793188738622   8.18848865478550
B   10.22983029037211   9.39816462227884   8.55977887570602
B   11.52499026180502   8.59457571959849   12.31780889359728
B   10.25024753522634   12.34271661055320   13.15931448512647
B   11.55057964221498   13.22009979180167   9.45179750647402
B   13.49101901205033   10.89300598529276   10.72640174256536
B   8.33280741721363   10.85835011215935   10.92764111363678
N   14.20089266918538   12.73295103204205   7.54128859440520
H   15.21961987263269   12.81267784361163   7.54414279210477
H   13.85118577782343   12.83968660693710   6.58760824876034
H   14.39380376402902   10.65436728552421   8.94010297324591
22
F:    ...  E:  -0.270052370000002
W   8.92518142698843   12.76140233349308   11.71305198415602
W   12.84462573269755   11.76064811210754   8.74536299490648
W   8.88547525016768   8.98520268603620   10.13307466392552
W   12.97135682308207   10.14427989357224   12.54018692551267
W   10.20882329686473   10.33891802178198   12.14611341847952
W   11.84706240311714   12.42815877759491   11.36685785033408
W   10.11633942663174   11.39958446239999   9.60764002307177
W   11.72897933493847   9.29170726637167   10.08402541229655
B   10.28231788451057   8.18149195853690   11.43213076499251
B   11.68430297499900   11.52472461406647   13.38386105993260
B   10.20065239027680   13.57401240028464   10.31373254935453
B   11.43788016334757   10.28887751013520   8.14235411654400
B   10.12473723551656   9.38341268446904   8.52393043133109
B   11.65003594845651   8.60481007740679   12.17285436031149
B   10.34962580933102   12.38955484374921   13.14086028512795
B   11.45214442064700   13.20104276528827   9.34593174095580
B   13.41968208243033   10.90168154075099   10.59652764027654
B   8.34506112377482   10.87521337647247   10.92760011196823
N   14.16419859276600   12.56299461708525   7.46053642601567
H   15.16592372958826   12.75899085751848   7.63588942297841
H   13.92301000603024   12.88444166860555   6.52814614886277
H   14.36324103070076   10.84770369591520   9.65879887017082
22
F:    ...  E:  -0.485290200000009
W   8.92558338497218   12.78080613250991   11.72236695542470
W   12.81898595365031   11.67708894412748   8.84025849749523
W   8.87036464202530   8.96335502180173   10.15459238812483
W   12.88116319236268   10.13492501266585   12.61270564276389
W   10.28054622178006   10.37788148158375   12.12596524045687
W   11.82716167774061   12.53911299536120   11.48444201412413
W   10.12179699408230   11.38065303203645   9.64906426103861
W   11.74023233020467   9.22217454274819   10.09900998929972
B   10.23567061541191   8.17210870823836   11.48039637074253
B   11.67986610194069   11.59999617272516   13.48713230238952
B   10.17890932602241   13.59233425839609   10.29194856764314
B   11.42172340089181   10.23089517898325   8.17920936312411
B   10.09711815876435   9.36525634672611   8.53097095625269
B   11.63973963265298   8.52055743193224   12.19908246928038
B   10.29855390861321   12.39503830872241   13.21457634025995
B   11.47528048985804   13.18251052381325   9.41498862328297
B   13.31002967346076   10.88428731511847   10.69229590897133
B   8.37217103089263   10.85690822783072   10.98274676247943
N   14.19910890904606   12.33388207406042   7.56786679154775
H   15.21972239100277   12.26919222610906   7.65221876601372
H   13.95925380711658   12.82963622115404   6.71379010002306
H   14.30683350698711   11.06850687007858   9.85743507464200
22
F:    ...  E:  -0.480314889999988
W   8.90952253431546   12.79034024932526   11.73267283349840
W   12.80852901719448   11.65022021403712   8.90331674293783
W   8.85270712388740   8.96218458336610   10.17952830651559
W   12.83610221406617   10.11918322874886   12.68317848488664
W   10.26359469306648   10.38108097668420   12.13951653927029
W   11.80068353403193   12.56122763569680   11.52687405471944
W   10.10698470766423   11.38309938004829   9.65710871251869
W   11.73543378151375   9.20858824271529   10.14194464919952
B   10.21227326172711   8.17213269780539   11.50723734366272
B   11.64506974570740   11.60713083405802   13.52421390689165
B   10.17970894691842   13.58242644848363   10.29808249284053
B   11.41878828166181   10.22471164042653   8.23108301373651
B   10.09651325309902   9.36321773697318   8.57005974551379
B   11.60702952041199   8.50059402409966   12.24637782274672
B   10.27043955292796   12.39839232906897   13.22732849036649
B   11.47852811170599   13.16178231961478   9.43999277803712
B   13.28541850503091   10.87829412463485   10.79281702985180
B   8.36044155280219   10.86380568980183   10.99953134330763
N   14.19165383880553   12.23205527009207   7.60948170378459
H   15.15120243020855   11.88135645986172   7.54545941120484
H   13.99066533719835   12.85131878351431   6.83185719768296
H   14.45320440887686   10.97090432552295   10.36934994969100
22
F:    ...  E:  -0.584106030000015
W   8.90976838307510   12.78059522662997   11.75476745929726
W   12.76983565308793   11.68823443239672   8.81193624197100
W   8.85286289444605   8.95414664182790   10.20106823224270
W   12.88409741818216   10.16445574696952   12.57299372496720
W   10.27906269695689   10.38342976967057   12.12942520266897
W   11.79528857560077   12.56867162670482   11.50113781522883
W   10.08088874481843   11.38383869607737   9.65198805023088
W   11.72954579758817   9.21687069903111   10.11663166480139
B   10.24525475701707   8.17208672892994   11.50064797623700
B   11.67943631632306   11.59307958616621   13.49093161314237
B   10.14870694102095   13.57795664836618   10.29977155837625
B   11.37417453419975   10.23372139007509   8.20280623117237
B   10.06745203257048   9.36396725475702   8.57395855615204
B   11.64194506263586   8.53246129861420   12.22631331101454
B   10.30687884446386   12.40216039991863   13.22088419030855
B   11.43261650059066   13.17163210110811   9.41311202241257
B   13.29236689246991   10.92617302458043   10.67252027970717
B   8.35246049480511   10.85887885076884   11.01517473059749
N   14.17044132028331   12.26320721342464   7.54779534674327
H   15.11903228672584   11.88030793113371   7.52471229516257
H   14.03842612846639   12.91266552254086   6.78422624261173
H   14.48989809618609   10.73383957906862   10.90934389361342
22
F:    ...  E:  -0.749422970000012
W   8.91905996291942   12.78949099863509   11.74406051347872
W   12.79574494801358   11.65889138727370   8.85877918652580
W   8.85554502984099   8.95953444913584   10.19751647949506
W   12.85562137968178   10.13706638510653   12.64782166677570
W   10.25450625571389   10.38565399773038   12.13757532340880
W   11.77635106302517   12.57143958438895   11.54805884440196
W   10.09260554959372   11.38070355850380   9.65405603477162
W   11.75088863097634   9.21345060638913   10.16460969608531
B   10.22549478561344   8.17063299633829   11.51170222373402
B   11.64537838374613   11.58625862838610   13.53009765397100
B   10.16866291555885   13.56655127009720   10.30080642604680
B   11.40964810343649   10.21580214516458   8.23895881099361
B   10.09847668149250   9.35555024626894   8.60331867100627
B   11.60440606198660   8.51902018786696   12.27483781985894
B   10.27757385647912   12.40071000632806   13.24695596562120
B   11.47457687479824   13.15341299903727   9.44674046286213
B   13.30519543191136   10.92273293908834   10.75929031302002
B   8.35265204640429   10.87548557545308   10.99720186913555
N   14.17119382278876   12.18653864666079   7.54619279106082
H   14.99498973362492   11.61838616602365   7.34000346413809
H   14.09286514999956   12.93672474605037   6.85900177614244
H   14.39042153064093   10.70022406313350   11.38580804274470
