22
F:    ...  E:  0
W   8.87828234958856   12.78964660482148   11.67657658418301
W   12.82834602732893   11.65323825325109   9.02932793250605
W   8.87825599396445   8.97281539430770   10.08592371870879
W   12.78903083435018   10.11672186809635   12.71477599930425
W   10.18652534843830   10.35497050579565   12.14395925300171
W   11.77842080710599   12.54328793163316   11.56438747059572
W   10.17378016223135   11.38991556176193   9.66075640560380
W   11.77854957951389   9.22621644554060   10.18161837611932
B   10.18372061421922   8.17432787627930   11.45618460738966
B   11.54389866932491   11.57507309042211   13.53468762910464
B   10.18753558138629   13.58416643730110   10.29722466765657
B   11.54045895309643   10.22520304387712   8.23499455462942
B   10.18742511172915   9.39327573767889   8.55080400405229
B   11.54397477755821   8.50797329167257   12.25620666107303
B   10.18386197475624   12.37862874755592   13.20836726451915
B   11.54176291528272   13.22335124316314   9.48574429138048
B   13.30281857070125   10.88060828423307   10.87987261753689
B   8.35573969061661   10.87296764380104   10.90097592382792
N   14.39052563213821   12.28411817220921   7.51734053470172
H   15.11822724186023   12.88437073437236   7.91973701446834
H   13.94008209563596   12.81502244973849   6.76439636000275
H   14.85597091833449   11.47893826079121   7.08681357213641
22
F:    ...  E:  0.0292507300000011
W   8.86688680510519   12.77967505189107   11.73359130891486
W   12.73129225245971   11.58860800682388   8.98343007481020
W   8.79894334551486   8.94148106109225   10.19731060227436
W   12.79783209819704   10.11067072554864   12.67767727464329
W   10.18974149221092   10.35765206091678   12.16021202839556
W   11.75544923407551   12.51591031897949   11.53170305385240
W   10.06109458908989   11.35252779147346   9.66659197535053
W   11.69177521153704   9.17717827727606   10.18127895141886
B   10.14694967897120   8.15766898613521   11.53851435022410
B   11.59014299040125   11.58356401725678   13.52998228127164
B   10.12931188701627   13.54393271164810   10.30143768108493
B   11.39037845299426   10.16743720639301   8.24391808258464
B   10.04850218811282   9.33301564414958   8.61089810813464
B   11.54398633202059   8.49688204667624   12.27512469232287
B   10.21864361014346   12.38091449417046   13.23089481715499
B   11.44863509145887   13.15640189166933   9.44869556379815
B   13.24854113011158   10.83169226167431   10.81089412665768
B   8.30290459515473   10.85911774814169   10.99379887261138
N   14.51549854793500   12.23468140232731   7.75521905445121
H   15.26492256710584   12.60024477325121   8.35294172568680
H   14.29465476478649   12.97929989443527   7.09266300514470
H   14.89354458468456   11.44381245956681   7.22690222164638
22
F:    ...  E:  0.141607010000001
W   8.86789951228146   12.77488771188358   11.77178212344068
W   12.63056679297626   11.55666471795192   8.89108739736191
W   8.76342372644649   8.91778812965761   10.27861894342525
W   12.84857981908506   10.13887288744047   12.61695850914473
W   10.21270817369983   10.37223720670781   12.16711711226338
W   11.74750583970907   12.52174537274599   11.48574359476644
W   9.99393977609511   11.33435721721411   9.66835131388737
W   11.66702612157911   9.18502802648723   10.15856684401457
B   10.17483006241360   8.16277298292723   11.56690461677360
B   11.64907840268657   11.60233665210403   13.49294692458138
B   10.08398681354043   13.52929141695572   10.29893700585544
B   11.26980323861346   10.12700073414393   8.21374182494420
B   9.95293993425683   9.28712820421917   8.65171018277999
B   11.58320144738208   8.52826376356117   12.26721477269517
B   10.26691504821210   12.39740943968587   13.23365260360557
B   11.37792757782144   13.13223390301079   9.40767999852191
B   13.23735367593777   10.85568486529730   10.72145099265542
B   8.28337790659593   10.84746853128430   11.05733048585120
N   14.55399264949191   12.16511538267311   7.88281058745521
H   15.02030907497713   12.17363842780198   8.78978771321583
H   14.59103499759476   13.07921953716370   7.43617282889199
H   15.01809284475616   11.48655689557204   7.27752779737675
22
F:    ...  E:  1.37135691
W   8.88902453191271   12.79713489117755   11.72051429115729
W   12.70154700736073   11.65102407523221   8.82572866929925
W   8.84764533531596   8.94678665826735   10.17393065911317
W   12.88947172482466   10.18082198579231   12.59424923987324
W   10.21902394409899   10.36706356883660   12.17966005839746
W   11.78763247173777   12.56176686925459   11.48550311263100
W   10.11808399216762   11.36429494040622   9.68091935499813
W   11.78567904734054   9.28010356051514   10.14499360519401
B   10.24671658081201   8.19285578155206   11.46825081343525
B   11.63457625468175   11.60165273159357   13.46501272158708
B   10.15798804440477   13.57429207563124   10.28580924128211
B   11.40898519656824   10.17146190616651   8.18366676112845
B   10.10236788642324   9.33989788668682   8.59855270756315
B   11.61825330489694   8.56731565068015   12.22502598356711
B   10.26052628250701   12.40597302554308   13.20168611202591
B   11.45393689308745   13.19436276087368   9.39876334639833
B   13.34422784828747   10.97005366658587   10.68835546500703
B   8.34008768838441   10.86298921995334   10.98358324158017
N   14.30698478144049   12.15592579447449   7.54268551395799
H   14.53094367482124   12.04127569882253   8.86493238967112
H   14.29369027556470   13.06492627960311   7.04986897716723
H   15.09404917638097   11.61429892784773   7.18499720937275
22
F:    ...  E:  0.629943379999986
W   8.90367790959781   12.80518136065583   11.70096576771241
W   12.91571321871265   11.74947598709100   8.75829374805184
W   8.87320003472016   8.95119778968138   10.14876060450633
W   12.90729605636735   10.16392853293777   12.65706814762040
W   10.12111728256638   10.32390368023695   12.27648590550901
W   11.72947323788553   12.42220733254545   11.45972232043954
W   10.18174169886252   11.37729014120213   9.65363597043685
W   11.77252897030876   9.39941210586099   10.18334052604885
B   10.21094769524645   8.20656225416995   11.50724144333681
B   11.59418306092465   11.54905532892595   13.48152958529445
B   10.22258223670467   13.55506571566124   10.24792173626711
B   11.48418241896642   10.25783298087049   8.22341345639445
B   10.14888220727090   9.38366072443523   8.58709266902722
B   11.58779002877570   8.60695050179305   12.23653388233660
B   10.21100324324219   12.36668469599474   13.23452141157533
B   11.55561030673335   13.17418957171009   9.37709378640302
B   13.35516785507092   10.95251804910903   10.72722048131745
B   8.42304152105759   10.87204532689855   10.94007631251626
N   14.10764024244477   12.06255783987189   7.17481983903062
H   14.55169808892629   11.95475903236374   9.47633939829698
H   14.08953801314660   13.03260502945429   6.82531331552947
H   15.07489799633127   11.70981467944861   7.12517252256393
22
F:    ...  E:  -0.495880190000008
W   8.87799939156357   12.76855417292377   11.71518671773988
W   12.81978520715046   11.82120989702761   8.58050774727173
W   8.93483957769480   8.92886699750682   10.12412972102088
W   13.05907041712201   10.28512376819486   12.51925299189542
W   10.15411618519621   10.35709397981899   12.20376366180001
W   11.76370472144330   12.41568652572072   11.34375147102693
W   10.15388110863892   11.39673960288312   9.62741265011815
W   11.83214948312472   9.63847766316492   10.11183855547623
B   10.39416508767222   8.25829317321869   11.38968115266911
B   11.65051793446883   11.57760969726153   13.41272464261104
B   10.17629671906589   13.57731342600890   10.27941052566655
B   11.42159525398660   10.36437962513496   8.05388914696610
B   10.18811257458180   9.39767334972344   8.54119558068555
B   11.72242768871581   8.75314339627619   12.12858403434315
B   10.30441529186023   12.42757126353567   13.16000433590424
B   11.46004911184679   13.22152613970538   9.32560517630345
B   13.50981257941409   11.07347866030830   10.52816503094591
B   8.36959710711624   10.84127276178451   10.91834020176426
N   14.08147871724749   12.18692300966067   7.08460311119357
H   14.39762159516748   11.66431141212498   9.87971820895452
H   13.97498396922665   12.92057547605151   6.37082649967225
H   15.05502507378321   11.86356199605407   7.06369873459821
22
F:    ...  E:  -0.408370539999993
W   8.90563716735909   12.78255796533798   11.71358984692387
W   12.79005112903508   11.73225226761034   8.76658411858809
W   8.92439761990918   8.95920811569300   10.13232585389707
W   12.90837646990087   10.22216763125371   12.60426453794888
W   10.28452894371748   10.40047664903256   12.13767828635254
W   11.79928553078633   12.59057749521872   11.51437451557149
W   10.14010942650143   11.39173035570571   9.63796167667632
W   11.80394400500616   9.31142001668261   10.10023241682083
B   10.30079865255526   8.20168999348330   11.46184990573675
B   11.66065046093472   11.63822771620907   13.50863265271405
B   10.17944167279540   13.58875778349481   10.29584281063158
B   11.44654461327010   10.25584759754117   8.16038509415138
B   10.15209708062574   9.38046857656445   8.52049371438373
B   11.69036238138358   8.58520592820837   12.18670192851264
B   10.27514328036991   12.41706557234438   13.21811824822142
B   11.47815112703969   13.20512129858709   9.42362672826307
B   13.34698332374488   10.99375041344853   10.67111475155589
B   8.38844101334791   10.84951290775698   10.96304569681278
N   14.14645116151950   12.16570767636210   7.38711923706146
H   14.27817926028895   11.43247729934667   9.89673176186411
H   13.98558291935411   12.85404019150648   6.64649634693817
H   15.09772856405839   11.79830287192243   7.28423997588212
22
F:    ...  E:  -0.466840630000007
W   8.91542192385874   12.79268616808345   11.72596859949914
W   12.80018879442929   11.65136225726742   8.90124057832088
W   8.87198716482212   8.96295764357146   10.17519031476434
W   12.84843127607728   10.13937699705088   12.68388956962515
W   10.27756230534258   10.38899474033120   12.13475980911797
W   11.78141424326626   12.58753693747023   11.53502863048644
W   10.10329171975866   11.38908460950545   9.64866474835173
W   11.76309372476664   9.23559560574037   10.14340027551327
B   10.23826578780740   8.18207511935430   11.49778502113240
B   11.65018044564508   11.62571209093798   13.52389361757441
B   10.16840004593037   13.58115142588520   10.28772811893682
B   11.41902209335490   10.23462217399897   8.22386467982606
B   10.11151558677010   9.36481822510848   8.57689458142463
B   11.62917560995464   8.51316265815326   12.23848569583093
B   10.26445660191291   12.39982151130870   13.23486338904889
B   11.47618829106886   13.16628120028466   9.43852146775948
B   13.28138968467920   10.91749564178259   10.81060391053860
B   8.36716507275593   10.86448587531081   11.00136989861149
N   14.17829615600558   12.15501458796920   7.56920148606886
H   14.44098745910302   11.13205199269481   10.37246554094741
H   14.01108720147531   12.84884938331675   6.83192391573087
H   15.08809975205007   11.70688198851388   7.41875045021594
22
F:    ...  E:  -0.560988470000012
W   8.91737293262833   12.78081377512677   11.74796255897626
W   12.73774200725332   11.69559173051369   8.77856130341148
W   8.87009633316219   8.94922210124658   10.20498841879818
W   12.91303898097149   10.18805827102263   12.55177057335390
W   10.29743191622124   10.38985517535016   12.12371332191195
W   11.76690696286002   12.61057864527693   11.48623996327220
W   10.06565065545629   11.38631506872594   9.64316613130905
W   11.77262865630134   9.25655834375265   10.10470129379149
B   10.28529308615050   8.18417753133170   11.48291651699339
B   11.70123545525282   11.62099573765374   13.46703654634086
B   10.12236844491876   13.57970478313424   10.27330739559386
B   11.35807941883794   10.24734053701538   8.18552343522370
B   10.07641461219106   9.35912350211052   8.58615818757079
B   11.67592261169997   8.54904282497328   12.21394786325898
B   10.30992474394328   12.40521515046659   13.22229876005241
B   11.41585348416908   13.17893763780215   9.39288982545956
B   13.30839986254089   10.99039905118949   10.66561479476935
B   8.36326736332296   10.85418443061778   11.02591902917509
N   14.15614732836182   12.18709929927421   7.49737490880576
H   14.50900456731943   10.97836490730081   10.91808964999078
H   14.07626144536693   12.91391844170596   6.78370179229122
H   15.03026683646290   11.66921992812940   7.36244415196490
22
F:    ...  E:  -0.749422970000012
W   8.91905996291942   12.78949099863509   11.74406051347872
W   12.79574494801358   11.65889138727370   8.85877918652580
W   8.85554502984099   8.95953444913584   10.19751647949506
W   12.85562137968178   10.13706638510653   12.64782166677570
W   10.25450625571389   10.38565399773038   12.13757532340880
W   11.77635106302517   12.57143958438895   11.54805884440196
W   10.09260554959372   11.38070355850380   9.65405603477162
W   11.75088863097634   9.21345060638913   10.16460969608531
B   10.22549478561344   8.17063299633829   11.51170222373402
B   11.64537838374613   11.58625862838610   13.53009765397100
B   10.16866291555885   13.56655127009720   10.30080642604680
B   11.40964810343649   10.21580214516458   8.23895881099361
B   10.09847668149250   9.35555024626894   8.60331867100627
B   11.60440606198660   8.51902018786696   12.27483781985894
B   10.27757385647912   12.40071000632806   13.24695596562120
B   11.47457687479824   13.15341299903727   9.44674046286213
B   13.30519543191136   10.92273293908834   10.75929031302002
B   8.35265204640429   10.87548557545308   10.99720186913555
N   14.17119382278876   12.18653864666079   7.54619279106082
H   14.39042153064093   10.70022406313350   11.38580804274470
H   14.09286514999956   12.93672474605037   6.85900177614244
H   14.99498973362492   11.61838616602365   7.34000346413809
