22
F:    ...  E:  0
W   9.08905346939615   12.87545360617607   10.94060039322805
W   12.95826553128419   11.75894165693019   8.22904001837283
W   9.09112960787090   9.04400736010887   9.34555485410422
W   13.03237148176975   10.23004407132154   11.89882149121176
W   10.40089810941154   10.40132502262573   11.48260220233864
W   11.96039593104139   12.62240181302150   10.77374443673689
W   10.37922382877239   11.48431694554599   8.88505186104675
W   11.96307197963561   9.34303089288207   9.40734741606146
B   10.45221931891066   8.24011717491843   10.66754905173040
B   11.79694997851534   11.67908088273996   12.76662229740401
B   10.36259871477682   13.68088489842416   9.53625175370624
B   11.69930779315210   10.30446617069601   7.42301866467765
B   10.36508605649049   9.47535562405929   7.78488967086340
B   11.79787258637855   8.59214829256666   11.48175194489046
B   10.44752858557031   12.49963735063989   12.44399434335499
B   11.69775749880164   13.35441311693901   8.69383840149553
B   13.50567136800606   10.99725775941359   10.05958073737134
B   8.61210412084061   10.94365084325109   10.18152002045937
N   9.19351418978849   9.66174955278751   13.25456254608111
H   9.55095663555551   10.09820463426993   14.10826375074604
H   8.20807543042325   9.90919454795521   13.15100257989381
H   9.27719619504488   8.64556619416364   13.32563997566202
22
F:    ...  E:  0.0326059200000088
W   9.13413063252713   12.86003827902945   11.00096904135159
W   13.00770357316295   11.76748856124092   8.27645499631340
W   9.14190663163748   9.04101966555240   9.35670325580671
W   13.06424989374735   10.20396444115222   11.93475594242123
W   10.45443405348450   10.38591678508654   11.51184256702175
W   12.01399027686906   12.61018551606519   10.84173089074960
W   10.44371208261274   11.48503293602788   8.93096536301096
W   12.01713833529106   9.33733344190240   9.42478566030340
B   10.49891599022837   8.22552676911567   10.67303198669118
B   11.84352888561104   11.65931811789306   12.83255616787330
B   10.41022810728303   13.67059192520271   9.60737160252131
B   11.75656236734718   10.31131596236364   7.44881235165722
B   10.41273356274934   9.49256727799549   7.80201268036991
B   11.85052365337614   8.55411442676858   11.48775811075337
B   10.49072693379039   12.47320412010969   12.50290993353937
B   11.75738825417888   13.36591792696375   8.77234617240720
B   13.53747217526724   10.99041401834251   10.10190358091191
B   8.67614918910543   10.94156558161870   10.19998514950269
N   9.00584965905184   9.69687537046792   13.10740675333992
H   9.13600806484086   10.21348035570338   13.99163907269753
H   8.04854435045909   9.85519048768522   12.75487999194310
H   9.13935173881580   8.70018644515070   13.28042714024996
22
F:    ...  E:  0.165772299999986
W   9.15883278283479   12.84004975654952   11.06113284972534
W   13.04305785308110   11.77524689344529   8.32146937083607
W   9.17082389392349   9.03561811742475   9.39164375212110
W   13.08527227181774   10.18221728535462   11.96691040769126
W   10.52812328988152   10.37422926963519   11.53440081432019
W   12.05386785658323   12.60726756275399   10.89805768065061
W   10.46918342942260   11.49149471914774   8.97528060974427
W   12.05511647932953   9.32457996884999   9.44360761449816
B   10.53585955508573   8.21126058979825   10.69420210071869
B   11.88930927672587   11.65657676909440   12.88977497427833
B   10.43257098077756   13.66250953961321   9.67320083765648
B   11.77327481987334   10.33489883815728   7.49913506678412
B   10.42706206974685   9.51038121209729   7.83643301548260
B   11.90278976208284   8.50842669727786   11.49595568073847
B   10.52069012069964   12.44524430686637   12.55353874185944
B   11.78049470857222   13.35788218991699   8.83513404124457
B   13.56106011306938   10.98267049928543   10.13809472988023
B   8.71830132622711   10.93404398074169   10.23442391899382
N   8.90731421544167   9.71672402628463   12.99825505053089
H   8.75935528636439   10.27438729233622   13.84654351595451
H   8.14050212692267   9.89101390436651   12.31929140984957
H   8.92838619297257   8.72452499244107   13.23476222787860
22
F:    ...  E:  0.749337870000005
W   9.10748904139455   12.82933546950483   11.07312024982845
W   12.91095226225299   11.77734882238501   8.23978297356544
W   9.11673004783617   8.95955057406318   9.48507117319441
W   13.13641493712476   10.20681113668665   11.89369640250043
W   10.59086042769395   10.31027040507384   11.60437282491886
W   11.96985962157343   12.61209374525401   10.77437229514700
W   10.30478863978356   11.44385704466989   9.07530921192900
W   11.98038428754564   9.34321234143643   9.43049557725078
B   10.55278507392157   8.17443707742332   10.73147215974974
B   11.92570305108708   11.68417225013279   12.79495425806963
B   10.29655193771211   13.69201393165700   9.59786601232829
B   11.57013075184870   10.37840470611305   7.50901196420392
B   10.28104246188466   9.47300164366807   7.85677171615780
B   11.94131497720054   8.50232421060167   11.49576756526559
B   10.53159099623558   12.45599089388790   12.49821458409581
B   11.58350957378798   13.31601136446633   8.69653597754012
B   13.53967628406901   11.01029303050107   10.04815787843497
B   8.66816788977109   10.83421781904361   10.40805693760569
N   9.14768611072778   9.69340070822100   13.09969859179436
H   9.09506340489981   10.21766433663106   13.97412843214221
H   8.63068615019193   10.23382576314105   12.31672706325731
H   8.95986048289390   8.69301113687431   13.23766456245732
22
F:    ...  E:  0.966188869999996
W   9.16382192661486   12.84672554600015   11.08555725045899
W   12.95570967997994   11.76376124243465   8.26053920241700
W   9.16549899861100   8.96545020608675   9.43787503498364
W   13.15805347803212   10.20244882108685   11.93034976929981
W   10.47048894715063   10.22870902485153   11.80423346257342
W   11.96265145866387   12.54628610320671   10.79446064222052
W   10.27649877661546   11.42699925998906   9.10007392003884
W   11.96165465179909   9.41516987152963   9.45511607137345
B   10.56430202118293   8.19220662431796   10.73349847206319
B   11.92443445364519   11.64208334525953   12.83021855270573
B   10.33703931500682   13.69546278168541   9.62351447121163
B   11.60799976092766   10.38999845358266   7.49458396969445
B   10.32434548959481   9.47124484740824   7.81634051542355
B   11.93099203994703   8.54567510034195   11.51101592143994
B   10.55636056724018   12.43980887011215   12.54596920483390
B   11.62138787364562   13.29022420858538   8.72099381404922
B   13.54763570714868   11.00942634100778   10.08082272680212
B   8.67299384711089   10.82880769852040   10.40651355729880
N   9.23275901368289   9.58139361966422   13.21819842114240
H   8.91771587243277   10.19155419563067   13.96862479361611
H   8.51153043733358   10.56267044802942   11.68026509095242
H   8.97737409507110   8.60514180210692   13.34248354683938
22
F:    ...  E:  0.484585930000009
W   9.16090446819639   12.84267660768737   11.01257036733542
W   12.96926335074286   11.80439997089110   8.16582420182093
W   9.17265909606578   8.99292768883550   9.44600929696994
W   13.15745673954855   10.20823822750801   11.89981594668857
W   10.32861248347308   10.21763725010932   11.87039022209526
W   11.90335029043312   12.44046330180479   10.68577033036549
W   10.24206066544007   11.46795309664643   9.00270893462535
W   11.89927606040792   9.52283674878846   9.48547638271643
B   10.54049442565149   8.21828126589156   10.76958666669270
B   11.87554171185799   11.58469769602166   12.75594398707933
B   10.33455362078902   13.73148767400448   9.57658871138792
B   11.61321756109789   10.38766456407699   7.46521853588110
B   10.32149817545594   9.45017699812155   7.81089763464217
B   11.88392242820997   8.61575906330922   11.54613582136860
B   10.51856667723829   12.40367536305215   12.49280430768586
B   11.62836439578633   13.33226413160883   8.66161328262735
B   13.56334247204482   11.01723179175917   10.01968417820189
B   8.60702620035745   10.86941276556654   10.30562993048268
N   9.43260750330551   9.51822848032359   13.46861415131562
H   9.26463263649266   10.07327512505886   14.29885564151613
H   8.30173397623344   10.57974164532578   11.51114384208214
H   9.12216347260830   8.56221895504417   13.58996603785667
22
F:    ...  E:  0.240340779999997
W   9.17509890946669   12.89990629452651   11.02575629493941
W   13.01531136259906   11.80328806174585   8.19290438253832
W   9.17533689218883   9.06683565299813   9.45367584946157
W   13.16161259181221   10.20299803780324   11.91394466241118
W   10.32047941094647   10.23114254709089   11.90043973297231
W   11.92615051841592   12.41197596351436   10.69997171236544
W   10.27574742948497   11.46150958455591   9.01220782159226
W   11.93644159437052   9.52617711232619   9.49549768771242
B   10.52445632790844   8.24654792744432   10.75928224046803
B   11.85742384995224   11.56858749686583   12.77462584152976
B   10.38608762954690   13.72251248290635   9.58355612934588
B   11.67763880654450   10.39083989554775   7.46908294382346
B   10.39206380373322   9.45425138775449   7.83914034477790
B   11.86034124095815   8.63280142784004   11.55265986136911
B   10.52708709916751   12.43433607649857   12.49243327993223
B   11.68301977441451   13.32899752661669   8.68825485327647
B   13.61912455640646   10.99429922656392   10.03470529292521
B   8.60279869506939   10.96844575219347   10.35907491724955
N   9.41124154562857   9.55501900324420   13.50751692913093
H   9.23821094258647   10.07914093932324   14.36066298785955
H   7.98457461765133   10.26432174055968   11.11880853686267
H   9.09100081258395   8.59731427351657   13.60704610889321
22
F:    ...  E:  -0.0360937300000046
W   9.19373902917800   12.91076745096257   11.08833042096217
W   13.05174026526656   11.76929955325348   8.23174436489946
W   9.16169873369910   9.10812045614595   9.42344442409606
W   13.17147202277965   10.20792232533690   11.97925420078756
W   10.31899744048261   10.26825014724761   11.91834282152330
W   11.96391848389316   12.36719425462055   10.76703782181721
W   10.30142442203328   11.42363150822856   8.98111892124594
W   11.95133843150841   9.58797145563964   9.49136894515756
B   10.51543041370177   8.32296519450055   10.74360018862269
B   11.86849664001045   11.58079421138951   12.85574424476732
B   10.43397185263436   13.65727481568934   9.64931015457366
B   11.70485853909086   10.37309699999791   7.43129933803804
B   10.42155068958785   9.43368688006247   7.79919710568913
B   11.85463900160839   8.67533246847169   11.55309411289541
B   10.55667289936517   12.46653441617320   12.55128633358584
B   11.71840622008100   13.27151723549769   8.73938410365307
B   13.66731387973232   10.98281668086575   10.09555837911936
B   8.60960346480444   10.98319508835914   10.39978030556338
N   9.34313704293809   9.60417585259472   13.48019703025288
H   9.14962033455134   10.11834201099243   14.33402999423775
H   7.84239108803247   10.09072087488230   10.77511971916469
H   9.04082751645681   8.63763853052450   13.55300548078432
22
F:    ...  E:  -0.17290281999999
W   9.21281499859094   12.89268198885549   11.11100061728704
W   13.10298336712702   11.75142933639385   8.30098848323975
W   9.17507482847688   9.11799228143966   9.37336126265880
W   13.18195884238080   10.17866636650770   12.06501736654517
W   10.28211857479666   10.28131485195624   11.92291568560272
W   11.98510437083973   12.33785120791237   10.84415486646603
W   10.31592907501393   11.42090513763550   8.89994960557738
W   11.93975869010991   9.66354338415239   9.53495681038636
B   10.51853542769704   8.36672046101697   10.74104427289755
B   11.87491632316433   11.55975759289220   12.91682827286448
B   10.49807817280148   13.61321814742690   9.69920123641604
B   11.75229792740279   10.38276742933092   7.41945356898870
B   10.46847242294673   9.44135628035534   7.76172381439849
B   11.84423774856453   8.69238812140332   11.58989271202060
B   10.56423244212014   12.44033640770716   12.59946776130906
B   11.77879751930252   13.24619371664882   8.79133411899885
B   13.69411202446658   10.97663861693364   10.18468187238729
B   8.62916757904113   10.98361166610526   10.36056555931596
N   9.26221062133961   9.62409443669255   13.45667085524807
H   9.05714605657080   10.15093649959654   14.30105988555343
H   7.73754823258951   10.06437065359586   10.43210590901204
H   8.96575316609285   8.65447382688154   13.53487387426350
22
F:    ...  E:  -0.214433159999999
W   9.22055410829650   12.87226833385747   11.09459811663967
W   13.17510560267910   11.75294548313887   8.39043694548824
W   9.20357790609404   9.13018607650596   9.31095389133973
W   13.15287936471092   10.13229600475000   12.14116342808150
W   10.22133518147467   10.26931968720150   11.91380566213883
W   11.98357599913667   12.31784941251968   10.90723031230135
W   10.37051816630946   11.44666407765788   8.83727143692442
W   11.94179656596361   9.69556836165417   9.59286159938038
B   10.50395578471324   8.37026228474903   10.72523049711446
B   11.83697408712082   11.51179735124152   12.96124643048601
B   10.54828529363055   13.59594435345807   9.72775322186057
B   11.85314379709291   10.39283354529692   7.44764624042751
B   10.55497009692948   9.45747557090882   7.74403633037670
B   11.80308749036994   8.67458915069517   11.62822574518098
B   10.53344041673137   12.39535764709085   12.62335056543742
B   11.85470845458958   13.25488191871313   8.85294883983258
B   13.70719980700411   10.96258497404672   10.28465847796149
B   8.65016525154633   10.98307893535600   10.26928501865319
N   9.17849391277653   9.62827519211468   13.43825149226468
H   8.98141915005384   10.17078643736296   14.27731167290361
H   7.66900185989912   10.17136455830501   10.12568119397437
H   8.89706011431415   8.65491905481193   13.54730129266923
