33
F:    ...  E:  0
W   13.99501569639618   11.79421795663573   13.52921079854258
W   14.77695910298695   13.05224581399898   11.37058300930440
W   14.05463151016792   11.52580120931726   9.44525753501254
W   11.38748084912331   10.69395446969201   13.64572026829025
W   11.32677661902848   9.27326919477556   11.45956624803673
W   10.98319970033559   14.30374164423695   12.29451825850553
W   11.26884690565196   12.37784014957008   9.04913002684799
W   8.21824564718643   11.72320189139556   11.49937108126571
W   12.30412521952617   12.03705948570663   11.48604831333161
B   13.33172870861621   9.85580814418687   10.73986869215593
B   13.23350870001163   10.01599200313553   12.49809654227634
B   14.45278662053762   10.84476646462275   11.55000458995569
B   12.08111980961154   12.89197235475346   13.78086120944971
B   13.19039864802506   13.78011390686889   12.86553805886267
B   13.04195531791344   14.38634043430809   11.27685322376367
B   11.77695841553221   14.26562545459190   10.17324289950254
B   13.20229302634174   13.50364372432128   9.72660390419220
B   12.18163122253452   10.36910253871287   9.61787993180566
B   10.42351497039636   12.75241663820920   13.82622211279672
B   8.93313477702850   13.84201926794442   11.31764137301150
B   9.09660113872902   13.18886923306389   12.89159557469917
B   10.11795518803636   14.19530190275197   10.12102171924814
B   9.31009690868486   11.54749173502844   13.41444789984366
B   9.34291869863456   9.99805684322573   10.75980519067867
B   10.54936732356680   10.24524942771907   9.57101404884466
B   9.28572371895669   11.32623723079343   9.61561720068516
B   9.57289208739756   10.20369068054129   12.44004562327842
B   8.98062258552033   12.97391192852513   9.77215140759430
B   10.19911189645567   12.59131207634281   11.03835863769060
N   11.44690071730368   7.00587519356202   11.42314586915702
H   11.46895371343540   6.63302367646603   10.47006985472470
H   12.29230032768212   6.68573310230116   11.90175627149374
H   10.64366750629940   6.58753750034923   11.90017590280602
33
F:    ...  E:  0.0483367799999996
W   13.96052965739739   11.77639972883098   13.53433306532391
W   14.74773698446818   13.03420275524392   11.37657901465808
W   14.02853448965908   11.51151353596815   9.44731617515883
W   11.34747988942237   10.68170046224843   13.64894423604188
W   11.28219897042979   9.28424372957599   11.44924278976919
W   10.95384135331928   14.28734405758530   12.29393405976728
W   11.23399246522717   12.36907476523298   9.04332259383891
W   8.18188882498497   11.71557333019860   11.49690903305177
W   12.27381114193884   12.02191557379446   11.48396072260334
B   13.29229444137437   9.85560737120654   10.73758175915374
B   13.19489420099745   10.00468053556152   12.49796571608323
B   14.41953743995020   10.82737146721892   11.55510801394157
B   12.04668152207494   12.87235927593268   13.78148195121884
B   13.15689309336624   13.75983008353392   12.86649631068975
B   13.01284850229355   14.36864307811094   11.27906987809832
B   11.74871947999724   14.24859138728939   10.17527170583540
B   13.17304793006868   13.48552551112968   9.72742806635483
B   12.14363938534116   10.36522104795132   9.60903673501357
B   10.38907053579443   12.73665641403938   13.82593504305871
B   8.90441375852799   13.82837556692808   11.31696531802253
B   9.06218275328038   13.17582191446031   12.89186139139519
B   10.09023983381284   14.17913241497089   10.12130922106699
B   9.27109136390460   11.53707216838898   13.41602608327028
B   9.30079645757598   9.99184357361441   10.75293435659388
B   10.50786890732794   10.23684023879762   9.55575123349276
B   9.24402891013409   11.31554594354051   9.60501750067709
B   9.52701476184102   10.19405284372203   12.43740488429865
B   8.95116482308247   12.96162358940646   9.76972716847635
B   10.16739671670759   12.57235432621256   11.03870679954906
N   11.63481954568363   7.07356770696365   11.42330031963381
H   11.61456062812583   6.61006861762961   10.51298973312893
H   12.60380103371910   7.03108041037581   11.75033448891397
H   11.00440347582422   6.55758985199026   12.04917790947322
33
F:    ...  E:  0.507063429999988
W   13.94197418371457   11.76841316334080   13.53771912689854
W   14.72870239163820   13.02396877109795   11.38230662543222
W   14.02107136610687   11.49717460907150   9.45195049632747
W   11.34180480697190   10.67340143718456   13.65629857990389
W   11.25917729336175   9.28633018623677   11.43592641584247
W   10.93247908852129   14.27055831828698   12.29181531917538
W   11.22610568968805   12.34588121238861   9.04305028912172
W   8.17172707204592   11.68675695861913   11.49362624562029
W   12.26366322596194   12.00631830434848   11.48672497692584
B   13.28662597807766   9.83859511917849   10.73913673539106
B   13.17854884068691   9.98741434683596   12.50301519077255
B   14.40662140226926   10.81376951920230   11.56358603332598
B   12.02897651357841   12.86555619724479   13.78813122964245
B   13.13352183091778   13.75482372974687   12.87004516667341
B   12.98865883804037   14.35547215175849   11.27968310579291
B   11.72873099819821   14.23466536393806   10.17285905922970
B   13.15641204190230   13.46929925024420   9.73298844802980
B   12.14091579971410   10.34266313076818   9.60038955733657
B   10.37328313468407   12.71903665304590   13.82651733206014
B   8.88686809463781   13.79944719377883   11.31497942002481
B   9.04200799515720   13.14999011479566   12.89235984319703
B   10.07074671113072   14.15439443290085   10.11925189341524
B   9.26546306127390   11.51527713420513   13.40921825087327
B   9.28044305293671   9.96950718910843   10.74527367230256
B   10.50145329158302   10.21983104192119   9.54685370516106
B   9.23606735417323   11.28830462295916   9.59918875804207
B   9.51555846752597   10.17009048439658   12.43511444953512
B   8.94260992873417   12.92950293772466   9.76923716550828
B   10.15862269807080   12.55301247378852   11.04284853002892
N   11.64712519883145   7.12930423711196   11.36815176051841
H   11.78448618384021   6.44437414596811   10.62667903828680
H   12.58776755930022   7.57766497487095   11.56242440299035
H   11.24320318437723   6.63062387158596   12.18407245426684
33
F:    ...  E:  1.55912137999999
W   13.96014821655651   11.78274914236385   13.53693578619291
W   14.74071060566344   13.02771711415194   11.38336688197879
W   14.02311143646600   11.48502358919139   9.45870578075076
W   11.37244617952398   10.68013740496971   13.64804585819062
W   11.35137912440356   9.16831278564189   11.45793164003318
W   10.94518397029671   14.27501672200248   12.29055327621975
W   11.24574828636347   12.32397933039479   9.06491400350578
W   8.19955803153546   11.67097008811035   11.49428258334051
W   12.28034726754707   12.01351381060239   11.50113066801915
B   13.31454962989672   9.79673473423110   10.75468448361262
B   13.20014861546749   10.00573210189408   12.52381767272770
B   14.42353174368002   10.80739698149409   11.56143154495945
B   12.05010094830032   12.88265068396049   13.80006786549751
B   13.15082691810041   13.76998923511633   12.87378806505746
B   12.99916381459089   14.35906552175059   11.27790647872159
B   11.74067851944747   14.24376791891159   10.16718224314428
B   13.16919341422615   13.47250291960495   9.73535868828816
B   12.17194260139355   10.30859909257264   9.60909509986557
B   10.39389592462001   12.72343737586077   13.82298127401691
B   8.90885034416128   13.79896768477043   11.31448138055113
B   9.05630807808193   13.14870307312637   12.89728066932970
B   10.08213183027530   14.15761497446555   10.11695029993973
B   9.29431117804135   11.50835758261011   13.39464565637113
B   9.28668970332114   9.96853827832400   10.75520597732491
B   10.53706046050732   10.20707228257909   9.58765943946992
B   9.25598370750336   11.25780676409384   9.61327515322301
B   9.54595473349596   10.15025960524602   12.43798037424930
B   8.97046798326686   12.91270539888136   9.77433739655856
B   10.18619336014930   12.56577881630214   11.05144151723246
N   11.24738764658425   7.07295515523090   11.29730754508166
H   11.70142416361409   6.46349803616161   10.61932983820775
H   12.68859296287104   7.94524551561796   11.53737057115692
H   10.97740187770022   6.51662355741927   12.11197756483475
33
F:    ...  E:  0.844241759999989
W   13.99012429971681   11.81371023477097   13.53573808306129
W   14.76586692142876   13.06986764997481   11.38370153964319
W   14.03942991241844   11.50330180696822   9.47808425853568
W   11.39382636687049   10.66952465733456   13.63115319539164
W   11.40923177859714   9.06480135010816   11.46279126421977
W   10.94615368938768   14.25283550277266   12.29310339526151
W   11.26059858643294   12.29369736725692   9.08586195443777
W   8.22023888590789   11.64795270629212   11.48694989711364
W   12.31091921501654   12.03057477162691   11.52645013485849
B   13.33992728185078   9.82575008620334   10.76117804580269
B   13.22936233586601   10.05193482852477   12.52751444976817
B   14.45678150589903   10.83496869241551   11.55636206564363
B   12.07032805523981   12.88254373596971   13.80505486629074
B   13.16564298615648   13.78306529815832   12.87545438045227
B   13.00152297763135   14.36478518533951   11.28168157280771
B   11.74627304187308   14.26369270460066   10.17574952873919
B   13.17914264235888   13.48271442086397   9.73568780692508
B   12.20879523464649   10.31930796271956   9.59374397025755
B   10.41098093006318   12.71192189486878   13.82423310839610
B   8.91019606563056   13.77438299343731   11.31070349447513
B   9.08509953881524   13.13534686038683   12.89024621995082
B   10.08659638501280   14.14254466738814   10.11635571997052
B   9.32234322285486   11.48126157273451   13.40435671123821
B   9.32332669559277   9.96082717893554   10.77399286350866
B   10.57237899888660   10.19994839089206   9.59005854204275
B   9.29129061549004   11.23767091475187   9.62239711169880
B   9.59079875381433   10.13096712112944   12.44312798712382
B   8.96304217960714   12.89607855748056   9.77477956616555
B   10.19941293817992   12.54593916560562   11.03940661742193
N   11.01510506545638   7.07346539883606   11.31982339636837
H   11.57215733676457   6.40996167893757   10.76581594278707
H   12.87003449876313   8.07644719765746   11.36550433327958
H   10.52449433542257   6.53963072271161   12.03436125401632
33
F:    ...  E:  0.0770689799999786
W   14.00352313765270   11.82393027334672   13.53647694060211
W   14.76826868437903   13.02775043696836   11.39563742899195
W   14.04319071855304   11.45016708505938   9.50572643970090
W   11.37869605955143   10.67479638846362   13.65656616493628
W   11.33807168516726   9.07740792201231   11.48901974786716
W   10.95569439403203   14.24259168246147   12.28254436166818
W   11.27622810055126   12.27894419925740   9.08389034457939
W   8.22165599281648   11.64496567141177   11.47988129994913
W   12.30868170110564   12.01274899315703   11.54344343299519
B   13.32118378911583   9.71084568686312   10.79205251621967
B   13.20688728002500   10.06297482197133   12.57251713933283
B   14.43822012353685   10.77429818854846   11.56561487501890
B   12.07838602771713   12.88493921401531   13.82181731987943
B   13.16899376188426   13.79121840981413   12.88211891353423
B   13.01360258636168   14.34777632138888   11.27752135612360
B   11.76236464481727   14.26140460967600   10.17090038698138
B   13.18205581431371   13.44074963956867   9.73332838581838
B   12.18167190730553   10.34359906668480   9.63658273119678
B   10.41734328895168   12.71286075434770   13.82324562204725
B   8.92315434028147   13.76546006260310   11.30749986780033
B   9.08830853329456   13.12276070702632   12.88418820217964
B   10.10261026851876   14.12163879070112   10.10992934481563
B   9.32138578936917   11.49095182932720   13.42388425168743
B   9.34408105957776   9.96222286209887   10.77781454493348
B   10.55956703258851   10.18491910183267   9.55671654725451
B   9.29410668438442   11.23736754737084   9.61457999560912
B   9.59563741737242   10.14910239316548   12.44997541413595
B   8.95527118086439   12.89160718457951   9.76839385540963
B   10.20410068375443   12.53251999347601   11.01970888692270
N   11.02014675940667   7.08878564503451   11.41760021472043
H   11.55693713735535   6.39919193830980   10.87459174845918
H   13.05632708238109   8.40385463018093   10.99354952546643
H   10.38506961066651   6.55707122693142   12.02410547081645
33
F:    ...  E:  -0.124992120000002
W   13.96286690782729   11.79969671473276   13.53955398749526
W   14.75958873139070   13.00380733434300   11.38557124682757
W   14.02957275067717   11.44121818557143   9.51022241445748
W   11.35286782218459   10.68193171841616   13.67726270629676
W   11.30722149823911   9.07657102611132   11.48048134595474
W   10.93989935137594   14.25038977110911   12.27621645319671
W   11.25773981135180   12.26607164013766   9.09084045047724
W   8.19806106850736   11.65847852623999   11.48223468996851
W   12.28272781015390   12.02568519995526   11.55681075775910
B   13.33326481589763   9.66502480754830   10.75162910530596
B   13.14201060208752   10.05139283928776   12.55125897397965
B   14.40733225944786   10.76234839902147   11.57138909080506
B   12.05179849182855   12.89289613645051   13.83500264954098
B   13.15457935851826   13.78656470514974   12.89142845516882
B   13.01285745645275   14.32460735360280   11.27569156041343
B   11.75463316731479   14.26449276195978   10.17490099236624
B   13.15643762585974   13.43019593892680   9.73006379581849
B   12.15142076029665   10.35142049841017   9.65626452494715
B   10.38744147507066   12.72158932748311   13.82702686393237
B   8.90953607594364   13.78159513077817   11.29559440249798
B   9.07220015472183   13.13047402244203   12.87393573765825
B   10.09553954143408   14.11973397872499   10.10137569575556
B   9.28676837191292   11.49474400751860   13.43175856340205
B   9.32132106814131   9.96793197071196   10.78016230735053
B   10.51968290309825   10.16684182975449   9.55453806876680
B   9.25718874355696   11.24541753304262   9.61165219487688
B   9.60544763719722   10.16482420775088   12.43646291064901
B   8.92609463562369   12.90792286669629   9.75903231819587
B   10.18101989175466   12.53799598655424   11.01466118707201
N   11.13066816205665   7.09608991833160   11.51931607826848
H   11.82471756838473   6.48576318212601   11.07166583648834
H   13.27984368772284   8.39399343857598   10.76876171977590
H   10.41907307162155   6.52371232018898   11.98865619218463
33
F:    ...  E:  -0.157567380000017
W   13.91866373679240   11.75143540795185   13.54383633643674
W   14.71088429763149   12.98621371235906   11.38888815061354
W   13.99891882226897   11.44412830813888   9.48326867612986
W   11.34989715249174   10.68874754431364   13.67776598399913
W   11.26442749857448   9.09455021380199   11.48436073103089
W   10.91629961379392   14.26683441979486   12.27822212622326
W   11.25873736213849   12.28195013398223   9.08420031794765
W   8.16925744639028   11.64594659814837   11.50175566713614
W   12.23093019087701   12.04960069564791   11.51984605769727
B   13.35705045469298   9.60059790600873   10.72712965809445
B   13.11397380837715   10.01291460671042   12.51693839129956
B   14.35040493666751   10.78158911533482   11.57114438205896
B   12.03095139116555   12.88523956290139   13.81663852868981
B   13.14259266698028   13.76531935461426   12.88266724681957
B   12.99945721671217   14.34523447127540   11.27055437710696
B   11.73411212407568   14.24549866854711   10.16351504092304
B   13.15827869508485   13.45733064593823   9.73269605974791
B   12.13798475257897   10.30432645247688   9.67993323504557
B   10.36857440946530   12.72705299409321   13.83421461771727
B   8.87883107982552   13.79547004802576   11.29777382075096
B   9.05892922844472   13.13542634357863   12.86845470982294
B   10.06381354930120   14.14150964595411   10.11475989549960
B   9.27810817354460   11.50640814773527   13.40893447205157
B   9.29770051579778   9.95222899305796   10.77576959842212
B   10.52161591479106   10.16730684944265   9.58946520264745
B   9.25367950434125   11.24978632987539   9.63555432220298
B   9.57473394640299   10.16500477347079   12.43644190174740
B   8.93439032680097   12.90661860472757   9.76563509522921
B   10.14175727459723   12.55714575466197   11.03550919352410
N   11.20711292177828   7.11639422497226   11.56990048815525
H   12.01464900337518   6.55569405306085   11.27880312554383
H   13.57741309805902   8.38562807105269   10.63406016840321
H   10.45729216383285   6.50229062599860   11.90278569893542
33
F:    ...  E:  -0.256094290000021
W   13.89886130655277   11.73082548401544   13.54077058316548
W   14.68666978172159   12.98793059487967   11.38083845704764
W   13.99327914572071   11.44879691298616   9.47193701944604
W   11.34187379814487   10.69130504206514   13.67424814728851
W   11.23889747018510   9.10161223370617   11.47238194912627
W   10.89654785239839   14.26814303447564   12.27618673105789
W   11.25476450374093   12.24984692072794   9.10461987609186
W   8.15106302858727   11.65009767599686   11.50157118326819
W   12.21155807459291   12.06111740078588   11.52956230621942
B   13.38046146333459   9.57409629313313   10.70126161687107
B   13.09742637343627   9.98597660496325   12.48550107035989
B   14.32990960332682   10.79707895498170   11.57439898094261
B   12.01288112881498   12.88876860476170   13.81908252317727
B   13.12606362789164   13.76434159623244   12.88858464255744
B   12.98587005402204   14.35166859367962   11.27389475885225
B   11.71282392570521   14.23741111695888   10.17420821642909
B   13.13836543327056   13.45641166934094   9.73916751244099
B   12.12727061190580   10.28991119307571   9.69153661334843
B   10.35183643095977   12.72847664473859   13.83763150865778
B   8.84997112240867   13.78847449279842   11.30254119202745
B   9.03086047354341   13.13508018980210   12.87449586065163
B   10.04037391661633   14.13839134831901   10.11972467399706
B   9.27216625329369   11.50621734501652   13.40220811525836
B   9.28277158488131   9.92318536621857   10.77103074273776
B   10.49744006413549   10.14562168264843   9.57846261206894
B   9.24479401995903   11.24214977434516   9.64731670421049
B   9.56283461348433   10.16471359713234   12.42809413691381
B   8.91279399300227   12.89945033591111   9.77107163305273
B   10.12168550387823   12.55834415141816   11.04057834738520
N   11.27444187400855   7.13313223510252   11.58872432233254
H   12.15040013188821   6.60716671923188   11.55161359555397
H   13.80056449452446   8.45989453415425   10.45917489774581
H   10.49390161771329   6.50578493405082   11.79900274736858
33
F:    ...  E:  -0.313709080000024
W   13.88125062933762   11.71919081888271   13.53780091942169
W   14.66727238328387   12.99923981448261   11.37171714002115
W   13.98111765428210   11.46366424573580   9.46216443607911
W   11.33331582701117   10.67904202119846   13.66296364183343
W   11.24153322743105   9.10776700097335   11.45986257610859
W   10.87488429267758   14.25838484089508   12.28325648428585
W   11.23762347907990   12.24235002849907   9.11045927238996
W   8.13795428945755   11.63315243372782   11.49688735819995
W   12.19405661407908   12.05282873248981   11.53663650425401
B   13.40234757462527   9.58797549712528   10.66918157579540
B   13.10543668970121   9.96189086025046   12.45833425863043
B   14.32316879628991   10.81845013363279   11.57412676550020
B   11.99277662854831   12.88175386260847   13.82422987860933
B   13.10671502641590   13.75618537132829   12.89549483331602
B   12.96034228661076   14.35039340338698   11.28455939166730
B   11.68687484078730   14.23445005087088   10.17995437174453
B   13.11182347517775   13.45867641602405   9.74714875122440
B   12.12211780818801   10.28707009445453   9.69290672899414
B   10.33256808705909   12.71413591285552   13.83983896165812
B   8.82528371950257   13.77318869262215   11.30568328909840
B   9.00655664797955   13.12024351848989   12.87767129971698
B   10.01848924452151   14.12843127604611   10.12502810013054
B   9.25973701396722   11.48767829274810   13.39601887407481
B   9.27552690075080   9.90031105598769   10.76322949193002
B   10.48440411039691   10.12993789797948   9.56814416023982
B   9.23127602345777   11.22583335886484   9.64323110067993
B   9.55065998584610   10.14897525077560   12.41907697094576
B   8.89633655518047   12.88216199823848   9.77508705060137
B   10.10374089368816   12.55140317782598   11.04725833678787
N   11.34661024495493   7.14545541515027   11.63643957457480
H   12.21722882965268   6.63978697038023   11.80516647343377
H   14.01412781258444   8.61041422299071   10.26911956048830
H   10.54826568512756   6.52100061013274   11.75274514521820
