22
F:    ...  E:  0
W   11.62201233570396   12.00033992183507   9.69851897660475
W   8.69216480939138   10.92854513792931   13.60779382798778
W   9.01002204659333   8.92226026047436   9.07049699716232
W   11.85775090346439   8.37157634603721   13.03351497990907
W   11.30333060721053   11.26792636351163   12.51215593993244
W   9.33345385653019   11.19958593831444   10.79829797323637
W   9.43673495972281   8.86985150235289   11.85415376923354
W   11.50353565172414   9.25677522187009   10.36385487640307
W   11.01014461204467   13.48358731068833   11.66211951701368
B   7.60889603616712   10.21192028196419   12.01792732489853
B   10.12704248747021   7.52004484038338   10.12464815137228
B   12.99203044838717   9.75866448827191   12.03305550660041
B   11.07035498746017   7.31385694437475   11.43711550219126
B   12.92573211830638   10.92914457957660   10.94002513260229
B   9.44976199202493   12.60240844834770   12.64370691571530
B   7.71161457781409   9.57430669562662   10.52612580972658
B   10.34080976875103   10.51762165698891   8.84006220478084
B   10.30975790846190   9.60044842365255   13.83333058185650
N   12.13033198193245   13.06439623672713   7.76046551812483
H   12.81466288422837   13.82530930779100   7.81425950690429
H   12.49387253166260   12.36088633896890   7.10748980617412
H   11.27377483491537   13.43833609427994   7.33867352153648
22
F:    ...  E:  0.0254934799999944
W   11.56369860178122   11.96033200918923   9.64114537103257
W   8.66007065489343   10.96499698521302   13.58775659902687
W   8.93513455338851   8.87458112871129   9.09036177037240
W   11.81792716012715   8.39424525218580   13.02779947013905
W   11.25716908052840   11.28286985930635   12.44927625257598
W   9.26445765474436   11.17145561463608   10.76780462557196
W   9.39154404542427   8.86718736277588   11.86535784735803
W   11.44325133622624   9.22204788040610   10.34193227550519
W   10.94680971589084   13.48507566632477   11.56792960563924
B   7.55877110423705   10.21020695350927   12.03024372020071
B   10.06393880231284   7.48413943111819   10.15083288232607
B   12.94140291464171   9.76071741313361   11.98948108483268
B   11.02291148312392   7.30131457996765   11.45562979263658
B   12.86811621217760   10.90481438487731   10.87324185275927
B   9.39924485678653   12.61880237892876   12.57591899154741
B   7.64611186041116   9.53740325950693   10.55178461178566
B   10.26686724963053   10.47601770744836   8.81799962973464
B   10.28026820589995   9.64173715562377   13.81974092428604
N   12.33375276693710   13.09142428122985   7.83927365347876
H   13.20028839837061   13.61332179252130   8.00106623157750
H   12.50642350934579   12.39851596690855   7.10402784362451
H   11.64963217308823   13.75658527644411   7.46918730395590
22
F:    ...  E:  0.111769969999983
W   11.46613150631047   11.92971236137717   9.56627872276380
W   8.64936714322758   11.00099233378945   13.56712716765889
W   8.85843894580983   8.82623829121787   9.10465925480549
W   11.81145451364646   8.43781450002843   12.99930015224979
W   11.22574952191098   11.31967248552269   12.38341732481084
W   9.19890867925409   11.15587666535925   10.74155923437475
W   9.36286789583341   8.86910222804272   11.87053874455592
W   11.38722480088087   9.20921757425678   10.31373211493747
W   10.88307873709947   13.50334518281302   11.47012098140297
B   7.52674899886290   10.21093051495116   12.04169355314779
B   10.01983038935117   7.46363419941000   10.16682032839851
B   12.91047974511844   9.79272315088276   11.92155797136768
B   10.99591887840740   7.30501917791904   11.46453060939691
B   12.80811017600243   10.91260439421776   10.78495947619755
B   9.36019652626627   12.64762533145410   12.51887243087450
B   7.59207668342557   9.50973953156603   10.57426957218599
B   10.17369495499738   10.42668637404319   8.79207717972127
B   10.27958037185575   9.69020814615351   13.79222923043404
N   12.46361128487453   13.07486803904459   7.91614658337833
H   13.38273227212797   13.23721216531457   8.33890908232875
H   12.60228441739973   12.52191605913572   7.03747761427882
H   12.05930589730428   13.97265363346591   7.65151501069751
22
F:    ...  E:  1.17615483
W   11.42883408266814   11.89408582211646   9.57337494152194
W   8.70588097161233   11.02755963991737   13.55956613712712
W   8.88330891773649   8.81941754335524   9.06804215842991
W   11.87996045222705   8.47189404537506   12.96618629865932
W   11.30546640074951   11.38205075997469   12.40990307755110
W   9.25831072320385   11.19384855333860   10.74420397881930
W   9.42320462752631   8.90019437660018   11.84159657400911
W   11.42854673376811   9.23971513125418   10.31237571882277
W   10.93909880683282   13.53855161766163   11.43008820807736
B   7.59983625035895   10.24558973248354   12.00788764678108
B   10.08422962373279   7.49471718836249   10.12618096252698
B   12.98161036308038   9.83589164569941   11.90876302487403
B   11.04111061027439   7.32793606682926   11.44341504365470
B   12.86519269419258   10.95527571646755   10.77908689035571
B   9.45308953038006   12.68924887629531   12.55979023638655
B   7.65673722569246   9.56102861306413   10.53196176502239
B   10.18650395127001   10.35427881021573   8.78170473604159
B   10.35267986281010   9.73544955568269   13.75364627604028
N   12.16630647589955   12.88398315757110   7.79078987079637
H   12.78469925101635   12.94816774979062   8.72977710995853
H   12.78744422290295   12.68850102233148   6.98412767111391
H   11.80574056203171   13.83040671557932   7.71532401339688
22
F:    ...  E:  0.887447939999987
W   11.62382575460746   12.01570183538851   9.40662885368094
W   8.69262230884336   11.01581374022653   13.56210172707104
W   8.89631043104678   8.83278940804257   9.07096644399688
W   11.87326293070119   8.44337768060321   12.99605142196814
W   11.30185523053555   11.30949237562175   12.40311177084504
W   9.27091509096089   11.19526490562158   10.71315119398882
W   9.42997138103218   8.93526367837715   11.84093308127364
W   11.46257551585127   9.27746548896150   10.29345271988848
W   11.00665844051970   13.45338925506642   11.39621712497959
B   7.58652186137880   10.25412653695009   11.99975982910920
B   10.10043547183920   7.51909403172586   10.13277352905977
B   12.98282446054724   9.82857603958989   11.94071082010877
B   11.04794444825123   7.35693653349643   11.44331562481949
B   12.89139447194728   10.94913523363644   10.79027008376948
B   9.48817791594261   12.63507872426244   12.57235551275046
B   7.66058678268821   9.56928430675322   10.53100489575469
B   10.21535797631795   10.37712300006292   8.82709104716423
B   10.33964539456190   9.70152157411234   13.78421564529469
N   11.74995048446161   12.78447194079690   7.49814616208467
H   13.00794937428639   13.20379723503911   9.29254037925376
H   12.59311061087958   12.55531700477543   6.94775814780721
H   11.79589600276662   13.80477181085551   7.57523632529800
22
F:    ...  E:  0.613006979999994
W   11.66359920276174   12.10413307562742   9.44371518600291
W   8.72744613452269   11.00623788278012   13.52895359908209
W   8.97402095614809   8.89109108973816   9.07947876166282
W   11.85090594234327   8.40652513922431   12.97387076409998
W   11.36144206118419   11.41873611114888   12.38634553698644
W   9.28067653678968   11.20398380557415   10.75939193359407
W   9.44724354507839   8.88404391819332   11.82762744456199
W   11.47019217488041   9.25486903965965   10.35797242892431
W   10.95992856769963   13.54594733320405   11.37873897158622
B   7.59296539332185   10.22932241415972   11.99951256977190
B   10.13147693461042   7.48378546184576   10.11665697204625
B   12.98568591891325   9.82212558481738   11.97467813918999
B   11.05302244537478   7.26190490000462   11.43238192056191
B   12.88666709593238   10.93246876946384   10.81554911456265
B   9.50345325670187   12.65193250310466   12.54760891079252
B   7.68345687769799   9.58120360783814   10.52199973037342
B   10.27012618846807   10.47334483043390   8.89464289013867
B   10.36496273774869   9.70758834429759   13.75671196371506
N   11.72844787759322   12.92076289155933   7.62223266124093
H   13.36330829569171   12.76449709433277   9.30445234444407
H   12.54901507807845   12.78967743328772   7.02771268218575
H   11.16974911842621   13.68361110967024   7.26755781444267
22
F:    ...  E:  -0.102785310000002
W   11.56189257383268   12.14002219573391   9.42666455917493
W   8.73640460784189   10.99572862477389   13.55657204332819
W   8.98334642176413   8.92373630754905   9.08124360414007
W   11.86932086482459   8.45181827878197   12.91314701940541
W   11.36773709195120   11.48583302999040   12.34001902347223
W   9.28292355707068   11.22860496089173   10.77833485968576
W   9.49004331251941   8.86794080039654   11.82409797330001
W   11.45474741620304   9.26831892271370   10.33763216426621
W   10.83868928038569   13.59547846818086   11.35033724314056
B   7.62321783254451   10.21454714343013   12.02791531619391
B   10.12591830500532   7.47914107568097   10.09854632123160
B   12.96487109001377   9.90138707247499   11.88282523119718
B   11.06006645967218   7.22337352382631   11.40650402474689
B   12.91207513617449   11.03326430065959   10.70179972584273
B   9.46414841151494   12.66474514589076   12.59605635402262
B   7.70547395181718   9.58442855057219   10.54579472871307
B   10.29925275005596   10.50503110588920   8.89407673756180
B   10.39160719659598   9.73161827432519   13.75568817962421
N   11.74953213525007   13.00978437214159   7.61943801893446
H   13.41868393000263   12.15043397800221   9.67357718750516
H   12.60627071208168   12.91011739280634   7.06567509944578
H   11.11156930284477   13.65243881525376   7.14184692503382
22
F:    ...  E:  -0.710253670000014
W   11.44796752724827   12.13092258928708   9.40243991471416
W   8.77270533866110   11.02170612536991   13.51246446567763
W   8.94867779434779   8.85194888000556   9.09767357900676
W   11.92036859394917   8.47378988193532   12.89943245090796
W   11.29152005487659   11.49130703182997   12.33988909903816
W   9.18621134678940   11.26563420299642   10.76189128884420
W   9.46069745708565   8.81456228115080   11.81359377582457
W   11.32426108743575   9.36154678456560   10.31723442975553
W   10.88245520934218   13.60470341696818   11.33683555359302
B   7.63557686964774   10.19419013546140   12.02164442433584
B   10.15927915388285   7.42482699943562   10.08327672552797
B   12.89612479627411   9.92966701489309   11.83691364061552
B   11.11971649534402   7.28770346671431   11.37583091765773
B   12.86337624103273   11.06658359072594   10.70433897828230
B   9.43134717753532   12.75014283015638   12.54977563820153
B   7.68272545840622   9.52441623513997   10.55860988424329
B   10.09848805991780   10.57329879402176   8.84171191952886
B   10.43332768041369   9.74439235525493   13.70572807039489
N   11.92464131831425   13.06861293747728   7.69132280835515
H   13.42467991160276   11.83892891001931   9.87160775444901
H   12.69129938595416   12.77600917469074   7.07726314658534
H   11.42234538190552   13.82289870186720   7.21831387442750
22
F:    ...  E:  -0.804035560000017
W   11.43207433851062   12.06495021405430   9.37255904602931
W   8.69903845039516   11.05082400752919   13.47243274493851
W   8.90499222505737   8.83464538292854   9.07977534314741
W   11.87392424779857   8.50616014141542   12.92877605280482
W   11.26948543171373   11.40088025520584   12.31370584596094
W   9.10938992902068   11.26309085020788   10.68621026075568
W   9.40461278436550   8.90509182857250   11.79478155550160
W   11.32973273269739   9.38674466331124   10.29553530025023
W   10.95091363520123   13.52414020048697   11.30092090858902
B   7.54600085093542   10.24773318618777   11.96941664390617
B   10.11078993586087   7.46827652067914   10.10331372478525
B   12.91448133712666   9.91437457937005   11.82766932895063
B   11.06532854686886   7.36558081029104   11.40112037348299
B   12.92836511549075   11.06982238106148   10.70407293315289
B   9.43154702724056   12.70316800434422   12.45090392954856
B   7.61313877435190   9.53441558337846   10.52070372139096
B   10.06845156419928   10.53574554017394   8.78355602307815
B   10.34515643914893   9.75635204376763   13.71715105215294
N   12.01524752220074   13.07366703140032   7.76479215663704
H   13.70358007115330   11.74454165291720   10.03666530986507
H   12.67872573437620   12.71796985981484   7.07321774057741
H   11.62281564625397   13.94961760286552   7.42051234446241
22
F:    ...  E:  -0.861393840000005
W   11.44320320723124   12.02191237546200   9.36535059308810
W   8.62999036233835   11.08267329733713   13.41963182720854
W   8.86474555984989   8.85228757733946   9.05537148652479
W   11.82437736603158   8.53402524448872   12.94538758378468
W   11.27216312446972   11.33301581298545   12.27752542414495
W   9.05917679431907   11.25204001438618   10.62845867200080
W   9.33371914944562   8.97187188551723   11.77640965992762
W   11.36505142251821   9.41459373297789   10.28475838997826
W   10.99577083573127   13.47422853297908   11.28101377718336
B   7.45243420774751   10.28245145510845   11.92165627668670
B   10.06137089394177   7.52863492268530   10.09977468304632
B   12.92369456816973   9.88948911336224   11.84211720119005
B   11.00263778244012   7.43845346043088   11.40465767117599
B   13.03511386764995   11.06673499356468   10.70709944265725
B   9.43216715234392   12.67032819514110   12.36721257441883
B   7.53509082496731   9.55646963046811   10.47826812835993
B   10.07097362089758   10.50551044205591   8.75355377413728
B   10.26858850753218   9.77684500786141   13.70237633073932
N   12.04551271727698   13.07757667506541   7.80459160455520
H   14.05932923729362   11.56944195996074   10.29536579336820
H   12.64714638977742   12.71900552736284   7.06136071095249
H   11.69553474799372   14.00020248342670   7.54585073483852
