22
F:    ...  E:  0
W   11.40170843425735   12.02334722976414   8.56418120625530
W   8.78343301413544   11.15065369094892   12.51509926914239
W   8.91329294965337   8.90069973465469   8.19756942724056
W   11.94386828351885   8.58225878416011   11.96737000696387
W   11.17813425446948   11.27790068729596   11.05137644804642
W   8.90055473261831   11.62479349727933   9.63094573339039
W   9.45226743669558   9.05436368315407   10.81524625809122
W   11.54673714389085   9.21652020550802   9.20033321593793
W   10.07682316343914   13.73819993327490   9.75284286771844
B   7.58820337215979   10.32819885698722   11.08175040478813
B   10.09764021744664   7.51102835586315   9.21679797161018
B   13.02066251796920   9.85028195757583   10.78927575826623
B   11.02560997528282   7.41048147470485   10.53183114681585
B   12.90130090007952   10.92860712027688   9.59316925741550
B   9.48924683416078   12.81324414113870   11.48152266076441
B   7.62835629981939   9.68019671613946   9.60600185577068
B   10.08998875449231   10.55470304281172   7.90886081546636
B   10.42013356981018   9.81079568629502   12.71172199415814
N   12.48042215208996   12.49743574469758   12.45220905126833
H   13.09417048398296   13.07631289297676   11.87447457918195
H   11.92172752517502   13.10721708358970   13.05186660829424
H   13.06351032481983   11.88055182086973   13.02334580338008
22
F:    ...  E:  0.0294790100000171
W   11.38238907341433   12.06405832628259   8.61441439401852
W   8.76307390024387   11.13633748162275   12.53752742981039
W   8.88723207184568   8.95985501418579   8.18952411281395
W   11.91765275329912   8.57432171910160   11.95797990225918
W   11.15523682529008   11.26677987057606   11.07614478032937
W   8.87256442018416   11.66378488020055   9.66412946700500
W   9.41369805396930   9.06152883280343   10.80539522052484
W   11.52509595397260   9.25736437815326   9.18712922310032
W   10.05330843620574   13.76485872672097   9.82198418614215
B   7.56069585206291   10.33689602602207   11.09536146389013
B   10.07801570743814   7.55621781605379   9.18313551837021
B   12.99774229569591   9.84924358671402   10.79180637813858
B   11.00219244887895   7.43726805012086   10.50062083825927
B   12.88786530968868   10.94506509085701   9.61152166034678
B   9.48096317996597   12.81183756292540   11.53957307928653
B   7.59500845210463   9.71843137779258   9.60467781878406
B   10.06496342661007   10.61588889328553   7.92787278111512
B   10.38637763012670   9.78389472295297   12.71519749181566
N   12.57004717354021   12.43039852594965   12.41661971468698
H   13.35406714597061   12.63549280643439   11.80065722878278
H   12.18564679134422   13.30852399494181   12.78361305901716
H   12.88395543811502   11.83974465627047   13.19290659146916
22
F:    ...  E:  0.187067710000008
W   11.36959646908193   12.11646116240303   8.66063030146268
W   8.73791758992888   11.12941489496193   12.55703676489878
W   8.89423904195525   9.00550770037050   8.18839157996129
W   11.90308759359660   8.58273908742279   11.96616577164762
W   11.10955280066773   11.26944932154876   11.11491774790762
W   8.85760039219291   11.69377267357260   9.68814101326815
W   9.39473806565725   9.07081812502347   10.79936806505123
W   11.51579302095079   9.29902970351002   9.19250627890279
W   10.03247101578224   13.80007139982762   9.88284016279913
B   7.54636742007093   10.34327685260342   11.10056614167288
B   10.08877509477682   7.58621371055561   9.16734777660677
B   12.98146885842730   9.86045775405893   10.80017044661071
B   11.00353218517870   7.46290642118948   10.49020277131708
B   12.86583948514901   10.97915890313766   9.64412245649045
B   9.44855563717850   12.82440886598577   11.58128032551694
B   7.58546836329583   9.74976596959440   9.59903975226361
B   10.06320625593098   10.67281960125911   7.94862953714225
B   10.35248317997809   9.76154250310905   12.72858483865623
N   12.61838163075603   12.36111579771751   12.39553964031297
H   13.35158948432926   12.08523205497353   11.72843432757108
H   12.49067959814306   13.37422484061156   12.44747904140393
H   12.80644915693887   11.98940499653088   13.33639759850263
22
F:    ...  E:  1.41497941
W   11.36854205322088   12.14753440920258   8.68680575796931
W   8.73557713080499   11.15433662386498   12.53665642038100
W   8.96039084459096   8.98368082837318   8.20473442278749
W   11.93473448174242   8.64306493376524   12.02923980218819
W   11.08880541875345   11.33625716617521   11.21372598588770
W   8.88144374467528   11.67932856238562   9.67503800917621
W   9.42223757421652   9.07450642748968   10.80714344585449
W   11.59082405937711   9.35033648816928   9.27859892439368
W   10.01336317112519   13.83209146240891   9.86022537996659
B   7.56457053899975   10.32842197132811   11.08466941184025
B   10.18127759420409   7.60239603360360   9.20559950811988
B   13.03627469326529   9.93549158775945   10.87384799120072
B   11.07968574228166   7.50276607237821   10.54009933795628
B   12.88712396034255   11.07553031424963   9.72356674055060
B   9.39423369598327   12.87057032966837   11.54750683594373
B   7.61802714501001   9.72998955298372   9.58656972515126
B   10.14050040596576   10.63674718815424   7.97417985574825
B   10.33939396442230   9.76259501093633   12.75279408659187
N   12.43964936762833   12.37425414134490   12.43201931563655
H   13.04600825183348   11.66216395433159   11.26235748246844
H   12.29633683880031   13.37303101027909   12.56692059466983
H   12.99879166272309   11.96269827111505   13.17549330548452
22
F:    ...  E:  0.721769649999999
W   11.33721430854968   12.18383558993441   8.66902029620809
W   8.75988955611948   11.17015888135295   12.51910189706375
W   8.96780857669097   8.97571023805761   8.20411545911390
W   11.94698821322691   8.66119228038281   12.04263571896957
W   11.14686060597356   11.41325308184294   11.30452662078834
W   8.92734664685377   11.65839670765285   9.68082547558321
W   9.44487389252039   9.07831695046444   10.81516103092784
W   11.57266215870156   9.33825763394295   9.28041608155035
W   10.00741077919451   13.86026616039145   9.85043765245325
B   7.57853234454776   10.33059097676550   11.07476082185566
B   10.17455924732807   7.58609887553033   9.23209386125363
B   13.05898057585618   9.88766528198220   10.81194874593834
B   11.09818681829617   7.51502186492036   10.55490497544208
B   12.85119821862754   11.03451101226472   9.64810920511254
B   9.38526565661057   12.88899224096228   11.52325356704546
B   7.63344909036459   9.71303913851811   9.58722205506351
B   10.14754898948204   10.63766140106361   7.95654350140130
B   10.34844091751942   9.76450435234310   12.77047666564039
N   12.20056405710394   12.46621218963404   12.63712196479310
H   13.38253929964279   11.35759894669595   10.80694328149223
H   12.10799371100367   13.45387200295039   12.84666466312679
H   12.93947867575277   12.04263653231393   13.20150879914342
22
F:    ...  E:  0.804999260000017
W   11.36094863686478   12.19128633946736   8.61217320924680
W   8.78387278137562   11.17115666658486   12.53470213041039
W   8.93519578679262   8.98309979640940   8.18939761291072
W   11.93464191479925   8.59303656686437   11.97298204135677
W   11.20113211351440   11.48137711595430   11.27129891548214
W   8.94554683678354   11.65173180487069   9.69387803545494
W   9.45979862682110   9.08551827680830   10.81091122605307
W   11.53010702247984   9.30799579389667   9.31698807515670
W   10.04462328219783   13.83797876101636   9.84613009720460
B   7.59770841835248   10.34673460399828   11.08559087194489
B   10.11264150241557   7.55729184424324   9.19766976360721
B   13.05043237321221   9.90365557281941   10.79416827157029
B   11.04128659684283   7.42818739166291   10.51996955004558
B   12.82205794949791   11.04430490068798   9.58428605918260
B   9.40815924525493   12.88197753238148   11.53120737413901
B   7.63003695646735   9.72541541207333   9.59732407865967
B   10.13878371937842   10.63374336926469   7.95880778617525
B   10.40927848117248   9.79599780583360   12.70694138609267
N   12.21811320505534   12.59315443877610   12.58609634526168
H   13.39528527734100   11.04333232509376   11.18901854540337
H   11.95813512205964   13.51406493324914   12.92365946927683
H   13.04000649128758   12.24675108801099   13.09459149533156
22
F:    ...  E:  0.641930510000009
W   11.32774267112812   12.22588372847472   8.55646440935572
W   8.79835424431905   11.17766104845404   12.54221127637103
W   8.91831156720942   8.99106959686446   8.19084240045912
W   11.94722841029388   8.58940762077295   11.90269722330885
W   11.17970665444617   11.52029201258962   11.21242167651615
W   8.91373755526307   11.66621247740556   9.70183560456980
W   9.46270338069046   9.10034594585299   10.80272045204949
W   11.53300341693784   9.30323614965975   9.35946990766299
W   10.01701214982839   13.85369127564529   9.83662269108707
B   7.59679060880689   10.35713505651204   11.09860675331590
B   10.09168929594422   7.56198072464063   9.17638038838881
B   13.06673640790811   10.02922845408963   10.76928988228093
B   11.00266983607093   7.39200689298826   10.50946641799028
B   12.76273982077108   11.09539228588111   9.53267652522375
B   9.38814500348779   12.90884433871091   11.53155419552015
B   7.61643449111580   9.74060885291859   9.60715283292893
B   10.12258983137019   10.63439146580981   7.98848513829840
B   10.43490794475983   9.80452331421690   12.66842823406281
N   12.23362893430332   12.61057432280803   12.50483841994803
H   13.56379548240490   10.68706247398013   11.65899021089139
H   11.96365802059660   13.50791639683168   12.89422352508966
H   13.07620661231079   12.26032790486035   12.97241417464743
22
F:    ...  E:  0.263727680000017
W   11.34213741399717   12.26895475972208   8.52660049733114
W   8.76884479598712   11.18523448310768   12.53864841857589
W   8.92488742034097   9.01433211502602   8.19665334431874
W   11.95766897803920   8.65534813385699   11.89827887123552
W   11.16680403205280   11.55229046897047   11.19812077968250
W   8.90273334532538   11.67898373842965   9.70643132832444
W   9.46524445223119   9.08286619605355   10.81656542286872
W   11.46132903854175   9.35238116277523   9.36414222705158
W   9.99416807396927   13.85100317099466   9.84064993301274
B   7.57534519856679   10.36562690410260   11.09485953058703
B   10.09715233629984   7.56420258272222   9.17196551681163
B   13.01771438872402   10.12768649968594   10.76077422884893
B   11.00903321420972   7.40251040586916   10.51781678335558
B   12.74986381668143   11.18961065131588   9.56664780426880
B   9.36033079015304   12.92261271625144   11.54317912499327
B   7.61420164242460   9.72492771351116   9.61771081211709
B   10.08930294507825   10.70346601525028   7.97818119857378
B   10.41707954854134   9.83645436027505   12.67848639838111
N   12.26013339413705   12.61771880854613   12.47073115774542
H   13.68563508924948   10.13322172735505   11.79608365373414
H   12.00589754003326   13.50711631274696   12.89208261664208
H   13.15228488538331   12.28124341339934   12.84318269150670
22
F:    ...  E:  0.105743860000018
W   11.32482868355183   12.23806544355065   8.49775232118306
W   8.74008714353065   11.16793542834467   12.60042066355659
W   8.91054123543018   9.02490825909469   8.14420125526445
W   11.95386357743499   8.74028886620184   11.93957521672366
W   11.20679213526548   11.58004754334922   11.25346885363774
W   8.99185342928485   11.63575739046128   9.67355606296673
W   9.47127719995820   9.07830936600862   10.83961466639164
W   11.36902558580991   9.39961747155435   9.24288762867905
W   10.05933577183618   13.82085401940851   9.94793163293404
B   7.60499970203920   10.39434340904505   11.08563768956022
B   10.03891967983365   7.59703049669429   9.21512353347383
B   12.95597833756512   10.11533940285679   10.77900301820681
B   11.05823722221758   7.51965108165349   10.49008897345526
B   12.71140035563688   11.17178111673784   9.59614301243507
B   9.31682379865824   12.86515147442024   11.58628597305015
B   7.66177649276067   9.72961026350589   9.62191041529991
B   10.04659633852547   10.73008089025297   7.81036541730531
B   10.37519089929960   9.86069957233766   12.72012839930104
N   12.26993078888745   12.67385481691118   12.51291310054040
H   13.72210829163515   9.73876853217221   11.72325548649785
H   12.02272774781886   13.55838439172116   12.94498632283405
H   13.20549792298612   12.37731310368594   12.79254269666976
22
F:    ...  E:  0.0217411200000015
W   11.36732017797459   12.24027226193071   8.53835241133562
W   8.72962935763149   11.16420858200928   12.63623876673448
W   8.87479263547981   9.08993349889673   8.12167897683587
W   11.88549176398752   8.68925401156289   11.92160379270727
W   11.25968413636228   11.58363813532321   11.31036955157695
W   9.05152966508496   11.64297715834465   9.71773200917596
W   9.43896423413383   9.07696330156747   10.84766260928127
W   11.31059028153570   9.41214273318997   9.22308646316357
W   10.15653441146236   13.81812373982683   10.03816309966527
B   7.60629387528407   10.42907836639186   11.09663124514890
B   9.97071644977932   7.62099573890009   9.17635383641829
B   12.93089510291086   10.03773113416855   10.77697042365342
B   11.00802091356319   7.50768974337948   10.42991993945660
B   12.72564124878873   11.13927902931674   9.63234568319689
B   9.34438933042441   12.85281159359612   11.64158453954168
B   7.65747067871732   9.78303102678241   9.62613121705442
B   10.04785826575577   10.78258438265393   7.80902891875475
B   10.34543442080069   9.84649293836186   12.74249823414127
N   12.28951885125084   12.75182203382681   12.53774095329057
H   13.74514388547247   9.36324632495784   11.49433926049031
H   12.01517320276573   13.65202374882394   12.92370738998255
H   13.25669945080113   12.53349285615536   12.77565301836085
