33
F:    ...  E:  0
W   13.46964656635994   11.36997393241237   13.91820099217778
W   14.10619979819302   12.76722692812891   11.78971747697878
W   13.52392184364661   11.27930868333259   9.82028688747549
W   10.97607480753086   10.07064185839524   14.03007824569711
W   11.01352746024889   8.80032200433447   11.79927529866030
W   10.27313684063560   13.68908041102683   12.81074086448550
W   10.71036925858019   11.95232167927910   9.50670178089677
W   7.71064403776758   10.94169806596063   11.93460103795011
W   11.72768509267426   11.54838811131059   11.93235428007308
B   12.97372352117167   9.50298625411899   11.07354428863992
B   12.88494499066877   9.56041575060569   12.83620945583374
B   14.03348371242112   10.54593048879510   11.92544779711968
B   11.49464312863965   12.32793063884820   14.26242150518337
B   12.50920693009868   13.31862585876936   13.34561639826440
B   12.30527218495297   14.00475202419367   11.79496390710490
B   11.03485300998827   13.83074260301648   10.69111563110723
B   12.51534813367801   13.19356369932810   10.22022625367033
B   11.76992596699139   9.98114280498379   9.99227914367818
B   9.85039094540366   12.05008307861019   14.27669370383128
B   8.23499404781796   13.12419513788749   11.83962664128342
B   8.47742229999853   12.40962726385918   13.37989442623489
B   9.38204776023199   13.62411708634436   10.64980653329745
B   8.83317184267127   10.77041385684417   13.83167277544220
B   8.95342055140776   9.35090286009448   11.12755606249027
B   10.14508870090963   9.75720991079052   9.96164615803993
B   8.80040465564872   10.72914659553524   10.04780613929180
B   9.15062583946425   9.46414492704750   12.82060893355344
B   8.32270394916565   12.33506352704686   10.26436092713249
B   9.58827937329272   11.98891097704111   11.49481535076604
N   15.20550695929956   10.62057704204818   8.43142210778377
H   16.07818051528786   11.03278075258009   8.77669187063133
H   15.32710295670171   9.60364453152163   8.42541147986357
H   15.08947559610552   10.92555393356281   7.45962892301588
33
F:    ...  E:  0.0416883599999949
W   13.48070650870295   11.41186143890802   13.91851510280474
W   14.12627749040008   12.78235331736390   11.76957189594080
W   13.51389233580148   11.28222448554493   9.82691951053665
W   10.98140863737756   10.13106744720895   14.04459191413403
W   11.01644136036335   8.82093292453675   11.83354154579141
W   10.29889046153221   13.73595562769988   12.76217436497728
W   10.73892116476800   11.94324944318769   9.48959382908448
W   7.72732088496937   10.98471447458231   11.92001586974716
W   11.74228730268971   11.57282219682766   11.93181698224235
B   12.98031563658127   9.50489056833988   11.10042270246790
B   12.88743239873231   9.58985831885376   12.86194602931042
B   14.03791973964438   10.56278161916238   11.93698326141477
B   11.51366734015700   12.39255589106755   14.24549909723736
B   12.53476812033380   13.36107223720625   13.31410964441304
B   12.33288317829445   14.02773624102340   11.75465397540152
B   11.06257448898958   13.84808758136531   10.64420834855038
B   12.53758495267575   13.20375334442224   10.19144320357304
B   11.77697947516907   9.96791596711264   10.01308588955994
B   9.86922258370908   12.11889269342412   14.24771642201494
B   8.26084846053335   13.16292345471031   11.78903345692341
B   8.50123437820499   12.47171205548380   13.34010134092524
B   9.41424930756957   13.64025788380944   10.59779766751235
B   8.84468788076233   10.83899883144980   13.82218381251150
B   8.96068710472981   9.37072276765341   11.14660890677568
B   10.15538473933965   9.74615148062940   9.97440641510984
B   8.82122790936398   10.73203845229021   10.04130096740265
B   9.15587414931145   9.51139639733355   12.83823250454570
B   8.35561378885999   12.34482051083131   10.22775193161602
B   9.61199596137710   12.01873945552228   11.47051719732950
N   15.11088698933357   10.46618641683366   8.48343208356152
H   15.98581282825852   10.98067163900546   8.60384934209066
H   15.22269055136204   9.51664481160716   8.84981874488823
H   14.91073516775567   10.42743330265654   7.47957931725946
33
F:    ...  E:  0.61667700000001
W   13.48793693012223   11.38542580162453   13.92735153556701
W   14.14081998663369   12.73180217891957   11.77696253200409
W   13.48819891118979   11.25485231189393   9.83072811194350
W   10.96000107522471   10.13875351019928   14.07726284689648
W   10.98546259388407   8.79972230115423   11.87325599742330
W   10.33573742075937   13.73465615036554   12.73339993256389
W   10.76287787831136   11.89519580956645   9.48584175756422
W   7.73241866512447   11.01009544536661   11.91106110170560
W   11.74363419730433   11.52463773062460   11.95531640042529
B   12.97207414287564   9.45145566320272   11.11997755783607
B   12.86498632166829   9.55987964732313   12.89665740874714
B   14.02061636698770   10.50274480677079   11.95792342605034
B   11.52858063536568   12.39312048133504   14.22905627381006
B   12.56478099506700   13.34364381070296   13.29639890414069
B   12.36418382200836   13.99254856758234   11.73810484640773
B   11.09658732718099   13.81758755585572   10.61673480096332
B   12.56041976809800   13.18324946453359   10.17311634224978
B   11.76297021227579   9.90178751551826   10.04448435433412
B   9.87914358316270   12.14526245095692   14.24262158245471
B   8.30573944034536   13.17518141830945   11.74920350143148
B   8.52998277930514   12.50925685657491   13.31015486173525
B   9.45977889403456   13.61353022773350   10.54732252751507
B   8.83434524050899   10.87939038621610   13.82964973007798
B   8.94333568184722   9.37503677633353   11.16602293852926
B   10.14128580878827   9.69613597361756   9.97556039414926
B   8.82396038485865   10.70567830350579   10.02351462618350
B   9.14458618034658   9.54150008876758   12.85710474553707
B   8.38427984871579   12.32525598860468   10.20129161305469
B   9.63631074355091   12.00559716384355   11.45169764432970
N   15.08421448828559   10.69894682305482   8.39083027201722
H   16.05556666150201   10.97056742545576   8.52747013250152
H   14.91226713987551   9.90178250609986   9.08256035177262
H   14.96433915244559   10.30714213604154   7.47278422573221
33
F:    ...  E:  1.05697019999999
W   13.48289492514169   11.38555954034924   13.92926024802995
W   14.15111556059130   12.74422737351905   11.74879447242614
W   13.63704688908352   11.14182504453618   9.76877222513525
W   10.97678790269454   10.13231176681299   14.06233048569268
W   11.00264347269328   8.78772319929485   11.84361779712062
W   10.32497381243367   13.72768125266552   12.74848313838090
W   10.77756697585675   11.88202903001391   9.48854240173288
W   7.73058476791740   11.00119168992371   11.91672960789734
W   11.76200216514810   11.55509731278143   11.91254241095223
B   12.99468789842833   9.45820141575367   11.08339948134006
B   12.87807788219455   9.56987926627103   12.85525984084906
B   13.99499953575122   10.55543894432527   11.93837977695849
B   11.52003006731646   12.38060310443939   14.20796279360860
B   12.57833119246390   13.34673278104581   13.30703112434812
B   12.34177426174968   13.98006616558353   11.73979761078676
B   11.09713287780041   13.82001016626860   10.62143722026246
B   12.57948596067047   13.17739525026002   10.18497922437864
B   11.76615650804253   9.94444915527549   10.04793825366162
B   9.87428326964273   12.12947649070840   14.25676781064090
B   8.30734999009815   13.16996429427000   11.75501715194171
B   8.53414172829320   12.49819815790602   13.31753219971127
B   9.45367038325219   13.61134239326702   10.55031808779935
B   8.84426878536788   10.86635322319353   13.83290548938948
B   8.96530454271901   9.38026108448345   11.15745528211088
B   10.14561982748657   9.70473193699738   9.94823578483789
B   8.82467761711047   10.70824964415532   10.02576903592295
B   9.17996999215615   9.54857017986380   12.84248569811644
B   8.38972579439145   12.32792003260917   10.20373848584724
B   9.63890087566203   12.00024255698504   11.44965589248819
N   15.08693653499959   11.01597208935725   8.24149043486558
H   16.06860251783746   10.91061584756708   8.55367621490851
H   14.58509038946009   9.73750545998261   9.39293662705684
H   14.97658837319898   10.27159742718814   7.53818096845487
33
F:    ...  E:  0.476858719999996
W   13.48370248692096   11.35090128738140   13.93956205351518
W   14.16682497631698   12.69007149039802   11.72990278351236
W   13.69690456292303   11.04401286834553   9.73975915287970
W   10.95958642038522   10.11170938923709   14.06965226632939
W   10.98899277524796   8.77800270588959   11.85317179723359
W   10.34351050807569   13.70195945164171   12.74570300740623
W   10.79479982559458   11.85434888065424   9.47482696993191
W   7.73058431424274   10.99751344432699   11.91448059616625
W   11.77023028049474   11.52755597335164   11.90044259749493
B   12.95510490962463   9.43567051635229   11.10818107671117
B   12.85144397311037   9.55448803146205   12.86569448516593
B   13.98104858781659   10.52485344969545   11.94022238349166
B   11.52090562256245   12.33918681490008   14.19148373265870
B   12.59587959318452   13.30206537229205   13.29537086799286
B   12.36573060073096   13.93252408139386   11.72673776169103
B   11.11887008397888   13.77769744930226   10.62126757368356
B   12.60517726061834   13.12794872948845   10.18355466295604
B   11.77720681012346   9.91396528388985   10.01409099984924
B   9.86996826688872   12.11398698635523   14.26750962409776
B   8.33674133408352   13.14875321203144   11.76769680267936
B   8.52851635223440   12.48892504283633   13.33843285942911
B   9.47316775238314   13.59539169744321   10.55489667817182
B   8.82414665478690   10.85837713645779   13.84376262075633
B   8.96042953572976   9.37420552243871   11.15870617984820
B   10.15046444194991   9.68704800233509   9.95981046540400
B   8.83521906394987   10.70431089228839   10.02387440724095
B   9.14989130926058   9.53667816608821   12.84775065128790
B   8.40009676255238   12.32287879481038   10.20385223720452
B   9.65336426204013   11.96904539295850   11.43855251543190
N   15.05838465724479   11.29757674200807   8.25350177509092
H   16.04541958949455   11.31014516331069   8.56144931597785
H   14.46281006245255   9.52592931930473   9.42222489286181
H   15.01629964065055   10.57369598698478   7.51529748350182
33
F:    ...  E:  0.138363450000014
W   13.50107921578073   11.36069156147819   13.93520472975294
W   14.18199192219620   12.70859970974940   11.73204442851554
W   13.68458233480995   11.13402316385544   9.74231893666806
W   10.97883024433429   10.09934022266761   14.05666729406214
W   11.01066931832473   8.78803538283335   11.81104955620818
W   10.35435877944362   13.69086508297163   12.74447015944045
W   10.77429808572027   11.87331008653965   9.46558210834963
W   7.74098004788753   10.98650332425545   11.91149772896178
W   11.77651111192047   11.51728672888428   11.89891140962625
B   13.01399488416817   9.46491960689309   11.03360875365548
B   12.87188695954747   9.55375640723306   12.86178603045117
B   13.99013547741433   10.54240690151839   11.96743974957577
B   11.53484998485528   12.32932565354216   14.17837068856792
B   12.60630619791008   13.30559993402057   13.29253551575686
B   12.37205589025083   13.93168136652391   11.73011276994945
B   11.12382487233287   13.78283250194598   10.61358911519423
B   12.60083386510019   13.12107453622740   10.18140074963344
B   11.75435549733007   9.97608240130320   10.01916715632747
B   9.88680263893850   12.09556719700243   14.26329464430173
B   8.33929633447280   13.13543904617879   11.77632450374950
B   8.54395022532365   12.46690709482419   13.33901566667506
B   9.47639497177804   13.59774747876967   10.56493734416962
B   8.85612925996595   10.83250761963244   13.82514989462160
B   8.96967645556655   9.36419052501032   11.13083792064178
B   10.13943402543366   9.68770813636730   9.91343022686724
B   8.82848584248408   10.70708354637372   10.01045781600073
B   9.18191753442517   9.52007726223373   12.82024663079828
B   8.40393015854985   12.32844998046885   10.20742123113127
B   9.66478571706128   11.96743093915609   11.43693272969960
N   15.05131725934161   11.23179167328627   8.25725243489751
H   16.02313662637250   11.50220755957571   8.46194215403462
H   14.13667197885161   9.37882334547958   9.73562893612492
H   15.09794955976127   10.48915730085232   7.55279426324438
33
F:    ...  E:  -0.430135829999983
W   13.50947922597370   11.36647923062686   13.90363078578890
W   14.16191877318937   12.76297585433007   11.73077520290278
W   13.67925483356662   11.24734080005351   9.73952840666711
W   11.03128890778921   10.07908386648247   14.01039346008326
W   11.05031900490494   8.80885666596923   11.74189734756906
W   10.33537360554427   13.68458950750721   12.76389520102690
W   10.74301023293400   11.93205119696564   9.46841555295443
W   7.74824227865867   10.95288516287976   11.91064030563011
W   11.76404224001655   11.54878694082781   11.89282126734749
B   13.10399292543798   9.42783041327147   10.93252545407128
B   12.92232702202360   9.56990558526754   12.78162193729738
B   14.01606370948730   10.59634279454621   11.93180848468387
B   11.54684873111343   12.32546181422114   14.19789261313697
B   12.58834591592765   13.32191297428923   13.29874901496109
B   12.35935683693603   13.98004661460373   11.74049575709655
B   11.09738310760074   13.81259368800732   10.62597864169389
B   12.57612120367124   13.14654633422664   10.17377061651755
B   11.76539959754984   10.05846727329988   10.02266046886587
B   9.90415433999603   12.06139592567791   14.25919502843480
B   8.30432976188672   13.12002063233329   11.80099310642650
B   8.54598118716174   12.42313834698460   13.34601477597435
B   9.44029584683660   13.62343989190597   10.59902780779389
B   8.89633437777991   10.78973487085434   13.80289666955676
B   8.99276280506518   9.34998556342127   11.09399290944970
B   10.15863112965656   9.72873262612079   9.87900425465973
B   8.82666105919626   10.71963227986673   10.00926410797029
B   9.23069694018118   9.49400502833427   12.78227826237934
B   8.38264291360547   12.33665979117777   10.22066403858487
B   9.64561754936470   11.98237035447981   11.44494398062840
N   15.08411814078684   11.17168672013472   8.31603780540124
H   16.05496364100175   11.46547075583529   8.45347064744122
H   13.94850713686652   9.08810145556362   10.04214282643434
H   15.05695829594315   10.49489231758830   7.55399653822491
33
F:    ...  E:  -0.812947359999981
W   13.51848192185670   11.38502012474063   13.88193935269814
W   14.16034143216446   12.77643311142555   11.72852925470254
W   13.65807123623414   11.28063116169663   9.72335651515240
W   11.03279636720274   10.11655306695843   14.00730494479711
W   11.05911718742339   8.81949498689985   11.76433009977573
W   10.32729396813085   13.71648460724660   12.74689592988920
W   10.76033915796994   11.94013148835465   9.47007150451782
W   7.75553619131859   10.96864457854138   11.90097603588819
W   11.75417497728588   11.58991100744651   11.89673742570241
B   13.16055084745206   9.37651773731823   10.92369737507321
B   12.92638101425611   9.59996304344451   12.77468602584940
B   14.01562275459097   10.60280546263073   11.88876973574557
B   11.55168409913550   12.36740356943087   14.20426534992275
B   12.58099464279969   13.34876931585903   13.28718247396242
B   12.36967154488731   14.00844776945869   11.72402768964672
B   11.09437081580732   13.82896873176324   10.61598978238480
B   12.57044265569289   13.17608133094920   10.16427576170337
B   11.81625627436150   10.04455058922763   10.03235762122174
B   9.90564217399099   12.09722153686345   14.24466318721364
B   8.29810187910289   13.14762819760866   11.77959355058203
B   8.54520541205560   12.45574199999129   13.32636243471158
B   9.44016023075883   13.63619609708381   10.58163794052303
B   8.89780615076482   10.82084432216928   13.79537886734154
B   9.01435770564183   9.36124348413542   11.09984279831072
B   10.19430671415048   9.74724771303073   9.91622462892260
B   8.84757043579154   10.72666507932664   10.01260278960510
B   9.24196940674021   9.51681275303836   12.78801411909101
B   8.38703241277447   12.33771062941628   10.20661463496341
B   9.63871658489633   12.00889026020943   11.44026867391977
N   15.04976846494875   11.08810908027973   8.33012252148954
H   15.99007674625195   11.47132999402390   8.37249279937565
H   13.93976373190869   8.65406930722938   10.30285194527070
H   14.96881813930637   10.45490113985570   7.53935950770045
33
F:    ...  E:  -0.917151209999986
W   13.52016914333074   11.41469828154013   13.89097708898171
W   14.18132942678672   12.74610025230073   11.71959842678673
W   13.66101897427487   11.22077722156433   9.73516523509301
W   11.01177351805033   10.17532781551919   14.03482027333526
W   11.04338956281794   8.82610484885997   11.82754166795979
W   10.34983231360073   13.75800226836443   12.69871931002238
W   10.78992264251965   11.90235723403629   9.46466483068957
W   7.75900574478668   11.01557383474027   11.88675982412587
W   11.76113260544083   11.59813991049026   11.89958688953442
B   13.15968750105180   9.31784754406492   10.99340638284216
B   12.90577024339558   9.61712410067053   12.82787917429446
B   14.01365186501705   10.57027440070681   11.90799382329690
B   11.55615371075683   12.42287849861671   14.19027559048148
B   12.59709610939235   13.37552137685810   13.25973326649894
B   12.40683160123649   14.00253695152353   11.67994346316415
B   11.13256281311569   13.81468769644281   10.57359059786382
B   12.60278579607651   13.13395621683347   10.14441587913943
B   11.84123711432696   9.98758045040521   10.07335282060542
B   9.90622533923006   12.16903896593913   14.22263700408884
B   8.31977400149630   13.18924425707675   11.72675885508198
B   8.55389771164327   12.52456940493159   13.28730075156325
B   9.47563295056374   13.63924672140858   10.53020556778200
B   8.88556399978836   10.89536468847587   13.79344885155935
B   9.01195817597308   9.38018936752852   11.13281872944418
B   10.21222759829804   9.73241769379074   9.96288206446904
B   8.86491811632298   10.72245027579845   10.01297342613609
B   9.22334267348528   9.56636051744526   12.81757782965028
B   8.41878720602774   12.33895976296219   10.17242576432806
B   9.65323287972192   12.03243483184858   11.42585216126991
N   14.99186966728479   11.04204255502633   8.28811752205210
H   15.86411340826251   11.55360869678909   8.22455496874878
H   13.87826581605112   8.41512577934292   10.53470293138637
H   14.91826304752553   10.37088085575410   7.53074230537750
33
F:    ...  E:  -0.945147219999996
W   13.51970044762967   11.44436814402764   13.90728346905956
W   14.20895061582135   12.70015213940216   11.71238984470661
W   13.67545467932001   11.13856647516839   9.75693944836187
W   10.98768738150404   10.23563986884217   14.07093799574235
W   11.01030987743112   8.83671182068856   11.89954615830886
W   10.38728822142290   13.79035430418064   12.64080918104551
W   10.81279470274852   11.84664388196424   9.45556393408901
W   7.75978961915083   11.06864711655798   11.87712764049119
W   11.77457118242160   11.59247360806325   11.90172765385470
B   13.14051015207318   9.25533718331770   11.07478820284548
B   12.88058604483169   9.62842496533700   12.89502887966077
B   14.01359951208966   10.53308774571691   11.95192162490574
B   11.56117203030028   12.47726191127561   14.16900114948382
B   12.62194101787062   13.39436656635098   13.22391842738734
B   12.45206496174344   13.97797213207899   11.62568340570130
B   11.18403771401766   13.77714642094061   10.51833743229023
B   12.64621263455023   13.06088451479865   10.11459046869611
B   11.83699901208164   9.93559437370013   10.11585857289707
B   9.90792618968232   12.24730325599525   14.20386373513758
B   8.35146741584755   13.22992519222842   11.66877909106122
B   8.56953912725845   12.59507147361996   13.24446799526342
B   9.52587601380738   13.62899790706706   10.47209960370871
B   8.87215846323126   10.97593322944652   13.79706733835824
B   8.99485378488003   9.39489719150714   11.17280963056264
B   10.20961959425613   9.70176182002890   10.00499523465484
B   8.87403682334071   10.70735359673921   10.01856569881985
B   9.19601038513260   9.62031696766943   12.85385277052124
B   8.45146863182550   12.33715548060197   10.13956215791534
B   9.67345058191242   12.04636747649946   11.40903804550302
N   14.94797893780787   11.03073945574840   8.25600521240274
H   15.72096455140214   11.67209333113145   8.07968573967781
H   13.77050380645832   8.27121926285162   10.71964859097868
H   14.93189916380294   10.31865446410783   7.51952894356143
