33
F:    ...  E:  0
W   13.46964656635994   11.36997393241237   13.91820099217778
W   14.10619979819302   12.76722692812891   11.78971747697878
W   13.52392184364661   11.27930868333259   9.82028688747549
W   10.97607480753086   10.07064185839524   14.03007824569711
W   11.01352746024889   8.80032200433447   11.79927529866030
W   10.27313684063560   13.68908041102683   12.81074086448550
W   10.71036925858019   11.95232167927910   9.50670178089677
W   7.71064403776758   10.94169806596063   11.93460103795011
W   11.72768509267426   11.54838811131059   11.93235428007308
B   12.97372352117167   9.50298625411899   11.07354428863992
B   12.88494499066877   9.56041575060569   12.83620945583374
B   14.03348371242112   10.54593048879510   11.92544779711968
B   11.49464312863965   12.32793063884820   14.26242150518337
B   12.50920693009868   13.31862585876936   13.34561639826440
B   12.30527218495297   14.00475202419367   11.79496390710490
B   11.03485300998827   13.83074260301648   10.69111563110723
B   12.51534813367801   13.19356369932810   10.22022625367033
B   11.76992596699139   9.98114280498379   9.99227914367818
B   9.85039094540366   12.05008307861019   14.27669370383128
B   8.23499404781796   13.12419513788749   11.83962664128342
B   8.47742229999853   12.40962726385918   13.37989442623489
B   9.38204776023199   13.62411708634436   10.64980653329745
B   8.83317184267127   10.77041385684417   13.83167277544220
B   8.95342055140776   9.35090286009448   11.12755606249027
B   10.14508870090963   9.75720991079052   9.96164615803993
B   8.80040465564872   10.72914659553524   10.04780613929180
B   9.15062583946425   9.46414492704750   12.82060893355344
B   8.32270394916565   12.33506352704686   10.26436092713249
B   9.58827937329272   11.98891097704111   11.49481535076604
N   15.20550695929956   10.62057704204818   8.43142210778377
H   16.07818051528786   11.03278075258009   8.77669187063133
H   15.32710295670171   9.60364453152163   8.42541147986357
H   15.08947559610552   10.92555393356281   7.45962892301588
33
F:    ...  E:  0.0601047800000174
W   13.45824503867101   11.33958403466621   13.97566954505789
W   14.13066527501729   12.70098423349056   11.85179795457029
W   13.55847345381923   11.20251336867748   9.86687983692943
W   10.95472487437278   10.05562075228821   14.07543288757692
W   11.01188056161760   8.75896251461726   11.86280234225174
W   10.28710401669135   13.66618000543890   12.81014162587533
W   10.75440603544046   11.89145848371671   9.53023760954699
W   7.71725971056402   10.92396719300577   11.93161791300903
W   11.73041452089770   11.51349985331338   11.98975665256261
B   12.98510736073745   9.44133715633034   11.15233115959871
B   12.87306184366325   9.52258353463039   12.91365387603244
B   14.04010176252977   10.48534461819696   11.99752163255896
B   11.48364883756622   12.31656287720419   14.30194444561165
B   12.51598062814911   13.29069621053415   13.38438615227174
B   12.33603600994473   13.94854247966057   11.81720651617652
B   11.07801365097184   13.77488859526373   10.69937047224720
B   12.55741585855058   13.12488946164307   10.25241459532407
B   11.79491088209993   9.91709500760551   10.05942312662488
B   9.83633329784170   12.04354994671051   14.28285020020918
B   8.25453599388740   13.10307883812663   11.81870182976077
B   8.47407549171300   12.40169442463093   13.36874665794980
B   9.42660293074509   13.58497454482488   10.63816861399221
B   8.81344418083733   10.76502273809403   13.84173439512341
B   8.96586461509995   9.31608923805814   11.15883255003458
B   10.17246274774066   9.70474433939663   10.00805132911990
B   8.83872134945296   10.68735662718625   10.06578307857924
B   9.13785780465314   9.44468634414926   12.85373963664972
B   8.36147266374355   12.29927652646391   10.25107827293638
B   9.60512572606695   11.95658661267082   11.50289287789422
N   15.10753202194261   10.86936917496374   8.25110544902940
H   16.03794637155204   11.13739772050192   8.64799349184223
H   15.19576676536462   9.87856622955109   7.93676703121112
H   14.97623099571050   11.40431959204184   7.37238951949554
33
F:    ...  E:  0.124449990000016
W   13.45369024600146   11.30896624960919   14.01272821429104
W   14.15941840060288   12.63163275349782   11.89161496656885
W   13.61099967521122   11.10553707429190   9.93008119829932
W   10.94495999604772   10.04213104177261   14.09977679404173
W   11.00800506928074   8.71483270430295   11.90295305236253
W   10.31393592082649   13.65041920956427   12.79095403456645
W   10.79592033067483   11.82610003240040   9.53488257972939
W   7.73355966116657   10.91639991965083   11.92352181232727
W   11.74338688408966   11.47391045033241   12.01383630134601
B   12.99095320719569   9.36852953549998   11.21315287601499
B   12.86122606327366   9.47376337904396   12.96986602652134
B   14.05040499578481   10.41470292849389   12.05837700516291
B   11.48955137117260   12.30916779053830   14.31060509554584
B   12.53293323656325   13.26544850789958   13.38798552245551
B   12.37292212869251   13.89464279927141   11.80718295509542
B   11.12356389070719   13.72316516583891   10.67865076471080
B   12.60857213156113   13.04498667743209   10.25670752508106
B   11.82380635921485   9.85552975559235   10.10218256717057
B   9.84221136349940   12.04547911639117   14.27536781339620
B   8.28411180352334   13.09007046290846   11.79333429542749
B   8.48531730508376   12.40526794655023   13.35398605561550
B   9.47038619279152   13.55266398644643   10.61317091671522
B   8.81495450377197   10.76827077142448   13.83876669157152
B   8.97555301182447   9.28679128330023   11.17471046130304
B   10.19247708364414   9.65924945244756   10.03637684590307
B   8.86965071304658   10.65130706061680   10.07240522811262
B   9.13773665682054   9.43462238568804   12.86812480558801
B   8.40216338033957   12.26755470933241   10.23349318609584
B   9.62976957894012   11.93399072588272   11.49744132100798
N   15.06286845392848   11.03835534510207   8.19182552400847
H   16.02120908205297   11.27198180963248   8.38957375638472
H   15.03247525350278   10.23210321973737   7.59066422245714
H   14.63272932682032   11.81384902716160   7.65712286277576
33
F:    ...  E:  0.947466259999999
W   13.48175347016342   11.33209356691150   13.93750769563012
W   14.14138838305457   12.68215684195481   11.81814968075502
W   13.66355058551383   11.20598544510155   9.73475913433960
W   10.98066408310360   10.04733909353472   14.05544741394218
W   11.02085361751175   8.74677590368554   11.82510465269249
W   10.31373446131801   13.66907002847871   12.78157275240741
W   10.76067673191673   11.88762011419894   9.50584330418408
W   7.73944739442264   10.92922124870111   11.93141287613566
W   11.75021065323121   11.49313863536675   11.94054440330779
B   12.98441165757347   9.40272709862727   11.13989787902823
B   12.87368230968170   9.47343365634999   12.89261527238091
B   14.02368806060165   10.46101730681375   11.98263318148110
B   11.52246754599405   12.31048650423035   14.26567813634369
B   12.53520674859629   13.29940506256270   13.34081853057737
B   12.35366157131218   13.93410355253447   11.76290915605364
B   11.08805613304614   13.76755154787977   10.65022084662345
B   12.57905870460934   13.08919188130402   10.21780931535802
B   11.82501413691340   9.92632599334197   10.03591403282137
B   9.88014580568156   12.04515346919543   14.26122501896404
B   8.27779315199052   13.10852784505312   11.81702240860913
B   8.51167032595530   12.41354047272716   13.36786435575640
B   9.42634322808498   13.58610139976943   10.61831600949398
B   8.86048638367142   10.76687840862655   13.80585090281117
B   8.96303678196814   9.31340190439363   11.13507198528714
B   10.18021570414286   9.70978088271385   9.99194061716085
B   8.83627823476637   10.68779814098145   10.05232776292951
B   9.15906065707529   9.43526999911933   12.82467899390264
B   8.36178383692248   12.29026127084326   10.24984066023883
B   9.62644586384476   11.95713664653760   11.48246933223616
N   15.33253428221875   10.57711624825247   8.65077106011962
H   15.96924758483447   11.24181682472154   8.18998440291075
H   15.20666258079162   9.78714977822093   8.03604642670771
H   14.24219260714356   11.89384650492142   8.16917507646326
33
F:    ...  E:  0.095262120000001
W   13.49912704312210   11.35116431112501   13.92283646900043
W   14.17337475324977   12.69267296964485   11.74896046776350
W   13.67246464050890   11.21230007000477   9.67669658224639
W   11.00091433885306   10.06354519821326   14.00439584262506
W   11.04490524284996   8.79040613586848   11.74488640162155
W   10.33671520627975   13.68054890080974   12.75626751913362
W   10.71317815065869   11.92453671994202   9.44860550453895
W   7.73552454520599   10.94847498235910   11.92008159535183
W   11.76474973762952   11.51593668246550   11.86964143600217
B   13.00977144008414   9.48566362606726   11.07415395715941
B   12.87832269814710   9.51780297806404   12.83893922887196
B   14.02816335871375   10.49959240273773   11.98668006659343
B   11.53045743143050   12.30949371804254   14.19252930221717
B   12.57270596570533   13.28817183419209   13.27596193250578
B   12.37640793040954   13.93315491626905   11.70112139671348
B   11.09502792365337   13.75731933275148   10.62194549894899
B   12.57538727983245   13.06081163436696   10.17013172301156
B   11.83999794738534   10.02286554279861   9.95785471377499
B   9.88746656092637   12.06427008461833   14.25071870655496
B   8.28689588951534   13.13162830034851   11.82097088859900
B   8.52538457212961   12.43560720570053   13.36869648046127
B   9.42037340763393   13.61177901098292   10.61563887565180
B   8.88531417419472   10.78200652439959   13.75842047470536
B   8.97814599311649   9.35487169154327   11.09447361529092
B   10.18968466508724   9.78437280647503   9.95892977447023
B   8.81904743911121   10.73647885343335   10.03450791686338
B   9.18055704228031   9.44941673627968   12.77857445664006
B   8.33083279910408   12.33174988143493   10.25475978362434
B   9.62345700802247   11.97920304493162   11.45409806255259
N   15.43628980576823   10.41068729204744   9.04580597731815
H   16.03928219563498   10.92390838144959   8.39722180063984
H   15.34741847487695   9.44192623427623   8.70047593901702
H   13.67407761653275   11.97905527400909   8.02644088718527
33
F:    ...  E:  -0.178621739999983
W   13.52663750977479   11.36016400778914   13.85454594056946
W   14.15755909984082   12.72133631691743   11.75533729680659
W   13.66130830096933   11.24951136944537   9.70733994107413
W   11.01368984384134   10.04201256018477   13.98756974256328
W   11.05393590335948   8.77301390082707   11.75003685906058
W   10.32058236615422   13.67285942943697   12.79002500107454
W   10.68720453757099   11.94168828933454   9.47547804380234
W   7.74185215657336   10.92730561677164   11.93132248610413
W   11.77635942074300   11.50415715170414   11.85682419385954
B   12.99879382861988   9.43548881421631   11.05197068408168
B   12.91727308396974   9.51540034686111   12.80511390008501
B   14.05030316434902   10.49683487979057   11.87546180414031
B   11.53475340415341   12.28722708017472   14.20351561219541
B   12.53831062290584   13.30008322242740   13.28806506128746
B   12.34609734080374   13.94958329753481   11.72143862516293
B   11.06964166729614   13.77480268783141   10.63331291984824
B   12.53598393907749   13.09976656389044   10.17236402465581
B   11.84229133025654   9.98542344174868   9.93835222869968
B   9.88992644431304   12.03418460433354   14.26791179825676
B   8.26958706282810   13.11228437639653   11.84096618303082
B   8.52883185881438   12.40247733877206   13.37951457858473
B   9.40418926535760   13.60749403777715   10.64035457659265
B   8.88956052474877   10.74861895187783   13.78504601699639
B   8.98046369358216   9.33621994013641   11.10224450676260
B   10.19331695315331   9.77810535783695   9.96585677985049
B   8.80386756762330   10.70146529408232   10.03494981768974
B   9.18153792259157   9.42793773936732   12.78955044383501
B   8.35057818889008   12.29865975839156   10.26973157197255
B   9.62813165140951   11.97130435976967   11.49398122586608
N   15.20699744031277   10.36838059508741   8.75752028582453
H   15.79854389427297   10.83368141231926   8.05440056751780
H   15.45312968724923   9.36586724218799   8.86135659033972
H   14.12018360224931   12.44808329243102   8.42996396946301
33
F:    ...  E:  -0.165801149999993
W   13.53687406975850   11.33756639300957   13.85761283230160
W   14.16075765326968   12.67716125359793   11.76601724317461
W   13.65481743473057   11.20091198915293   9.73394043519838
W   11.01293244542760   10.02896536562839   14.02408444682686
W   11.04390468768889   8.73219842091050   11.80040920323366
W   10.34881788408427   13.65156019941293   12.76962541502969
W   10.69777993422713   11.87564164893045   9.48540377257232
W   7.75965931960560   10.91633251771709   11.93866581998851
W   11.77377957379972   11.45535755387588   11.89450614375425
B   12.98770058257778   9.37030529005150   11.07895737160120
B   12.92370652583189   9.48284395357150   12.82959947450045
B   14.04827503524733   10.45389646625970   11.87029118746104
B   11.55453602597202   12.27892446517866   14.21933371395184
B   12.55293612842136   13.28744739634331   13.29146235420219
B   12.37666774905247   13.90544951666684   11.70599490705725
B   11.09288920024734   13.73623345312844   10.61021756448517
B   12.54344307928612   13.04274665198757   10.15803915282152
B   11.84075654684857   9.89039450452984   9.95723338522056
B   9.90292707127425   12.04207549484176   14.26862637610510
B   8.28001512312012   13.09487061462338   11.81950175621751
B   8.53807466943296   12.40848978207097   13.36713717146836
B   9.43702930005917   13.56551098992249   10.62424563598628
B   8.89816306201082   10.75564342249014   13.80645052053466
B   8.97875913381676   9.29181332908907   11.13519552987399
B   10.19019189092030   9.70767719499351   9.98815265114141
B   8.80912179424018   10.64045324046817   10.03850769133046
B   9.18383228357988   9.42006073428637   12.82481436067099
B   8.38586859544756   12.25333369059644   10.25645453080251
B   9.64912629208030   11.94859897807069   11.50148964024122
N   15.09353231615110   10.53529956232275   8.52308484773845
H   15.64872743522254   11.11044177898640   7.88508219704817
H   15.39529062261084   9.55261587735565   8.48151331972903
H   14.17052981161320   12.82060154758377   8.95977262538421
33
F:    ...  E:  -0.389446539999994
W   13.55936228006048   11.31785508439462   13.89477701825335
W   14.19562746263460   12.62289861119811   11.84175512324867
W   13.65441916974171   11.04979260668134   9.79293798954691
W   10.98938297598755   10.07247122875391   14.05212550764759
W   11.00688891948330   8.72206832714773   11.83700450067467
W   10.41426988458332   13.66101186167738   12.70133651510647
W   10.71540343356835   11.79103597646448   9.48568117475896
W   7.76638370140832   10.94173892029472   11.92063220106649
W   11.78729443703186   11.41070959214499   11.89530982226138
B   12.98969548967688   9.33296126300600   11.09867779331959
B   12.89444161984805   9.48274675645114   12.86197040649706
B   14.04842518482272   10.39991166524829   11.90768780488893
B   11.57896539302618   12.29276774419886   14.17046224190019
B   12.60829884769944   13.28792282593719   13.28070655298970
B   12.44287322610254   13.91685899386727   11.70940047913317
B   11.16142650866918   13.70522809820775   10.58997973175512
B   12.64669603326257   13.00364320623957   10.13359263514040
B   11.80756678849484   9.82303356747756   9.99480560074396
B   9.93043830549524   12.08053116912032   14.24354524051279
B   8.31687862316271   13.10540722118393   11.75111394821268
B   8.57777496420515   12.45338716995465   13.30591708551665
B   9.49090301359866   13.53903925423939   10.54995541235155
B   8.88388205170665   10.81847127200747   13.81812745475295
B   8.95939106954048   9.28858299288273   11.15438089538785
B   10.15844427403842   9.63073860076087   9.95709152634721
B   8.81855415266050   10.61051720550864   10.00744485393908
B   9.18078276876880   9.46943190586086   12.84219406964612
B   8.41752295422647   12.23730354989118   10.21106542721450
B   9.67365071843532   11.94938795511026   11.47594596073046
N   15.10848178988570   10.60312985416940   8.49885234457863
H   15.69472195089858   11.23740554882879   7.94861040254834
H   15.40356896164866   9.63234773093334   8.33033818296001
H   13.58900632328165   12.98108551781190   9.20799737402293
33
F:    ...  E:  -0.543394839999991
W   13.54515584651807   11.30264704335385   13.92931943686649
W   14.20513415252656   12.57165788684071   11.83125778705500
W   13.64451910007627   10.98894644085551   9.82227583938081
W   10.98093971310220   10.04703084270557   14.06290492682030
W   11.00588245126423   8.68058318497705   11.86831561144859
W   10.42537699080995   13.63415825895362   12.67661621968607
W   10.77822195440590   11.75710860678765   9.48641941521051
W   7.76726522211078   10.93426387663220   11.91852087782014
W   11.78271346146381   11.41349410519244   11.95494246066902
B   12.98135388900753   9.31319787657703   11.15834538488434
B   12.88890529538866   9.44700109284558   12.91643456762448
B   14.03796468306174   10.37648332640507   11.97042554344968
B   11.59156591564805   12.30702502836541   14.21612850269651
B   12.63202270335453   13.27224231461393   13.28531643176468
B   12.46999458712029   13.85911276718343   11.69330306995766
B   11.20507956389998   13.63386643235913   10.57891022280763
B   12.72942098943092   13.05141118230886   10.06831545558713
B   11.80663847562854   9.81012119401237   10.06495461671083
B   9.94137751862716   12.06386751384092   14.21467879697140
B   8.35229940030257   13.09392928475041   11.73730022137144
B   8.57045288724221   12.44166242198773   13.29881667495125
B   9.52968070062796   13.50785588741544   10.52619734864673
B   8.88238827159411   10.80353927956796   13.81574904382945
B   8.96457325737879   9.25678177515501   11.17266578289155
B   10.17652768217890   9.59639508598857   9.99924468371466
B   8.85856306931337   10.60823727765696   10.04210022772539
B   9.16615393963653   9.44741916212090   12.85631347014666
B   8.42602345111619   12.22929860157349   10.19021322624197
B   9.68308858222440   11.90802472610460   11.44664957472021
N   15.02239491527239   10.65200680682181   8.43072515429652
H   15.70341484980963   11.32575560012241   8.07697499579651
H   15.25080695622975   9.73207790858038   8.04860631839528
H   13.46552280128880   13.40422048500018   9.11248138751351
33
F:    ...  E:  -0.648361269999981
W   13.54701095586826   11.27125641535587   13.94198984450219
W   14.21264262724688   12.53836031103405   11.81678937543675
W   13.65080149965731   10.99634819616474   9.82363311342595
W   10.99582036823567   9.99206506119667   14.06300019912506
W   11.02655168482715   8.63610268890777   11.86367394616088
W   10.42585799248629   13.59149154190873   12.69579335382730
W   10.83058601295779   11.74765184912046   9.49241233754707
W   7.78238643960933   10.89947292665867   11.93035960383564
W   11.78816212439739   11.38724495519400   11.98607997148393
B   12.98946215030154   9.30179497016548   11.18372534685857
B   12.90923051456234   9.40684064874091   12.93639863280204
B   14.05336422096956   10.35684543105192   11.99472406367896
B   11.60125384749705   12.27476978488461   14.24846888495009
B   12.63395350744742   13.23383339658073   13.30505557239205
B   12.47318965525560   13.80601247856464   11.70779430620902
B   11.21469563160973   13.59111602244456   10.59837759165906
B   12.78434312330091   13.14012540087915   9.99393310777787
B   11.82415772538768   9.80299664328671   10.08590258130439
B   9.95292801159865   12.01670709039704   14.22233845862981
B   8.38045404107094   13.05452199730807   11.76570210679387
B   8.56431683505263   12.39605022084052   13.34142707369525
B   9.54417953789778   13.48165894481652   10.55489502240346
B   8.90096288474787   10.75226799013818   13.82238121233570
B   8.98477243845029   9.22421572727503   11.17203057789157
B   10.20318145313635   9.58032144736623   10.02167437003242
B   8.89031110088218   10.60498982045250   10.07646395237165
B   9.18088203643327   9.40445989441339   12.85650047459405
B   8.42881625851522   12.22116084370106   10.21117971212262
B   9.69486471819817   11.86750413423768   11.43937476741294
N   14.93644083033637   10.74981107028113   8.33428742667133
H   15.62305996512595   11.45102542063553   8.04262622000548
H   15.10874700508536   9.88388020414710   7.81992981598603
H   13.33403607950519   13.80851974950463   9.12250025373141
