33
F:    ...  E:  0
W   14.71992510106731   11.90562927251882   14.19223308796898
W   15.48469628065383   13.17430054422121   12.07571540668122
W   14.78743211348380   11.65145032613428   10.18654489993357
W   12.12320622569475   10.73181596014765   14.34527637326667
W   12.10349333704010   9.37890292129741   12.17182719012883
W   11.66418558568593   14.34099270840029   13.00182822648780
W   11.98213585116840   12.47153132666440   9.75984407364638
W   8.93149778157875   11.72152448363862   12.19775087210902
W   12.97072348494277   12.07583920041940   12.19196714022572
B   14.10882082782441   9.94531715341993   11.44732812090859
B   14.00944477419325   10.07977944915559   13.20822751987940
B   15.23747048317485   10.94374697177276   12.26705148126485
B   12.78450659597373   12.95239401810900   14.50532719355845
B   13.86101464412349   13.85969329938598   13.56448854354859
B   13.73172747607255   14.49498824520737   11.99224713504787
B   12.44843311119976   14.34231880301132   10.89699101050605
B   13.88358089946378   13.60608239271223   10.44158720266441
B   12.94378780747775   10.45680012015222   10.32839869274551
B   11.12566942041398   12.78130268095799   14.51778886785502
B   9.59634739390629   13.86506031449788   12.02682091620456
B   9.78620062843982   13.18903842613369   13.59203257861865
B   10.78581879837288   14.24710803906022   10.84076202379227
B   10.03288230551711   11.55073564064890   14.10906734636328
B   10.08343578699884   10.02923238721269   11.45969719764618
B   11.30887816484071   10.32483949501381   10.28962128159062
B   10.00954468758802   11.36532906102067   10.32740811945310
B   10.27546618810370   10.18987785119238   13.14935472294154
B   9.65643058058388   13.00697232614703   10.48070215068479
B   10.87654261088943   12.63069552822031   11.74540957075177
N   17.44348137980070   14.32247016773991   11.95866544571484
H   17.77384336629534   14.57982310889765   12.89345423807671
H   18.16000115719778   13.73170451266554   11.52889750229282
H   17.37396507156708   15.17770867044577   11.40005523550479
33
F:    ...  E:  0.0271816700000045
W   14.71231132992091   11.88578462497936   14.19002535486465
W   15.46570392225655   13.14653164064822   12.07743923782548
W   14.77511838616721   11.64137344810017   10.18262691240034
W   12.12292561981700   10.71766620286166   14.34438069224837
W   12.09839501655629   9.36454189839572   12.16667804064079
W   11.65558451239871   14.33062518057791   13.00749598076764
W   11.97390760697789   12.46746436699200   9.76119304021826
W   8.92592117492819   11.70925989690273   12.20541781479779
W   12.95923781949923   12.06383328115544   12.19452015977136
B   14.10093989918388   9.93165182220806   11.44106539609865
B   14.00366671789231   10.06071561627672   13.20351796108021
B   15.23152607672431   10.92390892415508   12.26244110411445
B   12.78054843690928   12.94104111541055   14.51117960499871
B   13.85412809523912   13.84678668175166   13.56924797894255
B   13.71891007477528   14.48102689136256   11.99684410458767
B   12.43587197779315   14.33853017301163   10.89890615726378
B   13.87248751401610   13.59901273461029   10.44431540333559
B   12.93687757428197   10.44839822622930   10.32489154628562
B   11.12220235158276   12.76872488112732   14.52067084060361
B   9.58558408312797   13.85368090532729   12.03428269300626
B   9.77935760227487   13.17581174417418   13.59917973291541
B   10.77245982486329   14.24140009241254   10.84659482115440
B   10.03109474097894   11.53728116686028   14.11109771757545
B   10.08020373669164   10.01911545910457   11.46288806143384
B   11.30262762963834   10.31945339690975   10.29228727768458
B   10.00377080641971   11.35942191698889   10.33494105671020
B   10.27560881963858   10.17647411997189   13.15210487009700
B   9.64424995958789   13.00002947744041   10.48729559249721
B   10.86621061408617   12.62556628196404   11.74664624151989
N   17.34417811071287   14.39617598258347   11.91092080882585
H   17.80234029659100   14.50084658572993   12.81053491653688
H   18.00951029070665   13.99044218087848   11.26481216772864
H   17.05349621043323   15.31031139091693   11.56925886886166
33
F:    ...  E:  0.186073739999983
W   14.71431023468687   11.88999034893109   14.18054451025005
W   15.44086372410843   13.12803679406227   12.06128157976141
W   14.75711075478728   11.64601704705689   10.16336554788247
W   12.13368608659106   10.71315464519952   14.34284563167123
W   12.10798576300503   9.36062732532312   12.16384626747088
W   11.64216429764844   14.32668195211974   13.00842522454598
W   11.96300952829960   12.46714560275125   9.75708971871667
W   8.92367225273174   11.69205569640774   12.21502707241531
W   12.94628939064267   12.06278909777429   12.19107712626671
B   14.10429033636495   9.93666493584471   11.43086516232100
B   14.01500917198913   10.06624134566048   13.19608348610003
B   15.23199870869295   10.92725489766465   12.24917408679478
B   12.78142500659312   12.94088720787551   14.50753992248288
B   13.84515509906875   13.85047502155323   13.55976362418381
B   13.70159456525440   14.48728209786268   11.98888646989605
B   12.41358510588986   14.34381125953501   10.89389341648801
B   13.85105537595364   13.60581105469048   10.43361336357138
B   12.93440386593383   10.44920180525264   10.32084197648775
B   11.12451152690494   12.75867597614251   14.52039770083722
B   9.57377578767189   13.83894505317680   12.04255514696931
B   9.77521942885891   13.15942652614814   13.60606951301309
B   10.75180296371455   14.23566354927869   10.85059404095961
B   10.03719632426305   11.52251858516925   14.11468283374234
B   10.08568047091375   10.00589850758322   11.46775818586456
B   11.30396695566188   10.31336419446939   10.29772747455031
B   10.00340130533276   11.35227995176915   10.34540471483104
B   10.28298595573247   10.16146426500150   13.15612254794094
B   9.62869493444350   12.99014791238103   10.49492736757209
B   10.85370462956478   12.62057617270229   11.74435799943987
N   17.24550855484372   14.40989054333233   11.87629692223068
H   17.85049931364530   14.42368022226325   12.71245972742571
H   17.84683997004505   14.27792322824523   11.05968879030353
H   16.66921237971311   15.25548439445725   11.80630563084620
33
F:    ...  E:  1.47787771
W   14.73347291473532   11.94548755586871   14.18298281613171
W   15.47114407782412   13.23877775347372   12.04065530159989
W   14.75796801032746   11.69878653562784   10.14928492244275
W   12.14780018512375   10.73340188307992   14.34764286514440
W   12.13487448400633   9.39525613835553   12.17467739978089
W   11.63502116455948   14.35020538568754   12.99697233436008
W   11.97012452789587   12.47371837768338   9.74737916134014
W   8.93709727911659   11.69027856550602   12.21724863058039
W   12.96453517939684   12.07820003047455   12.18461764382441
B   14.12663608764005   9.99206251354580   11.43393465501559
B   14.05257352419948   10.12616248873471   13.19550570014977
B   15.24412121639919   10.98538035391135   12.24188639598576
B   12.79195950022079   12.95892187899267   14.48539023395595
B   13.83673272667374   13.87536894715599   13.52839462281915
B   13.69447135898941   14.54008050879772   11.96985651192370
B   12.40277680128279   14.37711999746809   10.88032118771682
B   13.82993092104589   13.63799536389548   10.42634026010743
B   12.95518690463116   10.47282817177640   10.31518480001674
B   11.14216489800527   12.76614159832192   14.50859829954538
B   9.58137005155986   13.83282682538854   12.04424864302727
B   9.77955127633702   13.16216521201816   13.60967592845150
B   10.74271686040110   14.23418128204930   10.84786717671565
B   10.05453132577724   11.52941517557862   14.11854369668159
B   10.10094595662570   10.01396487204520   11.47012353231383
B   11.32097017132024   10.32092586763167   10.29470687327395
B   10.01607763884489   11.35342944822399   10.33818279863829
B   10.29076106135508   10.16692435830173   13.15834352675125
B   9.62334340096907   12.98547418537395   10.50050946409148
B   10.87017835154702   12.61999247145708   11.73204058850786
N   17.40159364933366   14.12745835200312   11.94530935939914
H   17.91909950227523   14.41187950065237   12.77326110228421
H   17.99835789760921   14.18189549296142   11.11951544499623
H   16.23426728302959   14.92952817625787   11.82903443589831
33
F:    ...  E:  0.530187049999995
W   14.72658308592513   11.93123885912213   14.18909600535386
W   15.59992297366148   13.43982992740958   12.00381453644445
W   14.78050426822770   11.74114422640650   10.17975533991008
W   12.15362141268566   10.74372771783655   14.34158994725754
W   12.13256419928703   9.39363576260336   12.16389855930753
W   11.63371431652718   14.35391539319179   12.99467963886642
W   11.97737726326818   12.46175704408491   9.74773636721715
W   8.94604934697557   11.70124060780287   12.21730348567041
W   13.00758674115765   12.09102700998396   12.19837908394990
B   14.12443418215364   10.00202704800238   11.44965551550880
B   14.04345257307182   10.10073842785588   13.19188380974831
B   15.22447390822863   11.00675246532304   12.25891804005899
B   12.80762368148786   12.98098917727414   14.46943931123466
B   13.87818304707650   13.88071182119727   13.52302290990466
B   13.65397442255420   14.50707481895554   11.97212794408067
B   12.38798863763687   14.37830787604423   10.87770312533985
B   13.83109332418700   13.65892263527768   10.43936977632211
B   12.96632682285696   10.48933764044115   10.32346970089587
B   11.15843531002855   12.76624523230253   14.50751030241993
B   9.58206989063515   13.81867970972858   12.05355232813125
B   9.77337521258671   13.17187255866769   13.62979612149670
B   10.72370812756200   14.22360401274858   10.84140021311916
B   10.07705013351466   11.53067761508394   14.12062070610187
B   10.11052229946661   10.02232658616246   11.46134319612113
B   11.32098113987285   10.32803959183810   10.28034746715407
B   10.01517737565911   11.35088058086518   10.32149856639154
B   10.30633901381914   10.17791721397396   13.14963598035910
B   9.60518185127574   12.97957154675182   10.50475422863752
B   10.89019177999072   12.61230949985504   11.71582110825963
N   17.63675256262916   13.71865523017290   12.08963467958236
H   17.91588471805346   14.46010152632015   12.76504165109419
H   18.07181782604734   14.05915956519578   11.21680467717614
H   15.90903810065881   15.11073934697905   11.65469615893644
33
F:    ...  E:  0.329778970000007
W   14.74892981191311   11.96653312227349   14.15923162631370
W   15.54413228595897   13.46036971248389   12.02178989865930
W   14.76143939145017   11.73375414309733   10.17685852419828
W   12.16295851268164   10.74840610452173   14.33567523073944
W   12.13760379228419   9.38846764251266   12.16046625479588
W   11.61604089113008   14.35752499635169   12.98815080648339
W   12.00724433083608   12.45287275007177   9.74649290717097
W   8.95387403762646   11.70448323814934   12.21635562077524
W   13.02072710127936   12.08036121285173   12.21718296411671
B   14.13712842947347   9.99248243390930   11.45742702573073
B   14.05286962467423   10.10006120418973   13.20180151229627
B   15.23962627411134   11.00173735484532   12.26602409773971
B   12.79935357579808   12.98239772443900   14.47441640829430
B   13.86364869139826   13.91056446598776   13.54896101384674
B   13.62419727135155   14.51171694576627   11.99297834770772
B   12.38108164757096   14.38906619499808   10.86287515638061
B   13.83107119446970   13.64294606227087   10.45723932180862
B   12.97722537656152   10.48032347156424   10.33055821658661
B   11.15720727171962   12.77075896665131   14.50542708497065
B   9.58673618540459   13.81761562079423   12.05699913219461
B   9.76499449998161   13.17285028995756   13.63825180269060
B   10.72760112446272   14.22760454818201   10.83388199568055
B   10.08438444542801   11.53374801793467   14.11962006130752
B   10.11688221882189   10.02600394643613   11.45866436830040
B   11.33336135631566   10.32864585969823   10.27891837595890
B   10.02908941162988   11.35625874410077   10.32333522826366
B   10.31504420852638   10.18217534800896   13.14862687762385
B   9.60984917675407   12.97860195239060   10.50328497757380
B   10.90004132890374   12.61353695608863   11.71258309630561
N   17.56551644828568   13.73908205603208   11.93067817580003
H   18.07332774751927   14.04751840410690   12.77643505883764
H   17.97352676510810   14.31526418018312   11.17939996389552
H   15.52604079609238   15.20120953269570   11.69697117134821
33
F:    ...  E:  -0.059923590000011
W   14.76216385012907   11.97055881083224   14.14281898939101
W   15.55039954378300   13.31669678369252   12.06566219836137
W   14.75635349309328   11.67269996533962   10.15777556018172
W   12.15812344619461   10.75584594868370   14.34178216112562
W   12.12639438402943   9.39392286123477   12.16086117044237
W   11.67204187227105   14.36993389854575   12.97847433960241
W   12.04670248255433   12.47352462361942   9.75683029694423
W   8.96053496521706   11.73006121125182   12.21570466597650
W   13.01029732688124   12.05647936446380   12.20250304398409
B   14.14280337689233   9.95732707281367   11.44899321520570
B   14.05672158203399   10.11109803936631   13.20018937972519
B   15.24756895595997   10.98771796206126   12.24032448826229
B   12.80116604795056   12.97750111373725   14.46294785085303
B   13.85180520368672   13.88375734972139   13.52949376317872
B   13.81115536221536   14.63389918898085   11.97820933013419
B   12.47255486399757   14.36881958734284   10.89927536122415
B   13.88295143537655   13.58384038728634   10.44473309868308
B   12.97322560074055   10.45455048597601   10.32476092111721
B   11.16218138483465   12.77898530411855   14.48734126451160
B   9.61196903594037   13.84778806023915   12.04761687446569
B   9.77536297152069   13.19620072668271   13.61938939600482
B   10.80299074986974   14.23549791315535   10.84925920560485
B   10.08299332648235   11.54801280818439   14.11565234833297
B   10.10622044568019   10.01358538625314   11.45889296326213
B   11.33370831640675   10.32175448686249   10.30316306961009
B   10.03921944199958   11.37367433832389   10.34848149844108
B   10.30275111145588   10.18785704320183   13.14842900141365
B   9.66335139906970   13.00460019794955   10.49462333652439
B   10.90750389551854   12.62407685390306   11.73591965245492
N   17.50024434794492   13.84737462417707   11.93150242273683
H   18.07864912707727   14.01041207727328   12.77236402217040
H   17.96736501808411   14.33108500588827   11.15438654373885
H   15.07170800719403   15.19166017440023   11.77379666466317
33
F:    ...  E:  -0.468560319999995
W   14.74542489603437   11.95025321995512   14.13357845310351
W   15.54425530488393   13.24942937470500   12.07145300287877
W   14.73259459455658   11.66168567417985   10.14232798366995
W   12.15888997372470   10.73853231392868   14.34390596973491
W   12.11821120851067   9.37583424528214   12.16847833750351
W   11.67703259586532   14.35485654575466   12.98152092840689
W   12.06568202267529   12.48657947414950   9.77532599783044
W   8.94951773788010   11.71248335776385   12.22014573676303
W   12.98226219015065   12.03862832547546   12.18771465878005
B   14.14470517880481   9.93031865870134   11.43206014461897
B   14.06061394719760   10.09223123835463   13.18640880858111
B   15.24043390755116   10.97775663129791   12.21461517169183
B   12.79978124924924   12.96663381869009   14.47168794501071
B   13.83809521286486   13.86322673495707   13.50615929921048
B   13.83983116120349   14.71104894957187   11.98065985827436
B   12.48692293914389   14.35176888408071   10.92203661494582
B   13.91333248759462   13.60162797574833   10.45969653160192
B   12.96530550880853   10.43133321550355   10.31532005187110
B   11.15478036121774   12.76572395412029   14.49113256850302
B   9.59346562950175   13.84878172652822   12.04096266912770
B   9.78664901159421   13.18094611915995   13.59935449686877
B   10.81040094004437   14.23660413696917   10.86146284348130
B   10.07413715349413   11.53107372183621   14.11695317666044
B   10.09991800288195   9.98689064382097   11.46893436595715
B   11.33193506022445   10.31301790535875   10.32656546156374
B   10.04928206696352   11.37779925415519   10.37959017706914
B   10.29813212818397   10.16722035027148   13.15661999320111
B   9.67279385452106   13.00733488926395   10.49326508478824
B   10.88245661143357   12.62290274766990   11.76193001444084
N   17.40986846957342   13.92377416423017   11.89411959546900
H   18.10998924995548   13.86117584964586   12.65057970387529
H   17.82172655972781   14.42877743543528   11.10496025624039
H   14.80938832902354   15.49706958914803   11.81807417079007
33
F:    ...  E:  -0.699501040000001
W   14.72864581998376   11.94458998107477   14.13266250031930
W   15.52287580905804   13.24319617283536   12.06725010561148
W   14.71903846932825   11.68325854122486   10.13358001494303
W   12.16314571686126   10.72483369899304   14.34321765444685
W   12.12837604940403   9.36458264317917   12.17578839749672
W   11.64419432225135   14.33806849594609   12.99142221733212
W   12.06187491331999   12.49922883274581   9.79079776985860
W   8.93681247147010   11.67423763828299   12.22787511619118
W   12.95875382582753   12.03868356518234   12.17005875495791
B   14.15223700437917   9.94129311344706   11.41959153524940
B   14.06854122844777   10.08905425328923   13.17307201350724
B   15.24156716344462   10.98500516406675   12.20470338937117
B   12.79338524769459   12.96222976298137   14.47447490621129
B   13.81265903838078   13.85464150269741   13.49299138466901
B   13.81915476663449   14.76442608037085   11.98478197166837
B   12.45011918627849   14.34654801335209   10.93658651221814
B   13.91027366859942   13.64591119360592   10.47273215257358
B   12.96890497621100   10.42589640585749   10.30455955935200
B   11.14575000443953   12.74315359220625   14.50295359032285
B   9.56261171371921   13.82805880821162   12.04373850970681
B   9.78497975623033   13.14632264599729   13.59391398702321
B   10.78143610460954   14.23052497502351   10.86742851450714
B   10.06916238343789   11.49984896861680   14.12328092981375
B   10.10805875768502   9.96667452619339   11.48006585143614
B   11.33926927423854   10.30888349191788   10.34118707979476
B   10.04985469918974   11.36891344087267   10.39526070359731
B   10.30294557694775   10.13672435730944   13.16704013108127
B   9.64144394049868   12.99339469259722   10.49867881220979
B   10.85298028824439   12.61164792543013   11.76650928643917
N   17.36978309400311   13.92565968685818   11.82936323283175
H   18.14694344796871   13.70542232759588   12.46435872819811
H   17.70437245846070   14.54033779231914   11.08404290844219
H   14.52457346302594   15.75592576818056   11.86914425844332
33
F:    ...  E:  -0.771240739999996
W   14.72126954112577   11.95727294401248   14.12737141313690
W   15.49445975458906   13.28253703343078   12.05527237963967
W   14.70795887138078   11.72335187157775   10.12610022820378
W   12.17530441890404   10.71697032372831   14.34183319095222
W   12.14906723824729   9.36250642036600   12.17769107492535
W   11.59767622063606   14.31978105929860   13.00307276382232
W   12.04442309782227   12.50529527628026   9.79237918711149
W   8.92758084232053   11.63220519981180   12.23873764210759
W   12.94007361709694   12.04585600080210   12.15030161613805
B   14.16792605609038   9.96930773488273   11.40608639860691
B   14.08239940362765   10.10299331242114   13.15932140870624
B   15.24701339776975   11.01977261691720   12.19333292480094
B   12.77407128267487   12.95682089133343   14.47438565893886
B   13.78254696459149   13.85931525504112   13.48524138527126
B   13.75529512411552   14.80026666429122   11.99148022361687
B   12.40061764649472   14.33821363098665   10.94061574038532
B   13.87767781377309   13.69677767215583   10.47635916291395
B   12.97677433402973   10.43206134520775   10.29233834505282
B   11.13190775213168   12.72065714068079   14.51590670588342
B   9.52784185378906   13.79779823412783   12.05663526788182
B   9.77378159712288   13.10845662988433   13.60031289901485
B   10.72722190891860   14.21745038831062   10.87293345152369
B   10.06865753437049   11.46516289935987   14.13605739142753
B   10.12292939076631   9.94634877934174   11.48956534296509
B   11.34723240866927   10.30803056553222   10.35061541772479
B   10.04259049922346   11.35392467086801   10.40613651765820
B   10.31842999782463   10.10987356819678   13.17741605664155
B   9.60077237804653   12.96961455294951   10.50896926825456
B   10.82979800032067   12.59467626467737   11.76682988316800
N   17.35062027946439   13.91294832749176   11.76358668218672
H   18.17228937927064   13.55615066750313   12.25353910095427
H   17.63497240785019   14.63340365741547   11.09764099808818
H   14.22958055030411   15.91903043584694   11.92718393970686
