22
F:    ...  E:  0
W   11.40170843425735   12.02334722976414   8.56418120625530
W   8.78343301413544   11.15065369094892   12.51509926914239
W   8.91329294965337   8.90069973465469   8.19756942724056
W   11.94386828351885   8.58225878416011   11.96737000696387
W   11.17813425446948   11.27790068729596   11.05137644804642
W   8.90055473261831   11.62479349727933   9.63094573339039
W   9.45226743669558   9.05436368315407   10.81524625809122
W   11.54673714389085   9.21652020550802   9.20033321593793
W   10.07682316343914   13.73819993327490   9.75284286771844
B   7.58820337215979   10.32819885698722   11.08175040478813
B   10.09764021744664   7.51102835586315   9.21679797161018
B   13.02066251796920   9.85028195757583   10.78927575826623
B   11.02560997528282   7.41048147470485   10.53183114681585
B   12.90130090007952   10.92860712027688   9.59316925741550
B   9.48924683416078   12.81324414113870   11.48152266076441
B   7.62835629981939   9.68019671613946   9.60600185577068
B   10.08998875449231   10.55470304281172   7.90886081546636
B   10.42013356981018   9.81079568629502   12.71172199415814
N   12.48042215208996   12.49743574469758   12.45220905126833
H   13.09417048398296   13.07631289297676   11.87447457918195
H   11.92172752517502   13.10721708358970   13.05186660829424
H   13.06351032481983   11.88055182086973   13.02334580338008
22
F:    ...  E:  0.0551962600000024
W   11.36138118642549   12.10185474440079   8.56602492600444
W   8.76199541277964   11.17672197138978   12.53684294440886
W   8.88824308381017   8.96629000511745   8.18744576525929
W   11.92895761052795   8.61853382153991   11.93967353734702
W   11.14832682451186   11.33498977834497   11.03918788524751
W   8.86221045081666   11.68573934906186   9.64093499915093
W   9.44578950466530   9.10869018834384   10.79891039954369
W   11.50616402547247   9.27532365585921   9.17169633272186
W   10.04511375699115   13.79651710502392   9.80074209774523
B   7.57318517256397   10.36262507558560   11.09351169048897
B   10.07724258021869   7.55883305921142   9.18591806806463
B   12.99086922767677   9.89078753745761   10.75499997104717
B   11.00836514888748   7.45406543873982   10.49950216612997
B   12.85914006777630   10.98274766909225   9.57302591675033
B   9.44513797716229   12.84929655355321   11.51179987775975
B   7.60854533886391   9.73221053425281   9.60901218714192
B   10.04556958846138   10.64014404906849   7.90924526567143
B   10.41434065319399   9.85275311497897   12.69759608644375
N   12.57228698260545   12.32931780170546   12.47505235845737
H   13.24159476358458   12.91936796858328   11.97227416371035
H   12.15108737964412   12.87713286980860   13.23515770329931
H   13.08224560332700   11.50385004884875   12.81923799757287
22
F:    ...  E:  0.418053400000019
W   11.36506771172591   12.14704659707002   8.59909973172661
W   8.71718709115693   11.20545534851814   12.53560549603400
W   8.94452259953257   8.97173002150660   8.20770341365788
W   11.92629176477355   8.67937812772965   11.99743048449054
W   11.08002364521882   11.38356793355874   11.02763429220588
W   8.83385589100484   11.71489691680947   9.63024845788168
W   9.44423684223822   9.12756043852929   10.81006559356846
W   11.54934566826243   9.31743567401677   9.21641078312621
W   10.00884231343685   13.83357381700755   9.81581075996235
B   7.56032850340112   10.35786634711769   11.08597840620683
B   10.15278108332092   7.58455262794964   9.21671113592311
B   12.99016626718792   9.94116059173161   10.79439176607843
B   11.04237305995667   7.49053109982673   10.56163734265013
B   12.86409829947794   11.05755204225630   9.63425465430486
B   9.36845580626570   12.89053442767001   11.51372402280436
B   7.62051734861326   9.73916083779848   9.59592869227300
B   10.09558806868736   10.64920543121453   7.96129788553581
B   10.38282276315481   9.90131783249914   12.71553441754699
N   12.57371337671762   12.27728285320144   12.39428789083699
H   13.33297879627690   12.83972382120182   12.00321807395855
H   12.24821438575194   12.62943139699649   13.29806987684535
H   12.91638105380346   11.27882815575822   12.40274916234881
22
F:    ...  E:  1.36103490000002
W   11.36511457436436   12.14600970198491   8.60993066902051
W   8.71419137925846   11.20283550004864   12.52779292237290
W   8.96326135274026   8.94907786071707   8.21636671988793
W   11.91904388199810   8.69004866120640   12.02842890654718
W   11.11620084842443   11.44804776925742   11.10752549303657
W   8.86436263021836   11.67405586805050   9.63866907630877
W   9.44867109037072   9.11487594121234   10.82151711480006
W   11.58352101330956   9.31542158393203   9.30821775506291
W   10.03180638593630   13.82462268791682   9.81720095029531
B   7.56457131929874   10.34192855100371   11.07484362038599
B   10.17890339217277   7.58187512528144   9.23476149128143
B   13.01185215166256   10.02370286151860   10.87971518137910
B   11.05885972475843   7.47827013080032   10.59487766796081
B   12.85401464959423   11.07809119016777   9.64534039483264
B   9.36281453904343   12.88772776141786   11.50349287927716
B   7.62641330419776   9.71078562945454   9.59310968894125
B   10.14023714102795   10.60120427156931   7.98628639021576
B   10.35421446482039   9.88339421107255   12.73005498200385
N   12.52294795261897   12.37023013216648   12.41431662363875
H   13.28452892842738   12.89301948025668   11.98261874177591
H   12.17159026571784   12.84899977497936   13.24487423787411
H   12.88067135000554   10.95356764595289   12.05785083306779
22
F:    ...  E:  0.927537450000017
W   11.35362966387876   12.14237257461298   8.61473195493438
W   8.72185620921663   11.19842701217986   12.51688323848272
W   8.96926303863089   8.91751940236144   8.21952047860676
W   11.92905426873211   8.69864976449552   12.03167621789813
W   11.17913889638978   11.52079531794607   11.17971301347989
W   8.89088744549106   11.63757856419872   9.63950269824607
W   9.45720869602729   9.10147444916434   10.82663087439717
W   11.60684862345362   9.30505361152907   9.35556937715131
W   10.03717523861712   13.82215056524858   9.80870529808878
B   7.57788308236647   10.32193848046382   11.06760465216654
B   10.19104544711585   7.56986788413522   9.24365671238971
B   13.05663333306078   10.02055771742514   10.85406680573684
B   11.06675536010014   7.47758754358856   10.61723742743497
B   12.83879346832441   11.09144959975322   9.65209198223021
B   9.35384218947496   12.87806336514396   11.48276257578929
B   7.63403131103117   9.68288278221416   9.59006632136412
B   10.17159220169405   10.55118602548255   8.00883534486524
B   10.35614228937703   9.87943431627915   12.73068179172938
N   12.42759226872598   12.55084953973517   12.41187539197879
H   13.24483950607446   12.98255527554166   11.98323110040170
H   12.05293186741845   13.12046328170667   13.16565558811057
H   12.90064793476568   10.54693526676171   12.01709349448331
22
F:    ...  E:  0.571646770000001
W   11.33006945394007   12.16528142718208   8.60556778505001
W   8.74616373590717   11.17851293324746   12.51275072346385
W   8.95920559627391   8.92449926407985   8.21890636906854
W   11.93350145127252   8.67369241667529   12.00612079488031
W   11.17490228884027   11.54235481447599   11.18430545012544
W   8.88189546330592   11.62868034556702   9.65106273442474
W   9.45764814537308   9.09484752660160   10.81333685804672
W   11.63225813967535   9.27871254028638   9.38171278274024
W   10.01883198096571   13.83144568099760   9.80357736089098
B   7.57567858685302   10.31131185589543   11.07446092373845
B   10.19623549504512   7.57156146408820   9.21907103715177
B   13.07096623969513   10.06550835835047   10.86186976606120
B   11.05194147736766   7.44606279793939   10.60312287083438
B   12.81905744516631   11.12209722448214   9.65330412406055
B   9.33189939426313   12.89042881053757   11.47858495247633
B   7.61683111218456   9.67992046032578   9.59396479138517
B   10.18780244520016   10.53201133013369   8.04937440310084
B   10.38485470818532   9.85636783192785   12.70666793520468
N   12.32178778674305   12.67734008558906   12.37244913781339
H   13.29460758056045   12.85253220435551   12.14954955941393
H   11.92893093436719   13.39091326986368   12.98745606071471
H   13.10272287878210   10.30370969736610   12.09057591931993
22
F:    ...  E:  0.310097440000021
W   11.32493523401338   12.20948331231655   8.59058848804268
W   8.73548677002660   11.17767617441566   12.52161009279444
W   8.95182751072387   8.97136194546896   8.22267661294144
W   11.91941632386641   8.65357213637999   11.98457684638303
W   11.17069287484498   11.55753542054170   11.18219237277209
W   8.87484335998226   11.66476482888767   9.66148284043222
W   9.45894323249359   9.11816903371901   10.81635379687271
W   11.59374758144695   9.29669491257069   9.37125287662970
W   9.99932863183384   13.84834118665933   9.83037518983495
B   7.55434499139077   10.33011985679213   11.07717167853989
B   10.18293069957125   7.58996968133669   9.20350880719809
B   13.01748631625286   10.09178094499362   10.83067817577514
B   11.04678646712602   7.41988059353413   10.57814277800320
B   12.80507202414488   11.15733167750847   9.64174370173496
B   9.32466577484294   12.88964878112195   11.50380062834928
B   7.59816197941785   9.69311544598588   9.60317102713180
B   10.15258758541233   10.60652103171655   8.02643353243359
B   10.39319563159779   9.85876164724282   12.70803270194676
N   12.29693620696784   12.70208861439432   12.37195458463433
H   13.31115631958185   12.68433958117648   12.35826283260902
H   11.93929862288074   13.48901204429010   12.91255927110725
H   13.36594820154793   10.00762348891556   12.02122350380021
22
F:    ...  E:  0.201566990000003
W   11.35748832529471   12.18809293956916   8.52622322281304
W   8.69612248688701   11.16284594975155   12.57862226017895
W   8.94284732559515   8.98513754902572   8.16712058843992
W   11.92054558770045   8.72193509944894   12.01134606995562
W   11.20011566724870   11.57918845811077   11.23775184369149
W   8.94783961592799   11.62261526986053   9.64326856561864
W   9.45627304325679   9.08381290305239   10.83422948560034
W   11.44830743245820   9.35352685531666   9.30020347219035
W   10.04566280358093   13.78246475892975   9.90387734733792
B   7.58055581894910   10.37286876402924   11.06197073569399
B   10.09173485036615   7.58201569507968   9.23118860288632
B   12.95602794829746   10.09495747390176   10.83779897293591
B   11.05439410986970   7.50387670765912   10.54991432069719
B   12.75435227261464   11.15234663340667   9.64540853229734
B   9.29924681455714   12.83965742200126   11.55568435664766
B   7.65025005379704   9.69951817191143   9.60094678079546
B   10.10589726510564   10.66593822885640   7.85797134111068
B   10.34941877009430   9.87231505197815   12.72804263705094
N   12.30034560551599   12.72606229974953   12.42972030187402
H   13.31372154852671   12.65450990418428   12.44918834293120
H   11.96934554105800   13.53517773196261   12.94984765374215
H   13.57729945326506   9.83892847218239   11.91746690547753
22
F:    ...  E:  0.0655013900000085
W   11.35774359535657   12.21396595434879   8.52463435689913
W   8.70969831121470   11.16267776576065   12.61215462645837
W   8.91187856887142   9.03299764296778   8.13107084903564
W   11.90633691189801   8.71251539607444   11.97055546838653
W   11.22708076491193   11.58444078671894   11.28077805342744
W   9.01747741544180   11.61914786788850   9.67253620835823
W   9.45118828168478   9.06905936967833   10.84680358776404
W   11.34787859167652   9.39237498385617   9.25553586964723
W   10.10046827765908   13.79745615180480   9.97387361989436
B   7.59971316012437   10.40406710111421   11.07350754423499
B   10.01838211076751   7.59411031830715   9.21401255226014
B   12.93572312694393   10.07054593767748   10.81789582304052
B   11.03894597583052   7.51117702247117   10.49141479587100
B   12.72502642126521   11.14289352389583   9.64527355004235
B   9.31122863716461   12.84326811713299   11.59683224382839
B   7.66606250240207   9.73517958191769   9.61184483680773
B   10.06954972944690   10.72877299708008   7.80053810796626
B   10.34225751462428   9.86120622852533   12.73924787696719
N   12.29498210400000   12.74327628424486   12.48850076247262
H   13.29451520723333   12.59236639904102   12.60433687878739
H   11.99231493910666   13.60254065622536   12.94028662360193
H   13.69934019234236   9.60375225323857   11.72615810421502
22
F:    ...  E:  0.0217411200000015
W   11.36732017797459   12.24027226193071   8.53835241133562
W   8.72962935763149   11.16420858200928   12.63623876673448
W   8.87479263547981   9.08993349889673   8.12167897683587
W   11.88549176398752   8.68925401156289   11.92160379270727
W   11.25968413636228   11.58363813532321   11.31036955157695
W   9.05152966508496   11.64297715834465   9.71773200917596
W   9.43896423413383   9.07696330156747   10.84766260928127
W   11.31059028153570   9.41214273318997   9.22308646316357
W   10.15653441146236   13.81812373982683   10.03816309966527
B   7.60629387528407   10.42907836639186   11.09663124514890
B   9.97071644977932   7.62099573890009   9.17635383641829
B   12.93089510291086   10.03773113416855   10.77697042365342
B   11.00802091356319   7.50768974337948   10.42991993945660
B   12.72564124878873   11.13927902931674   9.63234568319689
B   9.34438933042441   12.85281159359612   11.64158453954168
B   7.65747067871732   9.78303102678241   9.62613121705442
B   10.04785826575577   10.78258438265393   7.80902891875475
B   10.34543442080069   9.84649293836186   12.74249823414127
N   12.28951885125084   12.75182203382681   12.53774095329057
H   13.25669945080113   12.53349285615536   12.77565301836085
H   12.01517320276573   13.65202374882394   12.92370738998255
H   13.74514388547247   9.36324632495784   11.49433926049031
