22
F:    ...  E:  0
W   11.82142561453189   12.47175536510615   8.79693241512078
W   9.15468311953600   11.60811391523955   12.96871678340724
W   9.21287018271229   9.29009172903934   8.56095878038878
W   12.34037063406649   9.05343876324826   12.34104413927173
W   11.70341514002167   11.92814503228333   11.62722679691267
W   9.59579453863666   11.70471118747861   10.08947808756198
W   9.83021901928239   9.46186620260038   11.28414092784096
W   11.76623239755237   9.74342725999121   9.65802583111835
W   11.24293699938302   14.06418004903689   10.60974697442549
B   7.98486164792826   10.77753284792507   11.49117771786937
B   10.42063365007437   7.96845194429001   9.62794184584820
B   13.36083150196917   10.38533007862089   11.15972584671779
B   11.45612913249017   7.86860896399367   10.88746999242009
B   13.21480345216585   11.47919310970733   9.99927900580300
B   9.83740709039584   13.20336376178169   11.84363754193328
B   7.99392423957961   10.04022133377496   10.04401972443301
B   10.50849193935831   10.88760233752025   8.16297107358207
B   10.84225434210704   10.35125076015317   13.13479115713647
N   7.91914374718322   12.07256032531547   14.80466780002481
H   8.33996379066098   12.79255059330743   15.40194747454674
H   6.99557765288132   12.41124832544738   14.51436928340980
H   7.77034459308870   11.23817987138523   15.38214762299123
22
F:    ...  E:  0.0169356899999968
W   11.84566463245808   12.46739190623606   8.78104056178070
W   9.13763657669961   11.63008609235919   12.92533495028392
W   9.24830155520663   9.27626402759352   8.53663282783168
W   12.33756783553475   9.07007518192587   12.35590667849159
W   11.69935893673122   11.93978277012230   11.61332612014395
W   9.61148730465811   11.70677078699885   10.05176273610766
W   9.83481143678802   9.46992260849358   11.26163290065078
W   11.78796138397128   9.74484795920322   9.65959907865312
W   11.27436857470750   14.07812033616837   10.57927428643710
B   7.98649979543976   10.78973116172169   11.44301046655086
B   10.44994763261230   7.96145128221310   9.62377188909931
B   13.36003156262407   10.40042043752136   11.17687712421164
B   11.47012967963776   7.87509357425324   10.89867322097201
B   13.22920451950099   11.48800881057733   10.00669593541384
B   9.83621915288051   13.22221625206338   11.79052096414247
B   8.01150029923408   10.03430671778721   10.00095575888717
B   10.54327983265160   10.87520019164438   8.14145358401565
B   10.82186993429932   10.37452259237657   13.12127586694404
N   7.84961876931714   12.00247574550718   14.75702731943634
H   8.34629231519178   12.50787183395400   15.49282816256280
H   7.03983794163189   12.53171666466371   14.48278758150868
H   7.53203355334442   11.10561149167913   15.13208378103788
22
F:    ...  E:  0.0287416600000086
W   11.87234943641335   12.46395092783387   8.76911016920067
W   9.13381020876558   11.65426142420196   12.89085348331933
W   9.27607395234198   9.27125067072589   8.52222045930938
W   12.33465018522298   9.08326007106419   12.36746623486633
W   11.70379367845514   11.95593275031672   11.60272757886040
W   9.62612790578735   11.71094580220730   10.02726087873537
W   9.84085661450244   9.48043893950983   11.24990154523469
W   11.80598958356242   9.74637132757927   9.66571717462179
W   11.30527232502542   14.08858870310777   10.55018179852344
B   7.99133065246993   10.80453068451412   11.40925183586175
B   10.47064002395204   7.95987824533762   9.62331668150127
B   13.36276650910010   10.41176098592460   11.19218103886165
B   11.48042874442127   7.87848438354897   10.90730648232057
B   13.24591953292491   11.49370350756849   10.01461004854529
B   9.84492042995713   13.24313107687578   11.74829854171377
B   8.02839395756576   10.03349532006230   9.97536751574224
B   10.57164624915960   10.86988427679401   8.13092374398692
B   10.81355974433176   10.39620188698415   13.11252521557238
N   7.79793642275464   11.92411019913326   14.69923021242429
H   8.29405213449739   12.16750233084806   15.54258686091222
H   7.10088158754031   12.64651412226514   14.50334062865564
H   7.29810914832457   11.03724653206945   14.81365968868959
22
F:    ...  E:  0.0693771400000003
W   11.89214198728045   12.46491937324825   8.76321981984768
W   9.14272530648385   11.67135150878845   12.87044931502536
W   9.29705155558286   9.27027328351967   8.51693628784204
W   12.33940652422742   9.09124717132288   12.37132591702565
W   11.71456731979862   11.97090854252939   11.59698462049061
W   9.63864297627625   11.71396840998343   10.01706976907539
W   9.85244148209630   9.48498498284429   11.24596062234410
W   11.82193775413748   9.74738058378202   9.67169366759120
W   11.32888385424383   14.09585544120413   10.53279762477568
B   8.00186786184718   10.81175522304376   11.39179938793076
B   10.48959469216350   7.95939736011466   9.62312683918722
B   13.37118448819501   10.42074438366080   11.20061275661516
B   11.49558389270860   7.87774332444843   10.91062118080973
B   13.26124702424858   11.49924380291523   10.01924023224865
B   9.85883559889591   13.25964119051751   11.72363706896928
B   8.04416427739213   10.03133210268373   9.96538647621468
B   10.59176324568386   10.86823871492745   8.12973216741169
B   10.81832048624932   10.41073654697614   13.10669927475594
N   7.74093228617170   11.84648825182659   14.60593666586330
H   8.17586939233390   11.80159376557407   15.53017556043809
H   7.16903826834192   12.72867403346157   14.57288320092945
H   7.09799120440095   11.05939747085461   14.42587579384319
22
F:    ...  E:  0.184139789999989
W   11.88433619554917   12.47401445902385   8.77895763719003
W   9.18011112635612   11.68152570603638   12.87420340451233
W   9.29045197027063   9.27534138444438   8.53486276419556
W   12.35425087119845   9.08488245659360   12.36945347033061
W   11.72742757336834   11.98228056147376   11.60811777974281
W   9.63983975647250   11.70901806710580   10.03899597922493
W   9.86430639591623   9.47666450820099   11.26140633174942
W   11.82770609619596   9.74959179008508   9.68200322166468
W   11.33993859218679   14.10311810606170   10.55076430401161
B   8.01248854835168   10.79679547162121   11.41966313630109
B   10.49507422299030   7.96394058240772   9.62653471179701
B   13.37954519420061   10.42298598007438   11.20423304062857
B   11.50841796801908   7.87053363336005   10.90947366602044
B   13.26294305991522   11.50723875350106   10.02799303679383
B   9.86948818569005   13.26701248947567   11.72298646334408
B   8.03984926396644   10.02675746282503   9.99240905635581
B   10.58575483979847   10.87130940988117   8.14757584853752
B   10.84113755547370   10.40936031848826   13.11507093142107
N   7.69071846582226   11.85386582548743   14.51157178115733
H   7.99776807766886   11.46782437714810   15.41789812448698
H   7.17530941932079   12.71722136680829   14.65216452041178
H   7.13334135203898   11.18727605000571   13.92766717040909
22
F:    ...  E:  1.02145012
W   11.81954119172919   12.47970058447152   8.81948637281196
W   9.14396694103827   11.68676969174665   12.97884072205480
W   9.23925368852020   9.27675063825586   8.57499965990424
W   12.32968942124321   9.09532266124142   12.37406672321743
W   11.71294993792730   11.96728785869293   11.64112454126050
W   9.61255387262541   11.68921644215470   10.08987540590187
W   9.83265461031318   9.45801879076576   11.30361063562446
W   11.79830919803533   9.75460613375493   9.69664376604200
W   11.31102749706378   14.10528431265871   10.62206955391508
B   7.99092746889520   10.75239895336521   11.51248256129147
B   10.46921137587628   7.97012835145904   9.63866129107989
B   13.36316421360261   10.41802824809195   11.20157969346421
B   11.49388858388252   7.87469818312247   10.90810986798038
B   13.22833162444913   11.51409074050009   10.03564123093307
B   9.82563045262554   13.23777538946277   11.73762197756684
B   7.99566605935187   10.01515911653541   10.05405790872108
B   10.54237561076092   10.86428462501470   8.17009678298814
B   10.81524667749946   10.41517845171655   13.14885900147700
N   7.93354207055578   12.12744588470809   14.61657555700304
H   8.10511959177691   11.66342999751599   15.50311461124512
H   7.07385804662451   12.65679921081202   14.60596378104670
H   7.50481051752040   11.05297071731636   13.53517479623950
22
F:    ...  E:  0.0316428799999926
W   11.76192522114137   12.48963243139769   8.84482984208949
W   9.15714610436125   11.73651391794325   13.08989551992501
W   9.17014380149480   9.29566917606355   8.66344560639868
W   12.32437797330391   9.09668533551776   12.37344748633925
W   11.70954102157243   11.95054102316768   11.66520817300998
W   9.58366684555046   11.67708217986857   10.15316247802614
W   9.82679307691060   9.45917186581588   11.34715412569188
W   11.77143316086597   9.75436807583741   9.70079188472213
W   11.31080029929369   14.10673177952907   10.66828646965280
B   7.96574241905176   10.69982063571676   11.71165584472583
B   10.44510427889364   7.96817443224718   9.65281500363822
B   13.35304401750279   10.41134816077829   11.18483366987319
B   11.47975707304016   7.87386884139374   10.90834406970357
B   13.19883439399135   11.51194303188745   10.02462792034865
B   9.81542665888728   13.22990981548894   11.75206282442850
B   7.95353718259075   10.03974131788980   10.19029760348853
B   10.49643255491799   10.86177141444092   8.19514693488781
B   10.82378024839578   10.41511815188322   13.17909751635357
N   8.03212270719361   12.38333700079635   14.65151862798821
H   8.29039251789835   12.00536942085139   15.56685554612590
H   7.05791016912161   12.64984086723461   14.64302628859890
H   7.66888190274834   10.69324182183605   13.12572057982344
22
F:    ...  E:  -0.609505929999983
W   11.77438034120396   12.50766144782632   8.85591754846840
W   9.14094653433862   11.63985306215612   13.06429158580627
W   9.20867304137753   9.26813267295269   8.57340291111477
W   12.33733390622911   9.08962818397444   12.35891518033292
W   11.70178260089865   11.95350487024500   11.70646558259131
W   9.58262843340459   11.68652046841216   10.17234821614639
W   9.82951915489007   9.44431444425475   11.36544107016743
W   11.75394292439876   9.77115371092062   9.73616140646303
W   11.26963527085977   14.09539992492588   10.70397660377680
B   7.95241922757080   10.72683058198976   11.51874796365774
B   10.41145678876668   7.99064539020281   9.68455465607987
B   13.36063455447949   10.43335312088973   11.18946144130683
B   11.48704683019689   7.85490881492847   10.90914027067078
B   13.19700468260601   11.54241877820168   10.04286570796203
B   9.82865593894019   13.21588588857907   11.85815029079193
B   7.99933424430180   9.98274835361951   10.07908113472540
B   10.46337467355873   10.90082584854570   8.24866195094811
B   10.84301757978402   10.39604780254388   13.21070036085960
N   8.12694378423658   12.21710837070038   14.69275130500887
H   8.40667076804595   12.04248065535991   15.66125139125379
H   7.15519498127582   12.51030912699488   14.65940814503973
H   7.32432303618328   10.86182815700951   12.60245301081408
22
F:    ...  E:  -0.702818509999986
W   11.83325389263840   12.51964347772367   8.85838047215630
W   9.07775847569056   11.58690056155725   12.99669265954602
W   9.30123010544840   9.26978329689005   8.51875493167416
W   12.30004389498061   9.09499747258265   12.36290899491676
W   11.66919022040072   11.94651986200660   11.70706591382181
W   9.61411445173595   11.66849481669336   10.11920325846170
W   9.79302670172399   9.43888176856035   11.33122644508058
W   11.79587553402827   9.78848915156705   9.74355774936228
W   11.21106327907112   14.08546581861737   10.69511191627951
B   7.91570852756940   10.70060107789912   11.40019025127244
B   10.47899982968778   7.98379106812940   9.63972029931321
B   13.36092052310939   10.45366713111892   11.24018351710006
B   11.48799862159550   7.86563094495213   10.89838544323351
B   13.21959550838350   11.56085560892597   10.08939260697624
B   9.77048062951429   13.18747530225700   11.83231566010581
B   8.04702834646894   9.96439751767556   9.96046268462709
B   10.57310826926399   10.89916004573096   8.19540521929866
B   10.78572495080954   10.36829951631890   13.17553693900609
N   8.11224542418101   12.08644743911967   14.67057574821711
H   8.31677452171778   11.69496525937679   15.59509213748733
H   7.21812700121679   12.57462331693378   14.69745267254247
H   7.18837409727933   11.03357942779725   12.36536187236814
22
F:    ...  E:  -0.744038310000008
W   11.89903290020201   12.53214270568224   8.86238741874797
W   9.01566461900150   11.53123048506733   12.92666801964024
W   9.39381675900325   9.26467727139971   8.43998764423659
W   12.27214216605927   9.10985621865109   12.38265907693810
W   11.63366823243293   11.94948070729644   11.71755995134857
W   9.65692231968519   11.62941596410568   10.05222991290549
W   9.74674792820954   9.41144283020361   11.28834069673479
W   11.84510501332521   9.80315498975492   9.76341350470173
W   11.14775663081140   14.07593520209876   10.67753312298978
B   7.87694331062231   10.68799079667999   11.27059831199194
B   10.52916595136564   8.00007390212452   9.61149213906364
B   13.36111083588996   10.48075620325761   11.29486662024665
B   11.48863551521351   7.88631357206943   10.91236270303048
B   13.24481991786634   11.58594504857796   10.13818510269304
B   9.70428511365180   13.15103175156051   11.78806577331001
B   8.06478857974376   9.94558213835035   9.84622594581445
B   10.68444570798305   10.89147475172828   8.16094427282210
B   10.72223314072458   10.35078010318281   13.15376442457550
N   8.08485927524503   11.93942549725985   14.63471479257226
H   8.21792291518009   11.39683814794304   15.48881682746667
H   7.32425100345482   12.60634676276190   14.76658374715366
H   7.06775269278492   11.16559151462202   12.07356935335727
