33
F:    ...  E:  0
W   13.51249726300227   11.37560546305036   13.03546232850776
W   14.14378656148575   12.62009612598279   10.85727918824386
W   13.53514971962250   11.05818165836852   8.96472739320028
W   10.99082010052130   10.13442670471733   13.17877699934071
W   10.98303191617734   8.71357518693872   11.03340515881257
W   10.32713702388389   13.68086908144132   11.79359942794930
W   10.68652807512841   11.74639735669306   8.57379628996329
W   7.71618987851601   10.92914568163520   11.07355605939289
W   11.74074520974950   11.45468067940656   10.96611449740439
B   12.94821590532548   9.35702305641207   10.28121292441071
B   12.86909277793367   9.51910916429530   12.04213798788057
B   14.04829965894059   10.40621281318152   11.08297775530805
B   11.53567524431906   12.36723830630457   13.30662886472935
B   12.55818782211842   13.29261067690453   12.34252370350054
B   12.35602770337894   13.87959816983887   10.75262711174438
B   11.08395291753457   13.67794234616928   9.66198482380948
B   12.54639842921604   12.98741344657971   9.21013395516024
B   11.75313422351227   9.78579757400471   9.15495329542260
B   9.88903665913527   12.12816574312983   13.34528645522980
B   8.27684045856168   13.09153479890555   10.85309554725185
B   8.52007121320959   12.45889050112561   12.42753497568264
B   9.42839877479576   13.50487540977373   9.64067748931816
B   8.85894163531022   10.83765568006546   12.96612762037909
B   8.93063085393999   9.26996959670824   10.34534294297580
B   10.11916172528481   9.59149856829413   9.15026028026516
B   8.77796078866087   10.57554215569151   9.18411941142244
B   9.14696330770737   9.47635717120742   12.02502631346947
B   8.35516384136286   12.20524238841889   9.32550808553023
B   9.60874052342402   11.92234814603621   10.57838199913427
N   15.10347581701689   11.13257487771974   14.64082350427083
H   15.94818321999936   11.63140287442469   14.34752735600682
H   14.81828306272347   11.51010254765160   15.54933061220729
H   15.35470096615624   10.14933932657710   14.78048291972928
33
F:    ...  E:  0.0106153199999994
W   13.51864487931528   11.41804764176903   13.02153243141171
W   14.15381985998097   12.65772378229108   10.85604081963055
W   13.54621453310405   11.09264908163425   8.96419019997199
W   11.01015727978075   10.15783133847018   13.18208132170576
W   11.00367227099023   8.73932416482172   11.03542961306344
W   10.33386200400652   13.70721549840235   11.80353113063088
W   10.69614856135302   11.77732431007282   8.58042661194027
W   7.73168192277439   10.94725258215466   11.08401109297687
W   11.75394954645823   11.48247243916239   10.96399159632545
B   12.96742994073070   9.38577789350495   10.27811970460719
B   12.88805022978555   9.55154838807076   12.03953080218966
B   14.06411878376835   10.43969169854448   11.07724128914723
B   11.54460008029807   12.39654665081916   13.30863521921902
B   12.56150497726681   13.32759983136602   12.34233065507452
B   12.36224084424546   13.91445901081693   10.75506099227600
B   11.09020820572978   13.70993124493437   9.66983145724391
B   12.55256061531255   13.02001773836112   9.21555886915975
B   11.77046458270776   9.81262183545138   9.15223753794628
B   9.90022915870789   12.14859463461150   13.35707677101364
B   8.28564328251167   13.11222008397942   10.86799949381641
B   8.53220716653940   12.47558423037262   12.44042508615182
B   9.43555399825431   13.53189024796219   9.65421877345537
B   8.87589767772740   10.85401377293962   12.97624544183806
B   8.94977700675482   9.29516246851737   10.35137353367647
B   10.13675111608599   9.62085220362314   9.15517716061841
B   8.79475873087728   10.60387446196975   9.19346773773552
B   9.16740771717562   9.49542570592171   12.03216335994080
B   8.36462918451528   12.23082178196289   9.33865029898159
B   9.61987227168071   11.94799973195779   10.58883655732742
N   15.03999608928815   10.98301173884259   14.61674227579637
H   15.97289508393788   11.28733648226184   14.35716502110097
H   14.81355672949577   11.38119084262881   15.52587235762138
H   15.03291894649327   9.96540975945508   14.68622806405951
33
F:    ...  E:  0.180675229999991
W   13.53531553655523   11.44395291842817   12.99547676261793
W   14.17272160295194   12.67455592223239   10.84859555241674
W   13.55790541412278   11.11120082753737   8.96352749998112
W   11.02661219466729   10.15420306350426   13.17746221723986
W   11.01468735751538   8.74687485666208   11.02844038431864
W   10.35305152997800   13.72115167569642   11.82721357311915
W   10.71797814689018   11.80758168085866   8.59242708304192
W   7.74726237762397   10.96891001783585   11.09603533530785
W   11.76770998257109   11.49012813962003   10.96066115062522
B   12.98286570951547   9.39143333132359   10.26831550239147
B   12.90524420744278   9.55299237018909   12.03298502734679
B   14.07967320412923   10.44259906133422   11.06583599744064
B   11.56289076065253   12.39918999584953   13.32021508245954
B   12.57221262337009   13.34116440390370   12.35135500599512
B   12.38251047631787   13.93713121255916   10.77125303085513
B   11.10980673083722   13.73799265139541   9.69140967364313
B   12.57058493197095   13.04674905851712   9.23220945562308
B   11.78354687106696   9.82739806868979   9.14869794098695
B   9.92150506270504   12.14653419281211   13.37186207531474
B   8.30871471416971   13.13315319431584   10.89446444332118
B   8.55408201887490   12.48763221305976   12.46230193853988
B   9.45635497276608   13.55951556022979   9.67796269755404
B   8.89572743741396   10.85854711875110   12.98237861172976
B   8.95952574058758   9.31494835038990   10.35172222657795
B   10.15028065547583   9.64654050906076   9.16059271588039
B   8.81458246372113   10.63849130384586   9.21016849784772
B   9.18086891724036   9.50363977763386   12.03377146261027
B   8.38189759646560   12.26457017265987   9.35724864039481
B   9.63566402687714   11.96916792416259   10.60076488273597
N   14.98038108793931   10.92419765406778   14.58690302028180
H   15.98094619422518   10.95354195687987   14.41325067881119
H   14.78257317143401   11.30785618368102   15.51068603551689
H   14.62573955957929   9.96787790996798   14.48522907512819
33
F:    ...  E:  1.33928856
W   13.55215727946840   11.36705258680307   13.03988527522842
W   14.16005197796582   12.62584463747538   10.86640585121253
W   13.55445901916184   11.07650274761499   9.01031044541018
W   10.99491393149168   10.11442630750740   13.14747847373776
W   10.98396340339958   8.69573227150899   11.00723409007260
W   10.36594412956432   13.68347645879227   11.84105242538357
W   10.77158198282038   11.79774653410126   8.61262166515178
W   7.74626405209671   10.97995884927949   11.10063792294135
W   11.76906068093602   11.41169046203319   10.97142740589123
B   12.98831491823521   9.32581187748616   10.26999263392933
B   12.87959889620107   9.48029186547067   12.03747032467681
B   14.06744587104868   10.38099857292823   11.08293182686987
B   11.57046730294257   12.35824429653801   13.34188378414459
B   12.55832754540768   13.29728178937606   12.36025399122379
B   12.39790385288907   13.91729032791860   10.79953583677449
B   11.12328305829106   13.73087296819911   9.70486786584308
B   12.59369322754262   13.05144975571820   9.25631463344410
B   11.77418167342016   9.78207171829488   9.16018253010190
B   9.92719255665448   12.11240672161068   13.37146988340116
B   8.31711652476917   13.12470138357392   10.91358971772151
B   8.54121363790435   12.48947738800609   12.47867146066736
B   9.47319793140976   13.54919194025232   9.68403800770900
B   8.89450869466866   10.82734329372913   12.97672729951883
B   8.94345710209533   9.27192625567229   10.34029103358487
B   10.14089978350970   9.62114901516012   9.18324720609666
B   8.81545181414968   10.64175432929030   9.24366026233552
B   9.15065142310688   9.47734691684480   12.01695047567436
B   8.39420501449677   12.27095218350764   9.35658137917765
B   9.65092169774007   11.95714206899122   10.58998468470777
N   15.00826770320936   11.30026769363342   14.58338168227071
H   15.99841957288140   11.06691360272795   14.51812172846145
H   14.78501536102658   11.51966359187737   15.56856637493481
H   14.57929165714905   10.16444286573120   14.03565509935569
33
F:    ...  E:  0.565118369999993
W   13.69308894368888   11.24547988945140   13.18801280940268
W   14.16580048535561   12.58493818747147   10.89380234176009
W   13.53327520795851   11.07458046000307   8.98223705326892
W   11.02253091640877   10.10023732250431   13.16309813753982
W   10.96600345680128   8.68206119369171   10.99789440759248
W   10.35921612982792   13.67223837941471   11.84564351763316
W   10.75202932709477   11.78112445435233   8.59752779387571
W   7.73561609276171   10.96152387845724   11.09469839160192
W   11.76808039039227   11.43247157124872   11.02154688266296
B   12.94928266911975   9.34757665414783   10.28655683683775
B   12.83627817771809   9.48051544601154   12.02896038750322
B   13.99700562461007   10.39904751638703   11.11196063629063
B   11.59093276869945   12.32811612778280   13.32420178651478
B   12.57397744210887   13.25479670298774   12.36366648873182
B   12.40196922303231   13.86982470184670   10.80745702502182
B   11.12782567787774   13.70148622012551   9.69573167993147
B   12.59752008285188   13.03553392963583   9.24922969226471
B   11.75401819199776   9.78035081437473   9.15553273302489
B   9.93711435371855   12.10380055069803   13.37481457238103
B   8.32339881241220   13.11392161743569   10.89570295062744
B   8.55333117448749   12.46684692849763   12.46426392248304
B   9.47556216682545   13.53283741241649   9.67992712010563
B   8.88998957838338   10.82322389219706   12.96511242926842
B   8.92926460789037   9.28278442415472   10.33773016030557
B   10.11756134967103   9.60069421332787   9.15226591359674
B   8.80852612579363   10.63016439481317   9.21087104722150
B   9.16060687701965   9.46023161895865   12.02751613795041
B   8.38313525699007   12.25259457975845   9.34941942185302
B   9.65290687847513   11.95098994189485   10.57891135297960
N   15.05191314815411   11.74128877813771   14.66410894172538
H   15.95830545323318   11.25112306716591   14.56466734941573
H   14.79767469680728   11.63058854403843   15.65977888203834
H   14.60768198948694   9.89842986426448   13.73857447424388
33
F:    ...  E:  0.118745459999985
W   13.67185226035073   11.16822698324163   13.18081340365172
W   14.16296965471658   12.58167252946780   10.95368454729393
W   13.54622824957835   11.07780124398930   8.99778941854430
W   11.03843551497636   10.09105766586355   13.17747427037475
W   10.96699161547627   8.70899247259037   10.96596100247642
W   10.38837946472406   13.67893021913835   11.86424458087426
W   10.71802332631514   11.80390057916425   8.59335663316491
W   7.75470783558793   10.98252336949468   11.10635246300548
W   11.77873290306315   11.46024023560838   11.03341678693538
B   12.92992201281836   9.34342295222035   10.26456336987702
B   12.80741332320600   9.46787028298659   11.99930597626129
B   14.00220797033882   10.39736385988318   11.07653900952413
B   11.62397517021758   12.31679189701638   13.35001107740191
B   12.59487481627526   13.27629337432648   12.40111485307572
B   12.41173405203915   13.89501143838883   10.83629236498375
B   11.14788170715869   13.71391844225080   9.73033677567080
B   12.60738510059629   13.01801951621647   9.29478626629425
B   11.74498991291435   9.82733454799533   9.14834147014824
B   9.96927960497598   12.09808983748510   13.37345567358878
B   8.34969047487624   13.12265876806889   10.92214171798460
B   8.56228875175286   12.47924946765441   12.50298524674940
B   9.49620265763073   13.54703510697430   9.69943205604587
B   8.90085131347047   10.83274878339196   12.97245410947857
B   8.94741934324413   9.34106594407909   10.32484470116038
B   10.10250658044961   9.63421469986892   9.09672060384820
B   8.78200030799654   10.63221014412967   9.15169445243545
B   9.18067395621620   9.48280738798243   12.00854166990122
B   8.43331597855179   12.26096738578813   9.36356042646054
B   9.67085245480940   11.95167236933451   10.61013909863906
N   15.03086969542620   11.62155211130905   14.63690792007978
H   15.82130412397529   10.97064654396527   14.71976202575131
H   14.85858357351029   12.02487917512634   15.56266453509463
H   14.46887957041536   9.66225394265375   13.55173477087854
33
F:    ...  E:  0.107661059999998
W   13.63403428938450   11.26885431555586   13.15910635011615
W   14.17296633775413   12.64698819282518   10.92642570038496
W   13.56887010898288   11.09795203310946   9.01971492709167
W   10.99854592356133   10.09232767384666   13.16174741647733
W   11.00447881687424   8.72775015426811   11.01244469000272
W   10.39658058398575   13.68019365637628   11.87206739892091
W   10.75428704136947   11.82089829379035   8.62330778748172
W   7.75946741331086   10.99253919563348   11.10221163218856
W   11.79546824308907   11.44192073233935   11.00905097889750
B   12.99857224474289   9.33663011447395   10.30225318808291
B   12.88150975088409   9.50063896590091   12.06655557204840
B   14.04608460670568   10.44569360499968   11.06235855883488
B   11.62457599922969   12.32028527909964   13.34717580217765
B   12.60995693801841   13.29264279103555   12.40174162535009
B   12.41976453574147   13.92956500665083   10.83834522603430
B   11.15270875026929   13.74307869820827   9.73808431013699
B   12.61444953705934   13.04517600463019   9.29759295569812
B   11.79505106312796   9.81088800361274   9.17147826377257
B   9.96532717561430   12.10373428397761   13.37654657518986
B   8.33608840046951   13.13929205347054   10.92385712413134
B   8.57106032309698   12.50141579863178   12.48865421401887
B   9.50228314903130   13.55560977165507   9.70598870214842
B   8.90102563408510   10.83253520553140   12.97354558724899
B   8.95341344039774   9.30892805224017   10.33494382683411
B   10.14991989384590   9.64524649292181   9.17364617450971
B   8.80737304587210   10.63928989401044   9.21413840191134
B   9.13892106314041   9.46830176962182   12.02435223492014
B   8.42648012365112   12.27997210924806   9.37329303778168
B   9.66835789930208   11.96943341561932   10.62430692351870
N   15.00690284154543   11.46125647237339   14.62232078655715
H   15.77735803670718   10.79574124305118   14.73851845954091
H   14.90616920967087   12.02535036539096   15.47399861930538
H   14.13337085713320   9.55129363355520   13.31165022634085
33
F:    ...  E:  -0.219363420000008
W   13.61612462781791   11.37572743157862   13.12951806410378
W   14.18491242839692   12.69895643834332   10.89600226845203
W   13.58854195283318   11.11591610020827   9.02854839469256
W   10.96530233320703   10.10874152255156   13.17606576468524
W   11.02273126795155   8.72423836133756   11.06282407646359
W   10.39732659503363   13.69761428813131   11.86432563894634
W   10.81020452019740   11.81740041971277   8.65887210075481
W   7.76518428527568   10.99001607272143   11.10665237236793
W   11.81587558894534   11.42390301287436   11.01918361698002
B   13.05796519375060   9.33807639456303   10.32040865024128
B   12.94934269740529   9.50687649730963   12.09854421702277
B   14.09357731207260   10.49004198999470   11.05505461278007
B   11.60385754225643   12.33175945944580   13.32413302396950
B   12.61859496439608   13.30377553683733   12.39914809957327
B   12.42799873870733   13.96062968679619   10.83737227092472
B   11.15435144324559   13.75890011142013   9.73921978003592
B   12.62364368475328   13.06770495617214   9.29640623533079
B   11.84184836613365   9.79012343678253   9.20236542892448
B   9.94967051193188   12.12031262405917   13.38743203400872
B   8.31929337143890   13.15487582841816   10.91783569839202
B   8.58179994897546   12.50512889925190   12.46377341611328
B   9.50547929006225   13.56656885483751   9.71423761822400
B   8.89902302891828   10.83638436083204   12.99457502219722
B   8.96247821718679   9.27392394007193   10.35857545700175
B   10.20565132187327   9.65064708225187   9.25800854249989
B   8.85839692179797   10.65880631330282   9.29180196858009
B   9.12733481053526   9.47071706777435   12.03747929121472
B   8.41985823369148   12.29115445307862   9.37978879858216
B   9.67400747307015   11.98925135748079   10.63342713018038
N   14.96111816267350   11.35533673091463   14.60703333226356
H   15.76072337937185   10.72117562910049   14.68318867759607
H   14.90844545898021   11.95093661060558   15.44261304954716
H   13.80075960476762   9.42580180889481   13.08700862500482
33
F:    ...  E:  -0.292971080000001
W   13.61927764438258   11.37693048839907   13.11567546667464
W   14.20076257509554   12.69431945067203   10.90225347960190
W   13.58863975245674   11.13834611803622   9.02103280891844
W   10.97537630249814   10.11880036989024   13.16674999632950
W   11.01878412995934   8.74274117463896   11.03296859322162
W   10.41865282704453   13.71696470969843   11.88094829007581
W   10.82368642122251   11.85870728119102   8.66655103507373
W   7.76843297778746   11.01692594973518   11.11104665740465
W   11.82433735777374   11.43775755054336   11.01066745230963
B   13.05133238081750   9.36017223680904   10.29309968823070
B   12.97443095701895   9.49116360864203   12.05456678583176
B   14.09705369380901   10.48331969206661   11.06051812681186
B   11.60821704158793   12.32805485529817   13.32014936452095
B   12.64067950732171   13.29441682951672   12.41174219601578
B   12.45095972670473   13.97989780984691   10.86254451429888
B   11.17147129270468   13.79773898017396   9.76092757719200
B   12.63619274302201   13.10082087981425   9.30845109435599
B   11.83670985095788   9.82433934227608   9.18598649380483
B   9.96094255483522   12.12535291647291   13.40161782710096
B   8.32794249586349   13.18654964185522   10.93634332261566
B   8.60414707593546   12.51372859057242   12.46743503365974
B   9.52023760636981   13.60340266679136   9.73872281403138
B   8.90876365003925   10.84588981302397   12.99573839159759
B   8.96134881484296   9.30234793434659   10.34790744407023
B   10.19975675691584   9.67791168854540   9.23730671407516
B   8.87002686317840   10.70657781417400   9.30780997262149
B   9.14167745648958   9.49041441923050   12.02462577030228
B   8.42150568437579   12.33708261653089   9.39561677274239
B   9.68082946617307   12.02000481100005   10.64614932841277
N   14.91699525914009   11.27981617794147   14.62106574327372
H   15.62496493722399   10.55354752700913   14.74661708189423
H   14.97487307701901   11.95876475970390   15.38662185660157
H   13.65241439708725   9.10861457321013   13.05196558398494
33
F:    ...  E:  -0.303569650000014
W   13.63800540090457   11.39513850854078   13.11849406732041
W   14.21900049053479   12.69511960045626   10.89983152012136
W   13.59319527709075   11.15730349574498   9.02468819713799
W   10.99753612746392   10.13277809486432   13.16655730157143
W   11.01289316433305   8.75571332731763   11.00244359869562
W   10.43153082071840   13.72994649004476   11.89295237733514
W   10.82087563418391   11.88754813142247   8.66775787303688
W   7.77640601118183   11.03778940870951   11.11535311925065
W   11.83967573808357   11.46347748389431   11.01472599824451
B   13.04027061500914   9.39449171447581   10.26989383053714
B   13.00768642908191   9.49144707847177   12.06112636930127
B   14.10883239301046   10.47660410462281   11.07814341568158
B   11.62204363260367   12.33776925095419   13.32864204209034
B   12.64999431411346   13.29745358167218   12.41678985332336
B   12.45911865125865   13.98509011472884   10.87231243114649
B   11.17861381316551   13.81929271608923   9.77210908596483
B   12.63758331594009   13.11973521156018   9.30848700325462
B   11.82384419692199   9.86409982794822   9.17937529368739
B   9.97863443228729   12.12418559122058   13.40992502205597
B   8.34212007418707   13.20273101864199   10.95621884068830
B   8.61717765264526   12.51547425448152   12.48353016063461
B   9.52684257137787   13.62783752896059   9.75494476484783
B   8.92853169511597   10.85295650901248   13.00428224974159
B   8.96877578021868   9.33376618490110   10.33788737813987
B   10.18849123351740   9.70464891269207   9.20183298487263
B   8.87049116456916   10.73823334331277   9.29991492184576
B   9.16871730779812   9.51496520839683   12.01425520804903
B   8.41681348400435   12.36477378306548   9.40984412386111
B   9.69467126611595   12.03741069452576   10.64582844759518
N   14.90085284163363   11.24906527159100   14.63911617593782
H   15.53869135973277   10.46948184314376   14.80202416767326
H   15.01538259350768   11.94187537369023   15.38010508687061
H   13.45812379534326   8.75321961849972   12.94203036713882
