33
F:    ...  E:  0
W   13.46964656635994   11.36997393241237   13.91820099217778
W   14.10619979819302   12.76722692812891   11.78971747697878
W   13.52392184364661   11.27930868333259   9.82028688747549
W   10.97607480753086   10.07064185839524   14.03007824569711
W   11.01352746024889   8.80032200433447   11.79927529866030
W   10.27313684063560   13.68908041102683   12.81074086448550
W   10.71036925858019   11.95232167927910   9.50670178089677
W   7.71064403776758   10.94169806596063   11.93460103795011
W   11.72768509267426   11.54838811131059   11.93235428007308
B   12.97372352117167   9.50298625411899   11.07354428863992
B   12.88494499066877   9.56041575060569   12.83620945583374
B   14.03348371242112   10.54593048879510   11.92544779711968
B   11.49464312863965   12.32793063884820   14.26242150518337
B   12.50920693009868   13.31862585876936   13.34561639826440
B   12.30527218495297   14.00475202419367   11.79496390710490
B   11.03485300998827   13.83074260301648   10.69111563110723
B   12.51534813367801   13.19356369932810   10.22022625367033
B   11.76992596699139   9.98114280498379   9.99227914367818
B   9.85039094540366   12.05008307861019   14.27669370383128
B   8.23499404781796   13.12419513788749   11.83962664128342
B   8.47742229999853   12.40962726385918   13.37989442623489
B   9.38204776023199   13.62411708634436   10.64980653329745
B   8.83317184267127   10.77041385684417   13.83167277544220
B   8.95342055140776   9.35090286009448   11.12755606249027
B   10.14508870090963   9.75720991079052   9.96164615803993
B   8.80040465564872   10.72914659553524   10.04780613929180
B   9.15062583946425   9.46414492704750   12.82060893355344
B   8.32270394916565   12.33506352704686   10.26436092713249
B   9.58827937329272   11.98891097704111   11.49481535076604
N   15.20550695929956   10.62057704204818   8.43142210778377
H   16.07818051528786   11.03278075258009   8.77669187063133
H   15.32710295670171   9.60364453152163   8.42541147986357
H   15.08947559610552   10.92555393356281   7.45962892301588
33
F:    ...  E:  0.0339376999999956
W   13.47897905123854   11.39299741521970   13.97326499399213
W   14.14175021632800   12.74229912912429   11.82669300126518
W   13.55421120723721   11.23623834290259   9.88051170773445
W   10.97119478592178   10.10814884428650   14.08307221794542
W   11.01505811338178   8.80125766033126   11.87007114076996
W   10.30936375627330   13.71587321428608   12.79454638425667
W   10.76563333339397   11.92426565329362   9.52325227337186
W   7.73248541330643   10.97607507965295   11.93561476811491
W   11.75016714599806   11.55381506752503   11.97388335793349
B   12.99132395095736   9.47846597648824   11.15562366678772
B   12.88544159122230   9.56263219023341   12.91602123340213
B   14.05115210447060   10.52691622339020   11.99695006491351
B   11.51071882643627   12.37519511688694   14.28492772072423
B   12.54252206507416   13.34042238694756   13.36071682672574
B   12.35344780675516   13.99865103304707   11.79400625896104
B   11.09172315517764   13.82261989314708   10.67925633843324
B   12.57002391765440   13.16377215012644   10.23314317628098
B   11.79447583895901   9.95319387089551   10.06769769867994
B   9.86478516203259   12.10310073634919   14.27353455156713
B   8.27620721859704   13.15462580735299   11.81158078937390
B   8.50209260871808   12.45766920642069   13.36234052707083
B   9.43877908670056   13.62315768099082   10.62448649282920
B   8.83561410530827   10.82340679179503   13.84550409233590
B   8.96842118501245   9.36211488866978   11.16590388001038
B   10.17043592025123   9.73546159540467   10.00042355685450
B   8.83656354183675   10.72940377374101   10.06130762699005
B   9.15217570536102   9.49881702358004   12.85855856709870
B   8.37174481449729   12.34035890519372   10.24877359970008
B   9.62016501197966   12.00268728091301   11.49426168639260
N   15.06032657146466   10.55411630857978   8.27669347434707
H   15.86501563601505   11.18071832892937   8.30122156720875
H   15.36462701730559   9.61073286303960   8.45207000912947
H   14.63479741278807   10.62221283890952   7.34551002645373
33
F:    ...  E:  0.126847600000019
W   13.48657145626932   11.40838835963489   14.02305645403491
W   14.18546851944401   12.71904159966812   11.87212607961410
W   13.61834756069976   11.17941281040677   9.95953005423926
W   10.96537028523949   10.14008727713754   14.12249520092013
W   11.01799830052187   8.80141116341110   11.92364705526174
W   10.35268769241527   13.73362153659473   12.76840853411018
W   10.81709742901894   11.88595994764596   9.52940101622249
W   7.75684861803479   11.00555258554007   11.92766522444576
W   11.78031306817234   11.54445836433017   11.99845496848573
B   13.01097178091939   9.44852204424512   11.22676690628424
B   12.88092415312182   9.56188754741863   12.98601839201726
B   14.06887458678701   10.49993778094800   12.07413622923252
B   11.52660052069335   12.40798377566263   14.28880029362313
B   12.57237807015280   13.35504050141733   13.36280873686067
B   12.40337260413529   13.98537847812280   11.78191881644942
B   11.15667931058804   13.80084490727178   10.65468926287047
B   12.63403182047053   13.11691634273831   10.23603109762325
B   11.82537565154859   9.92837388838161   10.11947092865509
B   9.87960392577328   12.15037853872804   14.27011450695023
B   8.32633368902217   13.17754630818839   11.77533228961261
B   8.53127278317465   12.50106571433803   13.33918685791804
B   9.50181374382647   13.61130880103407   10.58836180115334
B   8.84361194507319   10.87253735648070   13.85218919196283
B   8.98186657365039   9.37151263446605   11.18857645367487
B   10.19771971157329   9.71103407630188   10.02195007704667
B   8.86969280045933   10.71620229459077   10.05907485620567
B   9.15745831532356   9.53358909927438   12.88218551782466
B   8.42194611715966   12.33526307228717   10.22659557360338
B   9.65908373992724   12.00530439453375   11.48708737701425
N   14.91988564016637   10.54255486424824   8.20675508542491
H   15.48891592760187   11.31692782406923   7.88300543473839
H   15.51221712168162   9.70113689748012   8.26122191572307
H   14.12008981500806   10.40224249105773   7.57436108785135
33
F:    ...  E:  1.72404840999999
W   13.50143661774845   11.39695400267229   14.00405233703228
W   14.20399297616443   12.73299184015526   11.88070932236550
W   13.70446601919120   11.16016596844667   10.00238702730853
W   10.97934072359980   10.13364571391509   14.07440060976970
W   11.01915333460229   8.80157278756038   11.85099405718243
W   10.38286787786537   13.72652852070106   12.74356228715115
W   10.73597967655214   11.86266742042723   9.48938439459505
W   7.76330871916424   10.99753318969616   11.92738479675321
W   11.80888164764665   11.50080313585909   11.90219947592248
B   13.00585280698033   9.45969100472941   11.17617345525783
B   12.86769423537899   9.56693983614749   12.93051751526651
B   14.08712774814982   10.48072633946185   12.07309743308493
B   11.53873445339041   12.37529067549237   14.20125228386123
B   12.57846725869227   13.34645295740732   13.30435940325293
B   12.40613421348452   13.96612486350768   11.72454346739391
B   11.16450981644849   13.75395349569827   10.61210660587054
B   12.64886937313173   13.06850036812839   10.19658833132370
B   11.82870292531513   9.93895156481283   10.02922618057789
B   9.89624162496091   12.14771043625540   14.27573820817602
B   8.34668501706675   13.16282609591934   11.76372700210861
B   8.55867688582686   12.50595267394536   13.33134114959178
B   9.50924964530834   13.57754340085007   10.56831443222475
B   8.87199516318844   10.87112788992803   13.84408217310749
B   8.97397271430786   9.36216627144940   11.15574319731672
B   10.17820880524356   9.70537514263039   9.95626411689668
B   8.81056853397076   10.65730098797644   10.00450645502909
B   9.18334154944167   9.54088817706375   12.84592011730321
B   8.43936653174218   12.28582498830148   10.22633509014397
B   9.68482599031907   11.97837714873855   11.50430159998675
N   15.07138751384796   10.50810340532751   8.49625532734210
H   15.41611037803853   11.47179510702695   8.34264440801321
H   15.44109160771876   9.92587929428335   7.69886478633856
H   13.86418089316586   10.50105857313867   8.33444623010650
33
F:    ...  E:  0.258529750000008
W   13.54501534965823   11.41298282901854   13.94229361013832
W   14.23103954976072   12.72398265571832   11.83436447473876
W   13.65524107990609   11.07133583000968   9.65003812901806
W   11.00180254587851   10.11485207445674   14.02816363083416
W   11.03520863525971   8.78765117835393   11.80907201759930
W   10.37205274056195   13.70760440517378   12.75738137372179
W   10.66743290066816   11.87990674278669   9.45271065490292
W   7.73998843068824   10.97245735093762   11.93371867916770
W   11.77875259522010   11.52796750551146   11.84509429060952
B   12.96592949217644   9.53193566419969   11.09504924518605
B   12.87923773184956   9.62708590368827   12.85492280274335
B   14.00862828952433   10.57515387768375   11.91470381223549
B   11.53837091340060   12.32142171384997   14.17935949623598
B   12.57823386085110   13.32320164756906   13.28404899202959
B   12.40958194160615   13.89892971939921   11.68124251492111
B   11.15623714044979   13.70730233493020   10.59780664527631
B   12.64924185278142   12.97386031689252   10.15985378206812
B   11.76641392716964   9.97307003529595   9.99151097551707
B   9.88776451243405   12.10763014110749   14.29316390282309
B   8.31994195428452   13.13869910416255   11.78430579981160
B   8.54308863034256   12.48190459495208   13.35689892350539
B   9.48626007967657   13.56013357069071   10.58800115639342
B   8.89416737211227   10.83070234763929   13.80766682147332
B   8.97842036136334   9.36121457559694   11.13104470008605
B   10.14322585286786   9.71555212154310   9.94733130383578
B   8.77294197450233   10.66366947725948   9.99969020079584
B   9.20882403165313   9.51354988672054   12.80823891725702
B   8.41042045914464   12.28705135292943   10.23682284521157
B   9.65549830409276   11.96389396400866   11.52042349141288
N   15.51599265849045   10.63293721643929   8.92902981196702
H   16.31522026412177   11.26488648109060   8.83571530012495
H   15.55001763097746   9.96801497587204   8.15470688639174
H   12.81123021417979   10.85088168216657   8.06704808962040
33
F:    ...  E:  0.14218286000002
W   13.54673946689886   11.39391760149563   13.92416890217591
W   14.21825468963816   12.75402172420806   11.84949892846769
W   13.66604276392312   11.08236859066831   9.70042138836972
W   10.99584552563760   10.12680088748084   14.01915590348160
W   11.00676258440028   8.78052833020798   11.82751800462623
W   10.37913450372990   13.71179960464073   12.74418829543682
W   10.66058283373207   11.88056514569629   9.46243303862323
W   7.73594185823622   10.98002459248902   11.95075265024812
W   11.78504038718132   11.53790241632893   11.85347575438610
B   12.92798910653732   9.49653313338671   11.09991191850451
B   12.89076982905680   9.61475918060142   12.85133718472168
B   14.01524281532888   10.55257264232102   11.86163264000050
B   11.55369443540876   12.32905442960461   14.17615000560711
B   12.58747348409173   13.33092771178316   13.28506222302921
B   12.41663769439466   13.93074566679584   11.67933027101225
B   11.15556475008500   13.71425312649815   10.59600973186577
B   12.62443952401847   12.99500173550984   10.14875094236182
B   11.76518902252317   9.92903601103991   9.97465953626918
B   9.90002773143576   12.11674700881878   14.29096444836549
B   8.33608890177708   13.14245700478524   11.78926585335834
B   8.54671637668767   12.49790617742560   13.36876344990404
B   9.48848455893450   13.55898456364955   10.58781396019031
B   8.88048077678977   10.84756085790040   13.83884272479887
B   8.95276285980540   9.35661071677487   11.15297527595258
B   10.12561948471460   9.70922346383125   9.95205142622458
B   8.75869507711604   10.65866491448651   10.01856961640532
B   9.17247675134298   9.52716170680030   12.83147189213808
B   8.41656838950665   12.27533935403862   10.24575140357274
B   9.66446701831643   11.95461124925006   11.52480174913242
N   15.43449419422099   10.81707749636066   8.76453624588806
H   16.30334353671115   11.32346516405892   8.93741486722961
H   15.55040724750125   10.17830251277219   7.98571076081861
H   13.00944509797206   10.36649855594480   8.17803228448764
33
F:    ...  E:  0.0927886300000011
W   13.55319725631897   11.39793236114977   13.95042210837485
W   14.22267734916266   12.75688139292983   11.84605920254754
W   13.67804866466994   11.07758689954432   9.75895501062095
W   10.99865892078667   10.14662000090413   14.03843567694874
W   11.02025013071534   8.78591283050895   11.85929257352835
W   10.40781971321834   13.72776114904340   12.72426499608601
W   10.69805998956966   11.86217028956534   9.48080784366551
W   7.75834468802774   11.00761750766604   11.94729999996467
W   11.80912327805042   11.53240577508579   11.88450281719620
B   12.96653185835395   9.45922661691545   11.14921590787585
B   12.90522040424432   9.60438215852453   12.89244781164112
B   14.04650368202000   10.53492104623330   11.90220769577189
B   11.56493769924662   12.35531344125584   14.18325235345111
B   12.60751220789652   13.33335247375541   13.28272625028052
B   12.44916202295149   13.95514494441087   11.68262001612398
B   11.19110860943965   13.73187664001307   10.58873863201888
B   12.65884873738342   13.00384864715845   10.16035610982517
B   11.80698024856047   9.91242273939136   9.99674903034298
B   9.91346040616429   12.15070653353997   14.28871223955522
B   8.37014561475516   13.16509099853241   11.77045467534490
B   8.56784463096673   12.52337663801477   13.35101738060979
B   9.53099004845870   13.56515435698872   10.56918291039608
B   8.88470894285945   10.88046593613374   13.84719514325186
B   8.96218250100655   9.36142302580995   11.16588046410998
B   10.14567253464092   9.69372693469984   9.95912644630483
B   8.78630469899834   10.65355856839421   10.02074670424286
B   9.17558888669897   9.54799762848782   12.84648124390872
B   8.45014104873580   12.27683612076213   10.23386019509700
B   9.69022352041463   11.96171744710853   11.52152755739504
N   15.27185358208774   10.87805191135041   8.55830599596595
H   16.12706057208226   11.42118218040704   8.66863731299716
H   15.36345027788344   10.23127640200365   7.77994659410220
H   12.88881055128525   9.97548168136469   8.56199437810914
33
F:    ...  E:  -0.39972186
W   13.53267754084493   11.41182382312666   14.00083831872080
W   14.21689337626236   12.76773251129092   11.81603187600347
W   13.72957233800575   11.18297807254451   9.82004723167995
W   11.00649778430821   10.13659984457544   14.06601571663886
W   11.08174108476414   8.79505845236458   11.82822547837744
W   10.37540223813268   13.73043179581573   12.77038123223747
W   10.74920984735877   11.92087702444569   9.50109347422345
W   7.79146371756678   10.98121986452525   11.89197730522536
W   11.81763055147141   11.56916409374044   11.92075671120703
B   12.99240407213991   9.54763085357653   11.17508861570409
B   12.89854642086352   9.63291418770570   12.91428537532031
B   14.05917385775387   10.58289573830223   11.98226892621595
B   11.54148999952981   12.35828064243980   14.22494795902332
B   12.59782895738521   13.33235425606085   13.33190453525634
B   12.43035585350744   13.97168923460465   11.74300170629816
B   11.17918258117427   13.79437045957987   10.64256051420812
B   12.64287408480249   13.08235524461138   10.19762423584202
B   11.94376050985131   9.83371400785629   9.80850947943232
B   9.89510315158415   12.11663745042521   14.27611152066928
B   8.36318827110873   13.14807330755112   11.75947920817137
B   8.55151462422070   12.48066036802083   13.33010822944766
B   9.53050786973865   13.59953955761922   10.57283651213919
B   8.89477386505011   10.84161226742842   13.81184822209015
B   9.04573446207156   9.38017856222111   11.11496675312145
B   10.26191927753682   9.76505664413470   9.96779197935196
B   8.86624520527896   10.66379841660072   9.98663091774979
B   9.23881629357956   9.53848193639060   12.80527742796406
B   8.49030056296396   12.29205826865792   10.19802313860788
B   9.70110644656691   11.99293394802082   11.51196039457012
N   15.19189427371000   10.86344437392371   8.50220156865658
H   16.08118446525671   11.35944631361812   8.49260009171317
H   15.21388737932719   10.12436225582068   7.79861504149882
H   12.55854231393738   9.67304950005372   8.70741358028924
33
F:    ...  E:  -0.574817519999982
W   13.54606487048939   11.42362253355856   14.00557630627259
W   14.24429961295593   12.73575964259804   11.82671571287955
W   13.72283391357644   11.16397432038044   9.83177625500694
W   11.00438361784201   10.16703523433043   14.10712523355449
W   11.07107332993708   8.79075683108611   11.90665521138618
W   10.39715965402167   13.76151982989172   12.75743047173547
W   10.82458970480807   11.87649691976109   9.51935379227112
W   7.81035429792054   11.01681964437691   11.90314278121083
W   11.81990093445258   11.58213025270786   11.96570267675303
B   12.95108848052080   9.55792328459827   11.19364449374307
B   12.89702142908238   9.63607010292069   12.93593874263366
B   14.03572888524196   10.55494639956431   11.99769854542717
B   11.56557410556183   12.40387601302004   14.24371820504937
B   12.62926763107995   13.35546501091198   13.33723526033253
B   12.46033343878041   13.96085090024526   11.74222225969200
B   11.21080664924927   13.77224546857034   10.63369616654152
B   12.67279249542364   13.06388790035377   10.21517733509144
B   11.98627584177423   9.70380816642786   9.73491634134539
B   9.91820501594694   12.17005399251974   14.27548742447616
B   8.39065838101367   13.18351792434278   11.74627899410263
B   8.57574766869116   12.53480428292751   13.32633624960551
B   9.56000591794904   13.60956785236550   10.55971637940807
B   8.89847294970749   10.89864054492759   13.83400489435580
B   9.06903899896483   9.39842765522602   11.16782804672802
B   10.30255318116796   9.76559693435428   10.04678896605562
B   8.91377811491861   10.67955011895954   10.02492827253552
B   9.23421203392452   9.57154846929011   12.85567444246861
B   8.51815063384612   12.29951167358014   10.19732673408829
B   9.72029096402452   12.01685321187049   11.50365815935077
N   15.07935048595272   10.91980178791710   8.40634693323108
H   15.93836953309793   11.45480866387974   8.29161777768111
H   15.04502398426207   10.18247295134949   7.69970081157875
H   12.45801652146874   9.25907875883942   8.67800340106401
33
F:    ...  E:  -0.617560669999989
W   13.57575607389063   11.40204301389335   13.98261218843888
W   14.26739152905115   12.66401023059210   11.77680907308706
W   13.70134866590442   11.10151477321266   9.83193119139384
W   11.01282953783883   10.20471898495003   14.13510968815832
W   11.04087950819357   8.78247751220493   11.99577362454182
W   10.44532865930586   13.80176204503396   12.71158916250312
W   10.86641520738023   11.80477935177024   9.52426345261662
W   7.81901636903221   11.07963297127807   11.94101650550084
W   11.83761353294872   11.56740249657012   11.97814687704526
B   12.92200752934846   9.50067985515031   11.21293860685662
B   12.90081878655165   9.60049948428384   12.96733295980069
B   14.05018041014648   10.48891941678865   12.00941194751501
B   11.62372041933965   12.44248158344019   14.24837535625364
B   12.67000996571115   13.35408183987570   13.28935284040842
B   12.50652510442750   13.94224251790209   11.69212192942452
B   11.24272943824578   13.74998181132996   10.58777528462403
B   12.69346616380049   13.02019880910359   10.18830171357665
B   11.95971368027683   9.57297283416408   9.73897118535066
B   9.97514568424618   12.23792866458657   14.24459681267153
B   8.42531730207186   13.23377786098591   11.73225256625128
B   8.61397981306053   12.60526956523471   13.32047762184842
B   9.59270822885482   13.62245724097966   10.52642824928205
B   8.92249016258633   10.97701505092998   13.85250392481321
B   9.03660630150032   9.41040073439286   11.24962797083462
B   10.30687888012587   9.73166253227556   10.13907497060463
B   8.93511692421517   10.68266785422314   10.08937810399444
B   9.19552454633113   9.59802403764637   12.93497757478707
B   8.53597481333023   12.31631919062256   10.19878225354844
B   9.74489232538495   12.04857112039630   11.49156849699703
N   14.98896899821850   11.01269025169546   8.33848340831131
H   15.78956957061006   11.63303878621601   8.21925510277106
H   14.97115245204910   10.32553182841396   7.58302517198086
H   12.30134669367558   8.95566902751168   8.73915746186241
