33
F:    ...  E:  0
W   14.74134494315933   12.00027360858475   14.23595359226415
W   15.44227391569486   13.30953640638366   12.06847165568364
W   14.80121843450993   11.75680299204765   10.15463650928953
W   12.22218310930353   10.75914238394640   14.37930997564476
W   12.21910069652874   9.37868712949022   12.18117376253943
W   11.59519125544493   14.35033041690775   13.03976446370354
W   11.97240433325841   12.45116818718362   9.75920308235080
W   8.94222593244196   11.60780261846253   12.25522050156951
W   13.01212288740817   12.13975618069694   12.20212672761438
B   14.18194061471857   10.04559142909956   11.44504135049617
B   14.08945103778223   10.17439007490384   13.20886633552058
B   15.24885479265392   11.09014713625567   12.25725395298413
B   12.77693256821837   12.99510309334277   14.51077397613004
B   13.82755244026579   13.93486861240022   13.58001633516577
B   13.63258684117418   14.53182130657572   11.99597306368377
B   12.37082243514321   14.36254193834955   10.89974763827381
B   13.83047923783546   13.67749840224148   10.44242112505347
B   12.99417685435304   10.50325708058350   10.32697912630222
B   11.13402505900900   12.77819938940035   14.56142258336114
B   9.56825750603915   13.76988068959598   12.06604889802378
B   9.78746484905907   13.12265169801733   13.62709770042460
B   10.71472799502481   14.20108158289293   10.86345484909292
B   10.08938602170944   11.50481642881577   14.13726653706604
B   10.18836831728524   9.98918131124137   11.49183249651277
B   11.36699635477463   10.30262076274378   10.27416255526324
B   10.05587175439936   11.30873235464413   10.35913557838835
B   10.41621370604119   10.18209026123327   13.16942317620844
B   9.64579559387203   12.92742528970600   10.51623404641909
B   10.89725916392061   12.60982988528311   11.75621705599957
N   6.62151394109088   11.50244286697639   12.17202480578420
H   6.27558555596958   11.48161548413769   11.20926715681327
H   6.27861600383006   10.65512583060721   12.63527291781347
H   6.18260297424451   12.30140782280625   12.63846968142550
33
F:    ...  E:  0.102803849999987
W   14.76631680305220   12.00390630689519   14.23619036522567
W   15.46570155264123   13.30972077398009   12.06681955363038
W   14.81947026353404   11.75696230003497   10.15350868054060
W   12.24177452338492   10.76430317489653   14.38146880685904
W   12.23628394969337   9.38915258599360   12.18162170788461
W   11.62840068219417   14.36838617168815   13.04270369077047
W   12.00597312591870   12.45624929968710   9.74853083315526
W   8.99110493940592   11.64379663387770   12.23602652870164
W   13.04168600018113   12.13991062837727   12.20468405229736
B   14.19935323521175   10.04724294339758   11.44516097331154
B   14.10847707349777   10.17892363523938   13.21021747825366
B   15.27100644796589   11.08925966319484   12.25488875249721
B   12.80211332512464   13.00143971177683   14.51359192507369
B   13.85188706894863   13.93862122438423   13.58145923237151
B   13.65458658369296   14.53311635391299   11.99785655762390
B   12.39773591175318   14.37967522448097   10.89645195949128
B   13.85021066183848   13.67866546620285   10.44496968470114
B   13.01422616922150   10.50197107361241   10.32368929648516
B   11.16113826101868   12.78923114177341   14.55883647931972
B   9.61073727472339   13.78449246598274   12.05899468117984
B   9.81547166669493   13.14267359176184   13.62576528215562
B   10.74614814734567   14.23079088673705   10.84859134234325
B   10.11181706639185   11.52223030924398   14.13070580032666
B   10.21735817750961   10.01512870858189   11.48347706535874
B   11.38779401132582   10.30137809033058   10.25075475637283
B   10.08695336298789   11.31680023024998   10.32914893877965
B   10.43205349775094   10.19525054800063   13.16549304148244
B   9.69910018812917   12.93792281534718   10.50403813943716
B   10.95155838243642   12.64653120763055   11.74031419892164
N   6.74211742214252   11.25004246311853   12.18090551660441
H   6.26187743806668   11.25142030361695   11.28713847765012
H   6.75078962898743   10.26686331363359   12.48791292266115
H   6.19779483506008   11.84638487570757   12.82030592835420
33
F:    ...  E:  0.93725053
W   14.74278934404375   12.00070752112071   14.23841451162840
W   15.44502929598573   13.30641694841659   12.06541351453781
W   14.79520148022523   11.75161720154100   10.15279096188357
W   12.20360273133810   10.74773822289079   14.37631212484174
W   12.20720835268848   9.38514876010062   12.18972330365579
W   11.62443774584877   14.37926117304466   13.05321754912893
W   11.97453491994496   12.45040819675342   9.74910828102503
W   9.00532854472602   11.68559021184508   12.20524835021150
W   13.02013896907147   12.13288607939427   12.20077772714325
B   14.17154256382189   10.05112004204862   11.45022141315899
B   14.08723089603787   10.18002291153924   13.21097632368283
B   15.25003897800013   11.09014232372632   12.25810625002459
B   12.77360389891558   12.98440145393824   14.50642665436931
B   13.82648216825070   13.93314737631313   13.58662907823994
B   13.64199396844555   14.52850129584669   12.00090774690928
B   12.39117158713112   14.36582799324955   10.90559787654810
B   13.83198809843764   13.66664145768173   10.44171073216470
B   12.98515434257843   10.49482104104457   10.32847450495718
B   11.13840305989196   12.76954366654920   14.55266445677004
B   9.60780431139904   13.82500286590026   12.04219649859037
B   9.81574585054249   13.14353145247391   13.59947195156636
B   10.74947614752958   14.23753194855508   10.83980488050059
B   10.09160511811386   11.50751766684253   14.12191331906021
B   10.17682228453642   9.99342084873607   11.48085528815113
B   11.35943732652150   10.28116618919193   10.26751423098220
B   10.07018769555065   11.30331676207029   10.31783035209084
B   10.37819249562405   10.15913040934511   13.16991169893430
B   9.72417725627552   12.94369778141930   10.48565309354415
B   10.94133607853745   12.66954694592749   11.76453363228267
N   6.85269070257077   11.35390074359231   12.06890218258373
H   6.05930780436474   11.02192996221466   11.47375030421123
H   7.41525714810245   10.44931722214188   12.34932081179319
H   6.42397505111435   11.69195240708246   12.93256076748711
33
F:    ...  E:  0.812270030000008
W   14.72533058013109   11.97779121242816   14.25135397379547
W   15.41504935213326   13.28506043349248   12.05619573533818
W   14.76515116083573   11.74811750817008   10.14503616717810
W   12.17659276868030   10.75604854815331   14.35956101696047
W   12.17844875474538   9.36120433201341   12.20081875819899
W   11.61241611446289   14.37352353880756   13.05551653701177
W   11.93829002394759   12.46393963577538   9.77731787689471
W   8.74490727617416   11.60178476524022   12.20945345647993
W   12.98339491300708   12.13812965647032   12.19153347131776
B   14.15413601212137   10.06654866816950   11.44593715412908
B   14.07139350794927   10.17751213404898   13.20331043356441
B   15.23486633505005   11.09100155345233   12.26648361518106
B   12.75279029360812   12.98394042091181   14.51069468163618
B   13.80511380377960   13.92517366488006   13.57830705343535
B   13.63221066847232   14.53107422534394   11.99795340239022
B   12.37864906370836   14.35803363619817   10.90695957324247
B   13.81626056424270   13.66868111300609   10.43341182758198
B   12.95535916254701   10.49642702948629   10.33868403153519
B   11.11028663842080   12.75660179205707   14.56205828638458
B   9.56954052250839   13.84382186949135   12.02514082072006
B   9.82575604880460   13.08842303926055   13.50538728328143
B   10.73786436349406   14.23818783493078   10.85806258896382
B   10.10369658043902   11.48707057284216   14.10712505578157
B   10.17598381253192   9.98421958876760   11.51944324956467
B   11.33256513372576   10.27976256057876   10.32984118226717
B   10.04146048524558   11.32277615357673   10.41221041451211
B   10.38377275114666   10.14555259053642   13.17911455730746
B   9.68620896104454   12.94867469159511   10.52724745547337
B   10.87597222452236   12.64918463281977   11.81421586677713
N   6.68617361902597   11.96428444959192   11.83091718442898
H   6.18727991397894   11.21732634808057   11.30899095405555
H   7.81044670501715   10.19440251530949   12.69758191720604
H   6.28431857003993   11.82460067404530   12.79373821033550
33
F:    ...  E:  0.287887380000001
W   14.71736078239094   11.99463011115724   14.24973357742092
W   15.39421401556429   13.30847435679598   12.06652890456696
W   14.75051843625730   11.76316423951959   10.14316130564581
W   12.15855574107188   10.74176911082450   14.35332588293802
W   12.17734280282215   9.34649364761657   12.18997683956905
W   11.57082950069052   14.33988182020716   13.06596208930394
W   11.90052891662198   12.43494970360794   9.78564857094695
W   8.69926156271884   11.59906051205830   12.20943853577807
W   12.95605846615402   12.14051077847548   12.18180423654712
B   14.14138484977300   10.08287242011810   11.44422693626444
B   14.05721859835212   10.19565087438755   13.20119730838962
B   15.21519602603344   11.11208781340832   12.27039575212145
B   12.71416314343884   12.96116591722630   14.49390663036692
B   13.77532975086003   13.91544354862189   13.58447694446516
B   13.60024714488639   14.52222442689795   11.99884914689552
B   12.33763468290937   14.31918035792457   10.92064000566534
B   13.79060010269723   13.66950313982058   10.43139995630545
B   12.94390542947371   10.49432792194469   10.33440787916672
B   11.07203454234002   12.72356085586692   14.56244430962605
B   9.52842685954938   13.85893624782386   12.03904102113608
B   9.78211741514913   13.04895830401939   13.49685389034352
B   10.69320870962748   14.19975008278287   10.88206994191611
B   10.07390192533211   11.44691497664923   14.09710904584136
B   10.16123893311984   9.96712699997679   11.53126321859301
B   11.31832371163543   10.26208029312432   10.34681544853736
B   10.01615901049226   11.29006602425175   10.41192915549803
B   10.37208101486780   10.09854393101486   13.19212220991240
B   9.63481467609821   12.91118077774003   10.55559341528457
B   10.80709803367783   12.60463408449940   11.85870892027116
N   6.70926412145186   12.07941346159773   12.01205163552376
H   6.04476947265647   11.43990585308295   11.55973851300946
H   7.95862179587502   9.98925855997399   12.33418784824406
H   6.22422853218906   12.71666562180879   12.61177603730787
33
F:    ...  E:  -0.0635655400000132
W   14.73233478652588   12.00467237807915   14.25447201136696
W   15.40780837707834   13.32350007576532   12.06724550091915
W   14.77804352048798   11.77668915051303   10.14273783729009
W   12.18660451687942   10.74188964947754   14.36064919912483
W   12.21934648713687   9.35143452249864   12.18030082365082
W   11.57825417571553   14.33364858313901   13.06554047124334
W   11.94403651665393   12.43421388212685   9.76808147360550
W   8.77009698668122   11.55233530803266   12.18922380228802
W   12.98074996339730   12.14028219273024   12.18019494047484
B   14.17791772381871   10.08497085541502   11.44053402909524
B   14.07648135517026   10.20749818723706   13.20389860797762
B   15.24001636826039   11.12334409443179   12.27554787181860
B   12.72377472882604   12.96381292562353   14.49103170442166
B   13.78389342930332   13.91608557675536   13.58264008336159
B   13.60659883909633   14.52868153863557   11.99693842921851
B   12.33817657262662   14.31925144169040   10.92091095313934
B   13.80269530980897   13.68057329611788   10.43547564412153
B   12.98816430517681   10.48879661797826   10.31646100299943
B   11.08252429716868   12.72901044193141   14.56667967013252
B   9.52979308571074   13.81543136520889   12.04334776139777
B   9.79073571985108   13.05747982000367   13.52454628872605
B   10.68801316277161   14.18893884146826   10.87284342633417
B   10.10257277388054   11.44455842945137   14.09099331393850
B   10.22882804130608   9.97815857606434   11.52061744510793
B   11.36428698109746   10.24548351547828   10.30282379730489
B   10.07503865509832   11.28757969686735   10.38253035633299
B   10.40905060412230   10.09004617257412   13.19306459113541
B   9.64691268379125   12.88980360098524   10.53995832718432
B   10.84001314528415   12.60415275323476   11.82581466943120
N   6.75612584165037   11.83455278018696   12.24345443452370
H   6.09881813370460   11.09932048865574   11.96558349114245
H   8.12555041591072   9.90587776618580   11.90108464922779
H   6.28626936859193   12.65379028548304   12.55020084748658
33
F:    ...  E:  -0.21351193000001
W   14.72236668702152   11.97875188075355   14.24084902977533
W   15.40318731186590   13.28719002363185   12.04966263990159
W   14.74162526140820   11.74446061948614   10.13125843602925
W   12.20036323734843   10.76383853338121   14.37422812079028
W   12.17661180782529   9.35191384674899   12.17960257179409
W   11.59002873916568   14.35072155975440   13.05569347864169
W   11.96794449642041   12.43446977956863   9.75680182361937
W   8.81924724694176   11.61634913408936   12.21470876754021
W   12.97754924240602   12.14219686929498   12.19399743178022
B   14.14158387664039   10.04486627195719   11.43787613925613
B   14.04993801546155   10.17253990145905   13.20140142405404
B   15.21765891432783   11.09039784963737   12.26460555337763
B   12.73936908999852   12.99160946893085   14.49713053866451
B   13.80079269598673   13.92255694554354   13.57635874301522
B   13.62114051011629   14.53100767415306   11.98616506670673
B   12.33942514591551   14.32205604719567   10.91682144739172
B   13.80581576122109   13.67569418302976   10.43930957534012
B   12.94396944322880   10.46536442208162   10.32382582642247
B   11.09902664290892   12.76482287456260   14.57473538021306
B   9.53261692269905   13.83074648237229   12.06255198417450
B   9.78996422131198   13.10278432678826   13.56844600524171
B   10.68266990512151   14.22275775466248   10.87293072584367
B   10.11271802083302   11.48360317880068   14.12665584347957
B   10.11928396298050   9.98754307475238   11.54873409613174
B   11.31235760146957   10.22715445021935   10.30780791336276
B   10.10906535595671   11.35895751150273   10.42842383803554
B   10.42488583416621   10.13465695274751   13.23504156684016
B   9.63773075449858   12.93835844428035   10.53485234159940
B   10.86142745812278   12.64819708099395   11.78904414842260
N   6.80833505603326   11.63954900840763   12.27799492214889
H   6.14654102637497   10.92565256601240   11.95315780554749
H   8.56636640461850   9.87188548310305   11.68463131575795
H   6.30797966240625   12.47131570794381   12.58188322676157
33
F:    ...  E:  -0.490489830000001
W   14.72083743818405   11.95995088837518   14.22479534235707
W   15.40781347536101   13.25622067131300   12.02700620849027
W   14.71510488036256   11.71658042186020   10.12622590432143
W   12.21485559698043   10.79191560958540   14.38928041830268
W   12.17808316510383   9.35645422878977   12.19538477499724
W   11.59728960363004   14.36251849955114   13.04633885842648
W   11.98406438381562   12.44615079407650   9.75483576089592
W   8.84062856876994   11.64930521300426   12.24797794795202
W   12.97409351141234   12.15181585358644   12.20803733075193
B   14.12501524312392   10.01193569322834   11.44407070347583
B   14.04970299059077   10.14388618697262   13.20973903178045
B   15.21087191597450   11.06347331170317   12.25548466212499
B   12.76591821190590   13.01747072246886   14.50850373868664
B   13.82844058537887   13.93373671577927   13.56838913460127
B   13.64763803461749   14.53727108779924   11.97738032013580
B   12.35213117121625   14.33901524096443   10.91297414088268
B   13.81463434496375   13.67474993919020   10.43412377945106
B   12.92964264911307   10.45156682367974   10.33689634128273
B   11.11759474316073   12.80804032843453   14.57863239112586
B   9.53911159204411   13.81223057143145   12.07173134185773
B   9.79201843700734   13.12356536355406   13.59278372786144
B   10.68426367367980   14.24567968500701   10.87494733335339
B   10.11911406614017   11.51786300434309   14.15874793251322
B   10.08158866658002   9.93424926112740   11.54057416590574
B   11.31027465471436   10.24821326303622   10.31597154468785
B   10.13973985695539   11.40950029129286   10.48209620266796
B   10.43894669792738   10.20423352147766   13.22812304769624
B   9.62333931227919   12.97528009199753   10.52530851555280
B   10.86213746172411   12.65385562494220   11.76151498986867
N   6.84308068309897   11.56945860254368   12.33974967392064
H   6.23327152279401   10.80597067278874   12.01490424502740
H   8.85673819635995   9.59585425907532   11.43074179978831
H   6.25362472815476   12.37108083314146   12.59423063935363
33
F:    ...  E:  -0.654033980000008
W   14.73152792265906   11.96485321238725   14.22741624281137
W   15.42170974435054   13.27457650425652   12.02663015591101
W   14.74025604545128   11.73371154026403   10.14227458080073
W   12.21178286803845   10.78836799958541   14.36474735902627
W   12.20377976099964   9.36382251717459   12.19896325013401
W   11.61002291011239   14.36797850164689   13.04631136908992
W   11.97102287710006   12.44397806047775   9.77424499041108
W   8.82985830046621   11.68177964576962   12.27201842887432
W   12.99022439420112   12.15290424464783   12.20209538862927
B   14.15276322717198   10.02606420822335   11.44379164300079
B   14.07456014274103   10.15252594529064   13.20916494818428
B   15.24275647621618   11.07755878208980   12.26401306796494
B   12.77828872031658   13.01247312607035   14.50863779396112
B   13.83613358843800   13.93620064200716   13.56674409546620
B   13.65703917461230   14.54351225054366   11.97864621031860
B   12.36517431726653   14.35350839235152   10.91212070233632
B   13.82316613207205   13.68733726489582   10.42908467059199
B   12.95362216357518   10.46181917955456   10.33404143549724
B   11.13209169503164   12.80309217003278   14.58556933366621
B   9.56038472225350   13.80532207156227   12.07513753193155
B   9.81577476134923   13.13743726243414   13.60151068740962
B   10.70285540719264   14.23514038609981   10.87125038771196
B   10.12989457509508   11.52107849716581   14.14763395565807
B   10.02790449808006   9.88323164782200   11.50318374644679
B   11.33309285282845   10.28052681711620   10.35105645987985
B   10.09573960370555   11.38348878322284   10.48125730724377
B   10.42067218718950   10.22611481210269   13.18278997883614
B   9.64057200166707   12.97235812429316   10.52005543261593
B   10.87126751183940   12.64270036283541   11.75897801692318
N   6.84505059589815   11.58813120865268   12.39261450387102
H   6.30078243231417   10.73049367659630   12.20503693976517
H   9.05588076856925   9.19903494866347   11.25770918917952
H   6.18943857531597   12.36674552500908   12.53345896830684
33
F:    ...  E:  -0.715817969999989
W   14.71975634957387   11.96260110872330   14.24223896113947
W   15.42902377035755   13.30524320653394   12.02619714495723
W   14.78431587008158   11.77345464316629   10.16471987965440
W   12.22560031536150   10.77674530438573   14.34054642556179
W   12.25284232908554   9.36206137612021   12.18789292440557
W   11.60894151685991   14.35629478376698   13.04254217541273
W   11.97903800387188   12.44528216678484   9.78579766034560
W   8.84059921684402   11.65041507799594   12.26014250177615
W   13.00607385459623   12.14302063602329   12.18947998557922
B   14.20996211001772   10.04735379129327   11.44051076585889
B   14.11504666473158   10.15551584011854   13.20157257336397
B   15.29204994253691   11.10133163501606   12.28432037456019
B   12.77191522893508   13.00387769485959   14.51763015379824
B   13.82177025102139   13.92436606415049   13.56137185519092
B   13.65313658447303   14.55758378986758   11.98437665550976
B   12.36759448682970   14.37788991010277   10.91119132318144
B   13.82961132896730   13.71272565927157   10.42496258203885
B   13.00998975032501   10.47185234811439   10.32024435970959
B   11.12874331492447   12.78309599973789   14.57770811223829
B   9.55194794857623   13.77730821620991   12.05946663149555
B   9.82140350585767   13.11445367416600   13.58225836154215
B   10.71037319278542   14.21675949607705   10.87270430042274
B   10.13272973322035   11.49659065127869   14.11645665826791
B   10.06352593807102   9.83675928212285   11.46098918391397
B   11.38970100275698   10.31020100530663   10.35683233334982
B   10.08808585989906   11.33955497622916   10.44354989532336
B   10.42148987610588   10.20109578430968   13.13952358951040
B   9.65943799865557   12.93896804756303   10.50974881728994
B   10.88053692028600   12.62281867521488   11.76035616927997
N   6.85832010506556   11.55721038287219   12.43340692557743
H   6.37327324482332   10.66310995384153   12.54090047431508
H   9.29945676710923   8.94491033990963   11.13499452959958
H   6.17402747830059   12.31139998894583   12.47837891859865
