35
F:    ...  E:  0
W   11.70639871410456   13.33108171506572   10.20523271307251
W   13.02203696120597   11.99136629036387   12.35057833066454
W   13.66273848185848   9.96219940050620   10.14268406332934
W   13.12360937668561   9.20860042161410   12.49869245426959
W   11.00150024714338   10.56179896165385   11.13325328653777
W   10.80622709025015   7.85739948082908   11.37384162901317
W   9.56219851034250   11.38448134927212   13.26041722737267
W   8.69918894090526   10.93758170035409   9.64331145349676
W   10.96751077249433   13.85486206513189   12.70309674947269
B   9.57331490685831   13.01690825629015   9.47872773284097
B   13.57860466250598   12.14348774467080   9.71488110336226
B   12.18602630316724   11.32591136678719   9.11995808222916
B   14.71863069076358   10.53004725750715   11.95967590473057
B   12.92663531037615   14.19513789357195   11.83811130494482
B   14.71634556126629   11.80009858857847   10.87064936253508
B   10.62185602817621   11.85062199434963   8.95052672185755
B   13.90626255065315   13.39906294447329   10.79931445017844
B   10.82423426634188   10.19168554469027   8.81011169854117
B   11.69584623934314   8.79687388963387   9.59061984491932
B   12.79111153270727   8.00056010209043   10.63769966381844
B   9.36149656763397   9.20008161934719   12.50881537061179
B   8.32957840464258   12.94201699505864   10.53246276467041
B   8.33245473624341   10.28152394576759   11.74978432309842
B   10.02504756145845   8.94242541553964   9.58095761972853
B   7.98553267391068   11.86660845337914   11.69487789832786
B   10.89579523773537   9.19441890695742   13.16070452331918
B   11.70264047549557   10.61270011208362   13.53682030638816
B   8.87123615243153   13.21541671057465   12.21785558684435
B   8.95536154995203   9.01812595815970   10.85785619056478
B   9.72336620871941   13.91431357872937   10.90767013852534
B   11.47588308461058   12.22127113695209   13.91948130071766
N   14.24275233628481   7.62614164040326   13.70157599414090
H   15.13151987951745   7.98166525689430   14.06248643121339
H   13.72678043610732   7.19699976019886   14.47420556195168
H   14.45543370878895   6.88877210002457   13.02201098729538
35
F:    ...  E:  0.053725170000007
W   11.71319142620718   13.34797460676363   10.21719441931620
W   13.02225369444245   11.98457916199460   12.34215457749902
W   13.64804768364014   9.96918010592995   10.10236449189476
W   13.10547992869771   9.21407723121047   12.46464408650738
W   10.97678514796556   10.58242552046439   11.12689759344709
W   10.78581365935132   7.87274214554200   11.35366244995384
W   9.56163266647938   11.39055211439379   13.27289041667610
W   8.68786073923394   10.98136271963831   9.64344166473428
W   10.98921908778274   13.85489945024565   12.72626454066781
B   9.57718827293475   13.05695288746428   9.50051353170636
B   13.57638238203592   12.15400355276214   9.69934537139600
B   12.17535952361496   11.34705838305209   9.10575346479144
B   14.70910007608012   10.52164189942387   11.92183142223361
B   12.94983009295031   14.18621900088386   11.85467220690425
B   14.71475396483627   11.79535243060950   10.84929998925317
B   10.61240621160157   11.88665068863757   8.95098970875747
B   13.91626068619284   13.39489426227039   10.79965946724012
B   10.80038430774921   10.22553760763085   8.79924858804243
B   11.67198735255104   8.82216217949583   9.57608704723931
B   12.76808222761433   8.01438196248562   10.61269762318409
B   9.34843178661006   9.21370948411093   12.49687412914580
B   8.33753329199082   12.98072832615149   10.55869180796497
B   8.33337895397768   10.31191345782674   11.74684646609786
B   10.00335230628726   8.97166768635699   9.56357432419290
B   7.98943740771016   11.89792653066274   11.71193651777543
B   10.88081609236003   9.19881938086592   13.15233818912149
B   11.69486382065885   10.60485360269434   13.54160914365520
B   8.88867414414577   13.23338511575916   12.24590401739762
B   8.94197427843820   9.04959018412005   10.84632718551207
B   9.74033989684260   13.93839475613682   10.93812318145309
B   11.48712869055021   12.21127094506573   13.92584404548369
N   14.37195323597037   7.72223233418403   13.66902194252155
H   15.07661955243535   8.25767907480302   14.19540876013401
H   13.85283293076124   7.13062580691029   14.30222629638671
H   14.83254795805040   7.21634982811117   12.94555986848905
35
F:    ...  E:  0.086242349999992
W   11.72526637589309   13.35157103574366   10.23108063022596
W   13.01609180866958   11.96921656708069   12.34027545481210
W   13.63793836034847   9.96727411410813   10.08188123575598
W   13.08327412391057   9.20973241888705   12.45512348126996
W   10.95440645748406   10.59385910959105   11.12255279939344
W   10.76531295002873   7.88617825245865   11.34290110207099
W   9.55470586006013   11.39625137428873   13.28305628915501
W   8.68167116130912   11.01707533967335   9.64232233494680
W   11.00754195647657   13.85725906335772   12.74231211989117
B   9.58719174054155   13.08270744678947   9.51618008880248
B   13.57969513167253   12.15353162058263   9.69532247041609
B   12.17199320847565   11.35290016683171   9.09878636913217
B   14.69214665786322   10.50652448951532   11.90397964073766
B   12.97088562301166   14.17480697341116   11.87166681871008
B   14.71526278939120   11.78315093522377   10.84420797998555
B   10.61201506081819   11.90803483129529   8.95342760236472
B   13.92886318375397   13.38420611529791   10.80833846972682
B   10.78218873589880   10.24612782751504   8.78893345369591
B   11.65445425772189   8.83785253380553   9.56699665801426
B   12.74686825321550   8.02272407247664   10.60436843555355
B   9.32722777917349   9.22337986162680   12.48850440736025
B   8.34740690244014   13.01147545529751   10.57460948366534
B   8.32775558864192   10.33768108822878   11.74299841954767
B   9.98577641126013   8.99113952692339   9.54959788217752
B   7.99022258249593   11.92532722051924   11.72168741166724
B   10.85783000568656   9.20101078996270   13.14988786646487
B   11.68078197297712   10.59702056761012   13.54725933651122
B   8.90141743831535   13.24901508367519   12.26406060904831
B   8.92783267236081   9.07536939929853   10.83602632250363
B   9.75744006072486   13.95458552415482   10.95895857500709
B   11.48779642452262   12.20284786214277   13.93299795876681
N   14.46724737401947   7.84836978000044   13.63517187566782
H   15.03001940233256   8.38534930281539   14.33715595928997
H   14.03551646317698   7.05297011649621   14.08805190790479
H   15.07035044291002   7.59213182263601   12.85646028306814
35
F:    ...  E:  0.376063380000005
W   11.75065288905567   13.34742756184986   10.24608038945386
W   13.01304248173712   11.92417406200596   12.33327312716104
W   13.62763998535305   9.95368722470178   10.04691001758482
W   13.03896481720003   9.18046967080604   12.46389422502718
W   10.93880611594773   10.58160479383138   11.11668673773716
W   10.74631408311619   7.89691848675737   11.33522430955750
W   9.56111553451530   11.38657528897164   13.29549402783651
W   8.68512339518583   11.04183554413296   9.64811540962235
W   11.03904854381297   13.84290484297486   12.75839203339729
B   9.60694005085996   13.09828123551006   9.53138609238118
B   13.59602699014776   12.14285797774989   9.68908523019990
B   12.17424793298062   11.35600139265667   9.08926694229944
B   14.66362876184280   10.45350041970755   11.86969564766786
B   13.00496000526609   14.14254982063268   11.89645946202964
B   14.71729490128207   11.74326208319712   10.84084523692167
B   10.61993714972408   11.92169168218381   8.95424832027823
B   13.95233119743904   13.35201759924576   10.82579372945290
B   10.76892475531349   10.25900293629558   8.78026081785901
B   11.63073825008812   8.83606898916285   9.54498134986655
B   12.71733230836109   8.03369752874884   10.59249784805167
B   9.30278165118405   9.21642030668998   12.48426650219511
B   8.36745490685884   13.02923504783997   10.59204090368091
B   8.31818494467780   10.34841634861874   11.74595605371235
B   9.96551204450904   9.00544218566055   9.53350505907007
B   8.00221822178489   11.93791031705044   11.73007395727019
B   10.82902676000642   9.18436874689415   13.15242102632888
B   11.67484186731346   10.56928796994315   13.55390137234840
B   8.92821535615580   13.24877124017217   12.27877001630134
B   8.90994924854668   9.09049026376497   10.82633534088643
B   9.78585860252160   13.96085822024588   10.97801272101217
B   11.50380698842029   12.17534569674120   13.94342009679788
N   14.50665351156436   8.03266036542921   13.67885222322277
H   15.07259266973562   8.36881515888557   14.48471411017047
H   14.22465809489597   7.05064890346897   13.79902455124605
H   15.05164228172284   8.22475272888341   12.80377987719937
35
F:    ...  E:  1.21364947999999
W   11.75753396389580   13.33692757483086   10.23400447017123
W   13.00876627693163   11.88533076402166   12.32782526504111
W   13.62798815707937   9.93906821787393   10.00964989036712
W   13.10809435059929   9.05871982799751   12.53333495287912
W   10.94974929777713   10.53993408903991   11.11012146040483
W   10.76173523192416   7.89159256441989   11.36352595098325
W   9.59561390216497   11.36875894937945   13.28594721840409
W   8.70422275234610   11.01435263872908   9.65883660915612
W   11.06390576231783   13.82483332405739   12.74901505150077
B   9.61395636086627   13.08296402001637   9.51983170097025
B   13.61199764397602   12.13207318818908   9.71126448753967
B   12.18791991762513   11.35224427798104   9.10625216976377
B   14.65827808390739   10.38714767511905   11.87167880313696
B   13.01087383613507   14.12525004788468   11.90696648266048
B   14.72124952384133   11.70120811158356   10.87110554102232
B   10.62563764335424   11.90329459567205   8.95013828037352
B   13.95691202336225   13.32907769570201   10.84624186569755
B   10.79338312849078   10.23282220384906   8.77975583208350
B   11.63980163269839   8.79809661235032   9.55420606179829
B   12.72261731578027   8.03650993242492   10.61123801822469
B   9.30940151063559   9.19823531383701   12.49194121529435
B   8.37825676587559   13.00290312964848   10.58423476398995
B   8.31473324702435   10.32220516189709   11.74927095031371
B   9.97431295724218   8.98602634908323   9.53744758130894
B   8.01294656533997   11.91279446239289   11.72162207779905
B   10.83552983697956   9.17145036483168   13.16141920065119
B   11.70261820746271   10.53848094254382   13.55097856526371
B   8.94913874970191   13.21760501378385   12.26796460025113
B   8.91185734567940   9.06571353930497   10.83272343668896
B   9.79122867592109   13.95203680031868   10.96699724975236
B   11.52281662464150   12.15399860755388   13.95151713841300
N   14.21746629166067   8.01493399338943   13.92402688046282
H   15.13232283184818   8.28935644803897   14.28959328995940
H   14.03448133793539   7.01035702971389   14.06306310468068
H   14.85800500159548   8.57980005492856   12.48171506412906
35
F:    ...  E:  0.221215019999988
W   11.76351052759700   13.35203160343779   10.20428060986488
W   13.02025296130085   11.82366976310937   12.32815219213578
W   13.57264566622255   9.92459423952996   9.96630931462064
W   13.09663604818028   8.97288750009067   12.63587392004137
W   10.97245223006901   10.50800923557789   11.12374854557388
W   10.77149801134800   7.88415534555223   11.40041465714492
W   9.61092720301436   11.34384683195019   13.29477334429847
W   8.72080158734963   10.97671153204352   9.66998965586720
W   11.07958782248570   13.79271435349163   12.73536599595831
B   9.61188535658550   13.08077673158605   9.50349277256942
B   13.63706367059866   12.12399476166010   9.72173230220567
B   12.19209996633728   11.38497991569385   9.08593770945038
B   14.66331054162263   10.22308461292910   11.83657449042691
B   13.01293214200559   14.09360527238678   11.90449262596045
B   14.68506325177288   11.58930285850686   10.89978193307331
B   10.61899095834078   11.89287674023128   8.95051050261178
B   13.95603624629838   13.30090227712837   10.85474609971713
B   10.82446720453792   10.21176538723545   8.79667425952371
B   11.63202758703573   8.74258106133468   9.56016447793443
B   12.71913523572881   8.05077830084461   10.64949724364386
B   9.31535339605116   9.16781559441481   12.49742639909108
B   8.38836603665625   12.97051812964460   10.57926091145969
B   8.32653840865563   10.28982260037565   11.74922553455075
B   9.97970105436404   8.95849513523304   9.53843232897153
B   8.02913785187785   11.87734423522372   11.70650390037019
B   10.82315568253306   9.15172056740751   13.20169216678384
B   11.70778382159820   10.51111672622479   13.56682170017366
B   8.96851370481563   13.18121215904024   12.25556816661093
B   8.92000527370584   9.03008917285978   10.83699243555271
B   9.79235322781691   13.94433740481911   10.95801758796585
B   11.54085103623693   12.13534965330741   13.95142020549134
N   14.09916676613830   8.02526566640292   14.10095422023614
H   15.05382097010326   8.20040012827686   14.38832198942516
H   13.79677054858052   7.04267387840760   14.27562968269523
H   14.89207918909396   8.91584131564926   12.00088590413105
35
F:    ...  E:  -0.304761130000003
W   11.77573006759078   13.34912277177941   10.24205381363842
W   13.01921948084014   11.87939851521966   12.33487950688274
W   13.62183696335143   9.95786988621848   9.99236574991081
W   13.13595974918238   9.01233883807092   12.59591137269955
W   11.00629470514098   10.49020696821091   11.14996477889833
W   10.73242774320499   7.82976749591577   11.32545204459770
W   9.62395381534714   11.33319348175115   13.27779843394536
W   8.72874393064293   10.97745390753455   9.66816535045804
W   11.08344661280629   13.80211550736625   12.77594036229427
B   9.63994469177193   13.06826539419645   9.52982910389544
B   13.61390478253381   12.14946788269621   9.66030954160922
B   12.18974657856739   11.33415794263186   9.08463787280930
B   14.65310454689083   10.41293805941762   11.86168031444172
B   13.02656069279347   14.10686844717280   11.92580197874841
B   14.70705283734893   11.70062136048734   10.82581665370139
B   10.63123890696095   11.88204985657361   8.97798231982725
B   13.95647353867544   13.32316768584722   10.82695910824501
B   10.79808984161794   10.20884814024528   8.79777790789387
B   11.63102029871075   8.76827511050293   9.53749470172755
B   12.70516658800134   8.08887400260299   10.61945936610321
B   9.34713376841599   9.16625098330383   12.48889136244741
B   8.40902309068012   12.97395409493832   10.58857685636575
B   8.34246022719519   10.28285659553367   11.76190555998357
B   9.96735956166618   8.95348465765556   9.54154351929043
B   8.04703877077817   11.87838986153714   11.71296528381338
B   10.88730171867880   9.09457347051558   13.14397423953750
B   11.70911835343774   10.50187345073207   13.52843243232799
B   8.98012682715664   13.18522284866955   12.26471434005292
B   8.90439407815727   9.00682826269640   10.83594282967147
B   9.81624051404084   13.93885881541930   10.97961977746732
B   11.54034453941778   12.11749583098037   13.96825955322236
N   14.01387838602300   7.89209680358558   14.01655276926815
H   15.00852331519510   7.83471472871563   14.12079539825225
H   13.58007653762901   7.14639824374983   14.57291024280243
H   15.03986083329758   9.22332903228828   12.14989359466529
35
F:    ...  E:  -0.459063799999996
W   11.79218495976230   13.28620096306878   10.30112511997799
W   12.98552786121740   11.87267953627448   12.27091718758483
W   13.61387490318568   9.92411552495042   10.00669568825484
W   13.07748527298599   8.96915010159473   12.52683294231619
W   10.89759958002080   10.46295127467376   11.09994366105997
W   10.80260267989694   7.88540418413858   11.34410494439106
W   9.58985616733174   11.32781484369413   13.30901055051877
W   8.71494739970973   11.02053056858918   9.66246718873634
W   11.09792597432473   13.82112940060696   12.78798439828517
B   9.63651214722869   13.07863239850113   9.55067621967706
B   13.61122530048216   12.12922160574333   9.72575507060154
B   12.18352181210180   11.32395574437928   9.12382582837279
B   14.65965171530472   10.41172657617182   11.81632275027770
B   13.06909838863835   14.12227907862963   11.93849566000721
B   14.74710429030206   11.72670308528061   10.85225627028265
B   10.63187833780277   11.89668503282273   8.96235176897776
B   14.01966354681035   13.35441334347208   10.84027232183852
B   10.78078031300613   10.22125078553952   8.76294017283275
B   11.62161922186853   8.78667580647506   9.52451365354361
B   12.74322402581065   7.99791743951848   10.52493476877510
B   9.31004145930691   9.16368023404541   12.49497699776968
B   8.40046776556574   13.01413917025976   10.60230041769705
B   8.33867534291755   10.32011267758930   11.75392163105130
B   9.93371384403661   8.97194242349973   9.50134655591776
B   8.04273474682054   11.91640888573142   11.74053389930859
B   10.85585948840539   9.14740208995839   13.15906997863917
B   11.70332905676595   10.52555309032090   13.50005585449554
B   8.98515844497171   13.21211893591060   12.29622228360688
B   8.90045481654694   9.04933022272176   10.82289207303922
B   9.82190102589943   13.94051945734169   11.00198842104643
B   11.55275310054278   12.12509486194783   13.93297788271754
N   14.05623429406858   7.90531660858404   13.89714435737291
H   15.06040816801622   7.89576547741364   13.97374662734774
H   13.66649226744205   7.16996918283685   14.48564481205245
H   15.22501576505781   9.54086778986250   12.44461463718038
35
F:    ...  E:  -0.602709709999999
W   11.78741776069159   13.30266502425396   10.28952931304498
W   13.01426991425310   11.85614332198904   12.28523067771057
W   13.61170638704422   9.88469983900223   10.08533804945688
W   12.99892322709809   8.94772907059470   12.46386165412318
W   10.89442304407627   10.50427446931511   11.08303222218763
W   10.76074340667846   7.89536307227896   11.32652180553025
W   9.57671524456758   11.34622286410194   13.29738281465465
W   8.68813992084266   11.05182816528828   9.66074902544553
W   11.09026480939170   13.81983680395569   12.78166659360083
B   9.63334799346121   13.08923881645062   9.56164952648827
B   13.60780382333737   12.10390657350589   9.76178959872541
B   12.18828454585388   11.33218368587766   9.15622019357110
B   14.76014351575339   10.36187458779347   11.87636723661079
B   13.06186053887575   14.10811737781517   11.93887421409891
B   14.74381281628822   11.68120673985643   10.88024195847746
B   10.63969028808796   11.90988011363323   8.97204179537142
B   14.01099495698688   13.32507842111033   10.85994608962051
B   10.78166245372586   10.24630091769566   8.75511896514964
B   11.58936017575561   8.79196057612147   9.50080365245358
B   12.70332561650630   7.95727879587661   10.46469529855239
B   9.28688616128144   9.18293542256325   12.48531288126510
B   8.39416218795599   13.02988412295968   10.61422229699994
B   8.31165390090552   10.34236570555015   11.75687908612975
B   9.92146828642622   9.01005503877652   9.50003427831320
B   8.01981970177715   11.93599889594482   11.75430986005390
B   10.81119145875987   9.15614902117990   13.16198348816771
B   11.69356606969636   10.52157592728759   13.49066026377444
B   8.96823184566909   13.23434876237985   12.30512624817169
B   8.89164617732305   9.08267180422430   10.81783108371876
B   9.81982483396849   13.95019983469513   11.00967409315417
B   11.55532936210350   12.12144237606768   13.92078195688847
N   14.10826409932059   7.96765338960057   13.77373773925681
H   15.12073255101574   8.01597452332781   13.83246893309845
H   13.75410389262490   7.25792763854965   14.41501724464710
H   15.56362838021350   9.78148766186310   12.56639738030663
35
F:    ...  E:  -0.687656019999991
W   11.77518141066341   13.33395159199896   10.27897875479573
W   13.03256474984454   11.85097424125388   12.29395076814435
W   13.63402050967934   9.89582229843639   10.11328585343901
W   13.03533241016740   8.99427061552695   12.42812433995679
W   10.90444812922700   10.54611597173076   11.06818649089952
W   10.72879965108071   7.92573207983726   11.28676175413998
W   9.59382588192682   11.35292746573634   13.28349813274343
W   8.66865555952758   11.09623411546288   9.67885494431838
W   11.09143255745426   13.81730217631259   12.79899054429527
B   9.62058198854222   13.12645741647573   9.58079867788703
B   13.58802192904492   12.10644600279134   9.75512398264703
B   12.17223394367782   11.35370170199953   9.14256549336787
B   14.85766443581730   10.39629841689012   11.91458785976104
B   13.04697842245801   14.09735269544967   11.93832625473407
B   14.74153145567717   11.69892275379972   10.85913199361341
B   10.62437618841061   11.94915735571139   8.97406603274167
B   13.98839016967134   13.31697655703856   10.85331562000496
B   10.75751908047036   10.29284589907238   8.74110739906951
B   11.58638239005627   8.84966122605605   9.46763281065341
B   12.67447429197931   7.98995500855830   10.44166941340856
B   9.28438452373168   9.20487433042327   12.46720783562459
B   8.38684703576684   13.06475956847217   10.64440314095801
B   8.27923882619790   10.35761024852091   11.76343502968444
B   9.91413295281779   9.05420182866651   9.48948929213898
B   8.00939960165652   11.95683403354460   11.77036352203519
B   10.81954238416842   9.14976489793552   13.12934062158267
B   11.70424954048800   10.51477575649524   13.48964701701498
B   8.96630401889609   13.25185955391137   12.32808013146809
B   8.87229193418223   9.11486319985275   10.80454628616198
B   9.81919925497693   13.97453915451771   11.03506791848929
B   11.57067669881364   12.11349337044359   13.92800414055636
N   14.22341824885261   8.05590520070203   13.67349785787330
H   15.24212712046568   8.10131631294854   13.68473290073775
H   13.87548823809375   7.42345668971605   14.39567875154287
H   15.79004679772077   10.07708421901751   12.60859577802886
