33
F:    ...  E:  0
W   13.99501569639618   11.79421795663573   13.52921079854258
W   14.77695910298695   13.05224581399898   11.37058300930440
W   14.05463151016792   11.52580120931726   9.44525753501254
W   11.38748084912331   10.69395446969201   13.64572026829025
W   11.32677661902848   9.27326919477556   11.45956624803673
W   10.98319970033559   14.30374164423695   12.29451825850553
W   11.26884690565196   12.37784014957008   9.04913002684799
W   8.21824564718643   11.72320189139556   11.49937108126571
W   12.30412521952617   12.03705948570663   11.48604831333161
B   13.33172870861621   9.85580814418687   10.73986869215593
B   13.23350870001163   10.01599200313553   12.49809654227634
B   14.45278662053762   10.84476646462275   11.55000458995569
B   12.08111980961154   12.89197235475346   13.78086120944971
B   13.19039864802506   13.78011390686889   12.86553805886267
B   13.04195531791344   14.38634043430809   11.27685322376367
B   11.77695841553221   14.26562545459190   10.17324289950254
B   13.20229302634174   13.50364372432128   9.72660390419220
B   12.18163122253452   10.36910253871287   9.61787993180566
B   10.42351497039636   12.75241663820920   13.82622211279672
B   8.93313477702850   13.84201926794442   11.31764137301150
B   9.09660113872902   13.18886923306389   12.89159557469917
B   10.11795518803636   14.19530190275197   10.12102171924814
B   9.31009690868486   11.54749173502844   13.41444789984366
B   9.34291869863456   9.99805684322573   10.75980519067867
B   10.54936732356680   10.24524942771907   9.57101404884466
B   9.28572371895669   11.32623723079343   9.61561720068516
B   9.57289208739756   10.20369068054129   12.44004562327842
B   8.98062258552033   12.97391192852513   9.77215140759430
B   10.19911189645567   12.59131207634281   11.03835863769060
N   11.44690071730368   7.00587519356202   11.42314586915702
H   11.46895371343540   6.63302367646603   10.47006985472470
H   12.29230032768212   6.68573310230116   11.90175627149374
H   10.64366750629940   6.58753750034923   11.90017590280602
33
F:    ...  E:  0.0290034800000001
W   14.02550806344682   11.79371414039214   13.50543393976942
W   14.80786941090405   13.05281682854843   11.34927506256129
W   14.08628288806848   11.52668421693042   9.42254615990012
W   11.41510897276410   10.68743349015982   13.61861496712525
W   11.35735617475731   9.27790246555853   11.43606394751803
W   11.00638958915587   14.29324793384741   12.27323077471474
W   11.28878947727336   12.37387468579216   9.02454218646232
W   8.24322868306450   11.71021183939180   11.47571787190977
W   12.33444393992315   12.04078088918891   11.46248469910147
B   13.36046355504075   9.85643822019474   10.71541412640387
B   13.26537289010652   10.01856719191837   12.47267119687122
B   14.48354668653212   10.84635070471746   11.52427571109454
B   12.10724234681946   12.88428999116921   13.75845611215137
B   13.21711137177546   13.77707709305132   12.84534819525944
B   13.06740298797061   14.37988775087109   11.25546407609663
B   11.80205359788603   14.25454042519303   10.15327635937653
B   13.22842218888797   13.49803417510656   9.70054603744218
B   12.21143399331937   10.37255036084641   9.59441365626133
B   10.44823473310415   12.74225982610381   13.80418133160919
B   8.95783758736712   13.82915463181109   11.29559764114203
B   9.12068648372997   13.17744753863999   12.86995447511956
B   10.14290332634138   14.18129192802320   10.10046976114338
B   9.33378976549658   11.53663075375963   13.39468392865731
B   9.37093957637817   9.99083064378535   10.73297885745584
B   10.57804627321594   10.24264553021030   9.54456430042598
B   9.30755936995793   11.31474102743932   9.58547181818430
B   9.59928888003220   10.19814720200936   12.41418110203057
B   9.00443138825629   12.96158222484706   9.74967146705032
B   10.22299847648402   12.57649392557089   11.01743582150967
N   11.29326965339700   7.04437847686183   11.55950622317308
H   11.20266166019683   6.56367355503924   10.65385342053186
H   12.12201761814543   6.65406426266988   12.03412269028990
H   10.45873166785458   6.81367934800546   12.12697535931186
33
F:    ...  E:  0.119019329999986
W   14.04641817968901   11.78032690267874   13.48500313022413
W   14.83284677453000   13.04052176193320   11.32909723812723
W   14.11313917824524   11.51813741152607   9.39997714168096
W   11.44005304757595   10.67571163535505   13.59679101498830
W   11.38813105017191   9.28335943198979   11.40437868702183
W   11.02626473473728   14.27621339375498   12.25259103154575
W   11.30918801173991   12.36156410646814   9.00035074168400
W   8.26510466953120   11.69202407739351   11.45406585772112
W   12.36078383464411   12.03481160811496   11.44057477336269
B   13.38896026704213   9.84943321828212   10.68705399921424
B   13.29035280452115   10.00823493262797   12.44839988664830
B   14.51001125600187   10.83626284222074   11.50336237126319
B   12.12799399668372   12.87078570910924   13.74094056876338
B   13.23899587640214   13.76382629487537   12.82765881658768
B   13.08859070385625   14.36493550763294   11.23652698503887
B   11.82323075250437   14.23660022780392   10.13362383601822
B   13.25141215653206   13.48423129756611   9.67897231508439
B   12.23757801348599   10.36314019496569   9.56643852239529
B   10.46856684130330   12.72596835431422   13.78520522745305
B   8.97861656830863   13.81201947853463   11.27446755604412
B   9.14302988419039   13.15874805977069   12.84764921909335
B   10.16333677527148   14.16343813656722   10.07930296953657
B   9.35353884622873   11.51947052387676   13.37744148904448
B   9.39252513568693   9.97717915402465   10.70711761290827
B   10.60072554873974   10.23189066106257   9.51505650601615
B   9.32738816594482   11.30014023378875   9.56184605428384
B   9.62295474606643   10.18685989722648   12.38917448472700
B   9.02347928144948   12.94573372486839   9.72815268571172
B   10.24351489006492   12.55789918094109   10.99619104608264
N   11.17812809582973   7.09328849413250   11.67809354764657
H   10.92512483953556   6.52323501672883   10.86872275294983
H   11.95149302732228   6.64404313623064   12.16812486505374
H   10.35994532381563   7.19138867128836   12.30907034373320
33
F:    ...  E:  0.901717639999987
W   14.00815953774024   11.73097733212744   13.50392759317777
W   14.81936787127884   12.98315491359619   11.33270404451843
W   14.09702241172170   11.46930188998235   9.39988433900075
W   11.42576974076803   10.67278569225240   13.63097056402307
W   11.37714612239214   9.31914483289969   11.37753715190288
W   11.01882850177764   14.25233144281059   12.24955268638261
W   11.30616576581082   12.32447743076798   9.00092260367044
W   8.24765797239264   11.68603395377976   11.47125346339980
W   12.35113492551211   11.99964867002111   11.45025817205549
B   13.38418017672919   9.82121038074399   10.67603261147291
B   13.25545171255302   9.96324397466948   12.45557129012112
B   14.49055630094282   10.78665729592754   11.52779002607575
B   12.10648583427546   12.85967795180487   13.76295299179117
B   13.22959172685701   13.72195104396603   12.83581820084508
B   13.08355692839658   14.32261163423832   11.24109226142001
B   11.81802417981210   14.20437132380478   10.13258715567772
B   13.24287791227313   13.43651007197426   9.69134931804327
B   12.21758260869957   10.31831348200083   9.54850326146930
B   10.44673130592078   12.72319379092332   13.80377357727208
B   8.97226476808006   13.79843010656172   11.27119672700722
B   9.13120382517220   13.15795592163807   12.85271502067539
B   10.15628925993663   14.14268888303903   10.07106865965642
B   9.33052834234281   11.51874354593124   13.39749769730907
B   9.35931240844474   9.95850708352963   10.71436044949223
B   10.56894471707342   10.19985491085348   9.50422100039513
B   9.31382025057163   11.29164034530764   9.59407913376515
B   9.62255715352522   10.20269774309410   12.39080349521333
B   9.00433718443029   12.93410986605683   9.72765304006155
B   10.23029757470743   12.53478233274581   10.98996813563095
N   11.37853544696643   7.19581127507176   11.55517014808341
H   10.88578248043708   6.52636315199770   10.95233876059429
H   11.99122642018099   6.69003699046017   12.19885613238389
H   10.60003190992838   7.72420401307620   12.15901356506671
33
F:    ...  E:  1.48200301999998
W   14.00277361789732   11.74064521936281   13.50892396834560
W   14.80941869308318   13.00244209864446   11.32979037001072
W   14.08283009034015   11.48166861601547   9.41377445791991
W   11.43177753513550   10.67737634900396   13.63803136219609
W   11.33092972497603   9.15176234810232   11.43644524659626
W   11.00133744354801   14.25955854715557   12.25767998659904
W   11.30860822133654   12.32069435054364   9.02442215586140
W   8.24250872870147   11.68229957388810   11.48296296690184
W   12.33668771859693   12.00092647510527   11.45538383168366
B   13.38334209928311   9.83815820195772   10.68931977199434
B   13.24125608405113   9.97654367449121   12.44988814935999
B   14.48030232066806   10.80200443035869   11.53773319718841
B   12.09674752110914   12.87112485543055   13.76145243441493
B   13.22440105874490   13.72634225245836   12.83644714445906
B   13.07474745326881   14.33329529347998   11.24567625756290
B   11.80972843245856   14.21792047680296   10.13804677829230
B   13.23789382364422   13.45664959969124   9.69527083810363
B   12.21167102758298   10.32376809271570   9.57144628854421
B   10.44085796126107   12.73151278603830   13.81266057810110
B   8.96691193060162   13.80740790899098   11.28292539990490
B   9.12916350085420   13.16338930464125   12.86151936731247
B   10.14848176573251   14.15672968281390   10.08069053092480
B   9.33562037956468   11.51543292505864   13.40216239399546
B   9.36578566544915   9.96983331714498   10.72669770562783
B   10.57786058441582   10.19859133906498   9.54027858430916
B   9.31842204229122   11.29618376335096   9.60690695166368
B   9.63017758615879   10.22031686782210   12.39182917777514
B   9.00326440474493   12.94031118326922   9.73966079794346
B   10.23189672825195   12.54817767141117   10.99902129671447
N   11.66925366377428   7.09169909408267   11.32210046549107
H   10.98834973490255   6.47818825281748   10.86528675611332
H   12.03520263677890   6.59953066729743   12.13907324603098
H   10.32321309844497   7.89093805864214   12.22791481971178
33
F:    ...  E:  0.971422049999973
W   13.98188779475275   11.70861778660730   13.51837285386371
W   14.79806140708297   12.98416472078767   11.33312413770816
W   14.07546416763359   11.47073695253786   9.42194795845205
W   11.43337456685829   10.67364871558587   13.64941972071119
W   11.32576441315040   9.07683127051882   11.42022123508387
W   10.99709266469979   14.25100272423402   12.25771249701492
W   11.31682509180324   12.28718228019416   9.03371263484050
W   8.24648154441330   11.67684590534986   11.48214939497189
W   12.33350096568870   11.98146158784847   11.46465790387057
B   13.38846069057428   9.81949622059642   10.68995785207217
B   13.21204195520846   9.94592083775330   12.44369161784695
B   14.47358046674798   10.78246784417672   11.55547819881998
B   12.08690445964161   12.86833250368620   13.77002164410587
B   13.22560356223629   13.70589663161064   12.84135322383876
B   13.06425984192866   14.31968656259830   11.25001064850845
B   11.79987404127433   14.21228159877457   10.13552636265970
B   13.23060529271144   13.45163954436886   9.70519081654843
B   12.21264882908600   10.29171433860450   9.57353909217624
B   10.43038448300419   12.73383173085215   13.81782630847743
B   8.96212223176652   13.80036929658311   11.28362019562291
B   9.11900069461418   13.16914489105515   12.86944430655382
B   10.14142003960091   14.15373064321648   10.07626298419218
B   9.32306048822893   11.51417483677973   13.41076226299574
B   9.35313872019559   9.95364107294323   10.70940929659797
B   10.57541837542782   10.16661291413835   9.53672459550260
B   9.32699439249071   11.28120014448382   9.61101255885099
B   9.67505979615035   10.26209989381781   12.34950628575647
B   9.00230204094469   12.92601531831964   9.74287174840681
B   10.23783928888557   12.54587777065627   10.99638287285164
N   11.79263524799277   7.08895750979445   11.19797467806258
H   11.04650217015890   6.46312446615977   10.87640546127373
H   12.20590549196852   6.60666342123925   11.99852575272050
H   10.07720806073096   8.29805134178144   12.44860617669555
33
F:    ...  E:  0.447418449999986
W   13.98922152428840   11.71141722579767   13.50589709177457
W   14.79943072162531   12.99942608919006   11.35437276665334
W   14.07161952928835   11.49227502516529   9.42019863854941
W   11.45482139336245   10.64781552620604   13.63464532316297
W   11.38095247089762   9.10974573707245   11.35905857573175
W   10.97951088726830   14.23347003491067   12.27775862995607
W   11.32315574159608   12.30081650542623   9.03904862217094
W   8.24869972621507   11.63191065175586   11.45219422625611
W   12.34010965323686   11.98937710997409   11.47270113677354
B   13.39527703140217   9.82197010615143   10.67776072818095
B   13.23085924931041   9.93686787051568   12.43304093537519
B   14.47958706326593   10.79063469944072   11.54320102840579
B   12.08718763477503   12.85385243070579   13.77657821106603
B   13.21388567624900   13.72019195603259   12.86651425729598
B   13.05135366048200   14.32807594550740   11.27540942540069
B   11.78486998825465   14.20735040376332   10.16828120839120
B   13.22688219768044   13.46649008473758   9.72159239827418
B   12.22192134623182   10.29470283928708   9.56255918713281
B   10.43434244253378   12.67329374637964   13.81644608750253
B   8.92962848615304   13.77233430144354   11.29210344124784
B   9.12739621774447   13.08540513334938   12.84662518288332
B   10.12799304976910   14.13235070404422   10.10878415635868
B   9.35924573026288   11.44091484651846   13.38053373336905
B   9.36564468033413   9.93170449048007   10.65508980835433
B   10.58527353274876   10.15044899889982   9.50347340509633
B   9.33541604268595   11.27284779967107   9.59180177804721
B   9.65802014078169   10.10351053553049   12.35008889306309
B   8.98033994551997   12.90863885668806   9.75481784846895
B   10.22000129868395   12.52582365845994   11.02019994183403
N   11.71968321346668   7.11762215960195   11.26313204649331
H   11.10558947382220   6.45973103648781   10.78408679018954
H   12.27302711500513   6.60106466555486   11.94315927217187
H   9.97047641271088   8.75934210290485   12.62026850202222
33
F:    ...  E:  0.118083979999994
W   14.00634867621198   11.70343187276429   13.48434981618895
W   14.80080751132625   13.01526797172034   11.33302520929599
W   14.10285174042342   11.51662985800911   9.41788109444209
W   11.48873622035348   10.62301488973038   13.60226659066232
W   11.42208405214980   9.12704862994738   11.34760290712481
W   11.00186883428517   14.21695126240268   12.26415319206927
W   11.32947297986155   12.33853263871061   9.00451586743092
W   8.26668554529467   11.61625909659400   11.43660459453198
W   12.35578607921857   11.96695262076684   11.43950397652061
B   13.40683621408269   9.83512333244628   10.67585904445542
B   13.27623459766746   9.92953091192016   12.42523102474916
B   14.53613923379227   10.79543272222993   11.52440398307078
B   12.10624377186149   12.82515936549514   13.75810681490357
B   13.21396645519848   13.71193404438010   12.83868091608223
B   13.06427475242996   14.35377768188190   11.25662631312874
B   11.79048110659451   14.22678901073557   10.15422801766655
B   13.23268858085659   13.49346706829631   9.70152353033465
B   12.25240681127916   10.33335836957511   9.56166120510049
B   10.45245946317168   12.64639160517543   13.78674999051821
B   8.94389561608847   13.73401016059870   11.28413423958648
B   9.13869478695922   13.06275339678275   12.84716550568151
B   10.13970598883896   14.11538737022637   10.09636185543403
B   9.38453395231676   11.42837656715380   13.32710243613681
B   9.43073772678934   9.94657097921389   10.67015727219593
B   10.62432732836905   10.18357885973055   9.50227859887401
B   9.36058687765032   11.26537709067168   9.55347059883951
B   9.58590020437295   9.99208162731251   12.40729894338727
B   8.99441375137246   12.89343507071755   9.73730207199071
B   10.23365595766870   12.49204570606757   10.99561661456417
N   11.55665174202873   7.13621324840798   11.40864288035827
H   11.11493136913873   6.49174469534469   10.75851912143358
H   12.20831930284022   6.63276421277255   12.00520980694586
H   9.64869604716056   8.82203133987189   12.86518924394913
33
F:    ...  E:  -0.0290177900000117
W   14.03075762563253   11.70802759797900   13.46854920123470
W   14.82288791550045   13.00978039382360   11.30174576992716
W   14.13095778668654   11.50159496285769   9.39853238871422
W   11.51124851759489   10.63145156409623   13.58647860794098
W   11.44004630613694   9.11847466472496   11.34940975411796
W   11.03626436426208   14.21891731027270   12.23087156709805
W   11.33741441648392   12.33833340660555   8.98467334476280
W   8.27808226598579   11.62907808105419   11.42173619626478
W   12.37298266091139   11.95487509220013   11.42303210199970
B   13.42397856257339   9.83713620140450   10.66599085825497
B   13.30328361348015   9.92929281625790   12.41119146772388
B   14.56729763512868   10.78965580021662   11.51405708722996
B   12.13366986896673   12.82962179072079   13.73920910649710
B   13.23809228625838   13.70606291802933   12.80320986100299
B   13.10040702808062   14.35892205051203   11.21971533327363
B   11.82057731861503   14.23042079244328   10.12023332538768
B   13.25423851606800   13.47704273455880   9.67556477690621
B   12.27456443482527   10.34006109185735   9.54688919636741
B   10.48481921763582   12.65875613523050   13.76070393808789
B   8.97736845678582   13.73607221263604   11.25934765454553
B   9.15877868012907   13.07848324506974   12.82403478504191
B   10.17376043346990   14.10738825529647   10.06397613317527
B   9.42604737186417   11.44671721651559   13.28130038914683
B   9.46906964650489   9.95298205702524   10.69511504419985
B   10.64878426451896   10.19188907340947   9.51662243016186
B   9.36924644503148   11.24955142718080   9.55553084531477
B   9.53670699769056   9.92320452010876   12.45398204826066
B   9.02118065314656   12.88434704947822   9.71825815632244
B   10.25708891813435   12.48372462222361   10.98357992103959
N   11.48932538915097   7.14318220519598   11.49715194671694
H   10.96666874849503   6.49120733006798   10.91610019780274
H   12.16164002058325   6.63686822768057   12.07086052632475
H   9.25418691131965   8.87830043092129   13.01376931680944
33
F:    ...  E:  -0.068846260000015
W   14.05811199274945   11.70766066264607   13.45127819224331
W   14.84941377714196   12.97935896163638   11.25973190108725
W   14.14481827689099   11.45250155693627   9.37852103038665
W   11.51809289754978   10.65565229320138   13.57487443553724
W   11.42811791888973   9.10607311719299   11.37673915993214
W   11.08411211246899   14.23128729589612   12.18702134017717
W   11.35347684632416   12.31065700173057   8.96944714579604
W   8.29062459074933   11.65948133649633   11.41250309367170
W   12.38889389544291   11.94302205960917   11.41049510503634
B   13.42510965019135   9.80956659919417   10.66985183004727
B   13.31263124695456   9.92733922850412   12.40848010814061
B   14.58050594967911   10.76433046212836   11.50238425955162
B   12.17272486687605   12.84760631788103   13.71653538367693
B   13.27698938254141   13.70245422250533   12.76030939690482
B   13.15034039409747   14.34842802861480   11.17108809429271
B   11.86405603909178   14.21599808833549   10.07655820572683
B   13.28580033749660   13.43698430054901   9.64130933680264
B   12.28175700307182   10.30878492866866   9.54483655233278
B   10.51749953376438   12.69630733753898   13.73242932477989
B   9.01905883944366   13.75683099450324   11.22058641595177
B   9.19304739629066   13.11986289590751   12.79648848840911
B   10.21815187465015   14.09827213565076   10.01924229454536
B   9.45149935385479   11.48545498905719   13.26184264555252
B   9.47701386585290   9.95808266731879   10.72735671845208
B   10.65513326203172   10.17890823547803   9.54150415838543
B   9.37773073376987   11.23257669775124   9.56179660779671
B   9.48045323219426   9.92905716883224   12.49040576764683
B   9.05919247112774   12.87775695946736   9.69236176773238
B   10.28215508344320   12.48614574997566   10.97486782654063
N   11.42094523413084   7.14216139209124   11.59425139586691
H   10.76888562059765   6.49187823009417   11.15518346400729
H   12.12228304432453   6.62497087950407   12.12356725385192
H   8.96279655397028   8.98597048275716   13.06757457679136
