22
F:    ...  E:  0
W   11.69798233178505   12.38171629470179   8.70555476720444
W   9.02884675273207   11.52112710260129   12.84272670654195
W   9.15814719325767   9.13785199171495   8.48189246234766
W   12.25396616270094   9.01793870575854   12.27466506152608
W   11.55963716667856   11.84102361886032   11.55041499829239
W   9.50978270469087   11.62896250476665   9.92550345091115
W   9.73873596375293   9.36906050602253   11.18707770942213
W   11.70429432488234   9.66601663495865   9.57666284119884
W   11.16513231792851   13.98628582812652   10.54587312087193
B   7.88484370040774   10.63115661871816   11.38857190504443
B   10.38930030828198   7.85823512744850   9.56098556379608
B   13.26657056889317   10.35312973875488   11.09201490388652
B   11.40687975562172   7.80206178684059   10.83147868496155
B   13.10886890043722   11.43742008017790   9.92420219283710
B   9.71176128049731   13.12865421459454   11.72893215381086
B   7.91556329544908   9.87473099637413   9.95014942457454
B   10.44153087731567   10.74297864574146   8.04385934244605
B   10.71617276626044   10.27966597541169   13.04745108189970
N   7.76722970569227   12.89022131286528   9.16258277248136
H   8.06462467315366   13.70094472270949   8.61691454722102
H   7.15896347357934   12.29369727231163   8.59455272622893
H   7.22948158513295   13.21353180498811   9.96980486888332
22
F:    ...  E:  0.0259258800000168
W   11.69723044201149   12.38084072583807   8.71438240824029
W   9.05650646537052   11.52343196399698   12.85063460941361
W   9.16379741837395   9.13127764258417   8.49239830460439
W   12.27605501689701   9.02446595616005   12.26632443325989
W   11.59213413135112   11.85741042654948   11.56012965155157
W   9.53428801930956   11.62502207284208   9.94576291756889
W   9.76102044914078   9.36264178436212   11.19816955854329
W   11.71908645947368   9.66621156813998   9.58285169976400
W   11.18055038522542   13.99512312055342   10.55847586036659
B   7.90973835889964   10.62952264008394   11.40424593232600
B   10.40465879684574   7.85879568159775   9.56338659928872
B   13.29182193521018   10.36029522489129   11.08274534605005
B   11.42684615534731   7.79715591281169   10.83124356805740
B   13.11829344760487   11.44189531150721   9.91619224538685
B   9.73787124880089   13.13419321798022   11.74450618544353
B   7.93506255443378   9.87635985649448   9.96465751082981
B   10.44480173997930   10.73561747847602   8.04498738392300
B   10.74530044459781   10.28895284049767   13.05280659163488
N   7.82595072363139   12.82792789115229   9.04959289682309
H   8.13278072877142   13.74373378096308   8.70841290727809
H   7.45061610265765   12.28126007820860   8.26557868916549
H   7.08831542459305   12.95893120591027   9.74695270491383
22
F:    ...  E:  0.0755161799999939
W   11.66673266444289   12.38854671560773   8.73297403935172
W   9.09360612461800   11.51494994390202   12.86469631849890
W   9.16367490249482   9.11899087263047   8.51050273614328
W   12.30212828290127   9.02532802803430   12.25016649401294
W   11.61415192642783   11.88174812403294   11.57165227407739
W   9.54202482856000   11.62674989875114   9.98521953106854
W   9.78749501799329   9.33518349268599   11.21892307251126
W   11.71218971031458   9.66532715696458   9.59262903559515
W   11.17525996189887   14.01811219688501   10.57910013981418
B   7.93889588006230   10.61262559487006   11.43241480308063
B   10.41844549617295   7.84299453598446   9.56669132661371
B   13.30481856535101   10.36984711701247   11.06620119188185
B   11.45284047606163   7.77668931635928   10.82581908618505
B   13.10371315243479   11.44837766024277   9.90143488771509
B   9.75895129412847   13.14768123401559   11.77633940375700
B   7.95478706919915   9.86211477301989   9.99488159485421
B   10.42163242958816   10.73867395899291   8.05755928360473
B   10.78113752858876   10.28631308660083   13.06048943571242
N   7.89190671707447   12.78580082715260   8.91978167152409
H   8.14972103416117   13.76257485151113   8.79260921535095
H   7.81985157077589   12.32727712780656   8.00461371001592
H   7.00409322154902   12.73021177874057   9.41884532449660
22
F:    ...  E:  0.0968738200000132
W   11.60172821353731   12.48827674069283   8.76238425645925
W   9.19343460397262   11.51339219027025   12.83373707073117
W   9.22053525098314   9.10112505030891   8.51675794583302
W   12.31624921673332   9.01060234154021   12.22450406152867
W   11.59950456300236   11.92921212686574   11.56685477501506
W   9.49272996164850   11.66118311303126   10.07406216156813
W   9.80343580733405   9.13873634465946   11.30999336808879
W   11.58213523576267   9.67548209406802   9.67041684558953
W   11.14981926696591   14.11972791146193   10.56831569249845
B   8.03750175138816   10.56986071836947   11.42332073093148
B   10.40707714078798   7.72941159861330   9.58438605040826
B   13.26370960942175   10.39248149362453   11.03018128486971
B   11.46111034235814   7.67875678842882   10.82789910947061
B   13.03898881295982   11.43335409985952   9.82832457452671
B   9.78744602309210   13.24941183606467   11.78918543186414
B   8.03063117357782   9.80397064114322   10.01083410843842
B   10.36813984997348   10.84319144582884   8.12451058921019
B   10.81734486631961   10.23585089457817   13.06534011735046
N   7.97189845272912   12.77572991990280   8.78592020312357
H   8.12923232532565   13.76442055378699   8.81360459055235
H   8.22439884207531   12.38544034770877   7.90333796250270
H   7.01954130632144   12.57593594864526   9.06829111157038
22
F:    ...  E:  0.686478179999995
W   11.53167222438948   12.55179838903830   8.69340426202692
W   9.17690703177992   11.50883229677480   12.83442546629233
W   9.14553103654515   9.13006538646308   8.53272522904894
W   12.31992610207584   9.03720502257321   12.15763254963504
W   11.59393700611476   11.94809582490848   11.56387024566698
W   9.40642504308369   11.68191489067077   10.21194550705335
W   9.74276237558854   9.10019629751982   11.33134645959170
W   11.43924261018426   9.77094452746332   9.65120215166186
W   11.17689449901328   14.10398289124640   10.57291282589713
B   7.95533091622737   10.50267925355703   11.49605234493712
B   10.36590949906601   7.74126330589707   9.55106739629996
B   13.18218905843775   10.42162781790736   10.90693104592453
B   11.45615857565027   7.73284273637577   10.75446151369950
B   12.95897461461749   11.50774891445360   9.74272916769589
B   9.75503487878191   13.28687707099405   11.80325277019814
B   7.97075622589375   9.77566568183742   10.06572224819259
B   10.24389036581190   10.93459404660434   8.16778580883673
B   10.81056550127452   10.22978074001505   13.03080514046551
N   8.12791521915469   12.76957464661602   8.86707864463048
H   8.22474160748661   13.76236071347686   8.71037839935794
H   8.77699784088125   12.13469193718370   8.23777906311110
H   7.14642396374720   12.44630546205568   8.90491244434626
22
F:    ...  E:  1.17148206000002
W   11.59801229993090   12.56352346290096   8.76200086906877
W   9.14518197372693   11.53252020124438   12.85276487114580
W   9.14358161516367   9.11042440299311   8.54474898033873
W   12.28644658006645   9.02546972412821   12.18025267933214
W   11.55633228056340   11.91849134075415   11.52761810233263
W   9.30663476836371   11.81105758593557   10.10410989317279
W   9.76887099053555   9.19734370108756   11.26562596453125
W   11.43730371004606   9.74690088613315   9.57704207943475
W   11.14255143791468   14.13959773942349   10.58249351964550
B   7.95849372077452   10.57699196855257   11.46978353325995
B   10.36196304084119   7.71346295598795   9.53708837403510
B   13.18623617834617   10.36644212459267   10.94018176848415
B   11.44972547360623   7.73768719930574   10.74185497187467
B   13.00103327612126   11.45833471187153   9.78160826382076
B   9.77323116403060   13.27478645234859   11.82251492034283
B   7.96561811527123   9.80931222607001   10.05632457096528
B   10.19417869218807   11.00143207937509   8.15625266656096
B   10.78573260563844   10.25548255490998   13.02991631304083
N   7.95348225201747   12.90559293194151   9.05004603292599
H   8.10517427052128   13.83012387447182   8.70882578216062
H   8.96077608050383   11.58524241052798   8.19267575454521
H   6.97928688303168   12.70515402996742   9.23848232830789
22
F:    ...  E:  0.652992979999993
W   11.49651640405104   12.49748032567420   8.75847451677287
W   9.15879817476134   11.52032249141178   12.84110743269195
W   9.08981846706689   9.06681055469725   8.54480416186636
W   12.31654731521108   9.06295560674963   12.17563054204290
W   11.53487592943243   11.89139239037444   11.52930793141264
W   9.26311760775679   11.79761035705313   10.03314181276271
W   9.75934467212092   9.18992186158784   11.26103180347090
W   11.51058249820137   9.72078600343714   9.57416302882314
W   11.16195765667708   14.11039066041150   10.58411124408417
B   7.98830416338579   10.57726369816550   11.44334029480269
B   10.35690470456909   7.76169691666251   9.57196181812622
B   13.22710278898776   10.42730147122283   10.95531109288389
B   11.44204293416973   7.75723036935117   10.78663567922522
B   12.98808172388941   11.49701749802458   9.77985012825750
B   9.76112116281859   13.23671286754316   11.77760898526634
B   7.93312854614664   9.80516514406602   10.04049097632057
B   10.23742287356280   10.78752003362624   8.12362773865383
B   10.78711563326292   10.23775631933304   13.02188248813972
N   7.85714198716832   12.94676239307011   9.21413929983128
H   8.00308605732690   13.87663388430301   8.85354808925299
H   9.39808364826618   11.70787796051895   7.86943086365832
H   6.85664360481826   12.76055063505573   9.33206684996643
22
F:    ...  E:  0.0772572600000103
W   11.44816677617295   12.49003992385112   8.72098066249832
W   9.17184013644935   11.50018608897059   12.85934087784634
W   9.04681536771400   9.05465535159274   8.56376648257922
W   12.34673685919961   9.09134871234402   12.16412029440688
W   11.53421896752825   11.88589969064709   11.53385176972865
W   9.24105767582664   11.74610833190897   10.04447576074647
W   9.74878223968560   9.15143077766737   11.30195625683018
W   11.52471397081312   9.71938741713968   9.59253432742750
W   11.16055392264458   14.07956548628518   10.56486145850380
B   7.98958031941283   10.53074559467508   11.49134353293260
B   10.36721677783251   7.79379847825603   9.58712618493679
B   13.23165094550613   10.47266096676664   10.93632804986278
B   11.45059371973553   7.77529062641093   10.80591117843250
B   12.96235706764276   11.52904670902802   9.75037609141194
B   9.75069024732521   13.20806388885884   11.77403455908097
B   7.91204575583106   9.77114711399426   10.08157508431070
B   10.19338415093300   10.76554135781901   8.11817425017112
B   10.80614037178045   10.22852495801468   13.02537920216668
N   7.86683072876002   12.90345735516389   9.22314742182921
H   8.01120910136975   13.86163368159029   8.91471483022227
H   9.85823932962938   11.87086359484281   7.56266227220409
H   6.86251567661884   12.65914643451975   9.18876921809805
22
F:    ...  E:  -0.219032870000007
W   11.48138086519637   12.48908913668199   8.70091706557345
W   9.18169101433642   11.48376643684356   12.86254550181054
W   9.10311497480100   9.09548928502105   8.57221162874830
W   12.37000631196393   9.09421602498781   12.18169757371515
W   11.53821979709794   11.89341630294308   11.51287438388813
W   9.24786351573807   11.70281808912011   10.01853285547363
W   9.76318253739089   9.13230518404923   11.32320516856407
W   11.54040096741056   9.72649844432264   9.60679974276164
W   11.12691162464785   14.07124655862201   10.54662394259487
B   8.00424097279138   10.49938341485126   11.50820999149257
B   10.39504930279593   7.79780729636785   9.60274728618576
B   13.24624666255094   10.47746980723351   10.94359879719642
B   11.48086909077592   7.78504549368102   10.81786642276841
B   12.98810430634702   11.53708306698948   9.75468616740700
B   9.72478171713515   13.17870792349601   11.74411174411799
B   7.93315536032760   9.74785240577479   10.09518193197936
B   10.22903414589016   10.80748805885357   8.09402868878425
B   10.82869600834402   10.23213696184836   13.02913425988844
N   7.89713127844473   12.85216116972901   9.17421477302977
H   7.99217202094600   13.84771534826019   8.97870540660525
H   10.18964463701242   11.81752387577703   7.27903003465222
H   6.95598390100166   12.51488297501373   8.91312425773026
22
F:    ...  E:  -0.307738540000003
W   11.54715925540555   12.48880501941317   8.68458997436803
W   9.18162873751793   11.47137444725576   12.84174843897730
W   9.16327605030726   9.09271433155103   8.55920911527803
W   12.39378884656045   9.10308641780600   12.19946962987029
W   11.53299770953597   11.90618529668077   11.48320146602944
W   9.28136738656156   11.67524755373343   9.94754610937527
W   9.79450111101299   9.12746627149967   11.32583063153402
W   11.58406292538557   9.71691051646279   9.61470612318911
W   11.08069903903458   14.07550552864139   10.50389803444168
B   8.02436203371519   10.48220245687020   11.48315702513703
B   10.43749945551377   7.79505967321547   9.61079026233154
B   13.27054065742837   10.48476742293131   10.96664769569773
B   11.51593858239541   7.78225058366050   10.83656803915329
B   13.01952359327989   11.53278957303753   9.77506109691501
B   9.68928273077949   13.14661492308138   11.68177901636336
B   7.96942137244280   9.73079829217445   10.07204121644454
B   10.32317772794548   10.80066831080095   8.04664308688712
B   10.84878915675067   10.24556975275686   13.02512940958063
N   7.90673556146972   12.81895539040230   9.10772786544102
H   7.92202920951693   13.83336475267248   9.05124187575731
H   10.54309138615162   11.67466685829710   7.11301739143425
H   7.06869250440531   12.43309328332841   8.67436833020047
