35
F:    ...  E:  0
W   12.06047250672633   13.48635557638452   10.21782780120389
W   13.27158630101323   12.16675236120602   12.57431417517228
W   13.81538341188080   9.96342559663252   10.52551844254082
W   13.11043430316287   9.38209427119870   12.88016017229094
W   11.29566949539054   10.81888352577013   11.35194907774457
W   10.80328246277397   8.09662042198157   11.80459646764701
W   9.66567362120914   11.84006610906433   13.42369270434757
W   8.95274193309858   11.15206600852634   9.78871336554868
W   11.22150847971038   14.09844324725733   12.66961874576121
B   9.90788980057994   13.17992733250345   9.47180202630069
B   13.87069269515086   12.11022484933689   9.91801398039957
B   12.46288199582413   11.35936066742146   9.31992867096384
B   14.83620186366149   10.57736944551717   12.33453283079924
B   13.22652757873558   14.30097107533216   11.88729429335412
B   14.94236025662574   11.77267369263029   11.14348845716131
B   10.92238425290784   11.92114530079004   9.11038998744216
B   14.21821348723751   13.38850356101421   10.94569826821375
B   11.08059479317594   10.25284993741794   9.08410436292831
B   11.81268910515777   8.86618154826776   10.02186034932611
B   12.82772973004181   8.06113960150386   11.16083181192998
B   9.44933045470128   9.61604051998273   12.73251030849204
B   8.63225104056668   13.23533200846574   10.48184278933439
B   8.48025304985776   10.67292595314659   11.87518372034663
B   10.16871330902160   9.11389769247402   9.91691242878924
B   8.21227825916972   12.25411870430384   11.69950707509966
B   10.91787071107190   9.52765290954903   13.47448276227631
B   11.77580559504195   10.93920246781426   13.79636163246977
B   9.13209023008051   13.59435645004162   12.17364457945177
B   9.02081662877904   9.29898506132518   11.10201334068839
B   10.06716944523825   14.16419742754287   10.84082444358635
B   11.62249799588413   12.57223146907488   14.05637572186685
N   8.20244058139196   11.38867690697022   15.11808274068146
H   8.38861457085587   11.96092788229610   15.94600447175236
H   7.24661865704656   11.59218923255455   14.81164469085025
H   8.23286064570866   10.40567142016582   15.40112967647227
35
F:    ...  E:  0.0311254000000076
W   12.06932305661193   13.49527758237966   10.23261741638302
W   13.26204695323766   12.17085846128313   12.58638124987863
W   13.83450456801758   9.97807128952036   10.53682167922703
W   13.10962052412648   9.37908110252235   12.88154794179178
W   11.31212077510449   10.81240546008932   11.32648500156258
W   10.81221665698166   8.09146535893856   11.76911429678342
W   9.65498834247731   11.82714471954133   13.37783899649682
W   8.97797427539253   11.15007022832630   9.75566799036105
W   11.20102572912648   14.09840591788711   12.67489434363860
B   9.92890605301642   13.18647945326255   9.45939869966350
B   13.88687610562225   12.12949133749180   9.94503240697614
B   12.49273951493385   11.37523157923115   9.31691094015011
B   14.83487204978611   10.58405135127914   12.35923955529680
B   13.21443793227500   14.30920448941398   11.91743368935301
B   14.95037772109262   11.78939304298412   11.17678592766476
B   10.95176929868471   11.93147819198253   9.10149203865415
B   14.22151999187154   13.40681880650862   10.97925942134045
B   11.11493111070278   10.26179290863733   9.06073251941885
B   11.84081447164738   8.87514274795495   10.00402785727020
B   12.84513835340285   8.06652900245386   11.15451166192967
B   9.44154867612267   9.60505515255790   12.69041567622213
B   8.63801270023492   13.23298780274115   10.44888415954210
B   8.46380395810165   10.65400355248114   11.83572781160223
B   10.19496038373300   9.11595783211900   9.88126948607347
B   8.21596043184845   12.23961791048588   11.65888375304925
B   10.90584406827354   9.52062317764063   13.43854845825436
B   11.76033681308996   10.92927245929227   13.77662075641892
B   9.11689420874300   13.58768937522900   12.14684468348912
B   9.02896336429055   9.29048347127623   11.05282752066930
B   10.06474274476623   14.16787032718547   10.83130299367065
B   11.59746873097032   12.56073316192651   14.04843467382134
N   8.38866058412776   11.50067016674501   15.20693595962700
H   8.74239748132274   12.10594303781101   15.95927313612732
H   7.40314016869886   11.77300564562652   15.04612795608988
H   8.38637638971558   10.52538317655880   15.55729046178269
35
F:    ...  E:  0.0910802100000012
W   12.07444477704474   13.50586577823411   10.25442150499156
W   13.25435488976626   12.17469182526001   12.60269681675537
W   13.85288570576272   9.99727985581946   10.54700058335380
W   13.11171562985849   9.37614736329320   12.88274974089790
W   11.33281016648945   10.80998378361884   11.30723426506238
W   10.82512343737590   8.08387110031955   11.73503213182086
W   9.63652670314318   11.80004434907605   13.33421345423854
W   9.00437056484396   11.14628099092290   9.72924026960767
W   11.17790707580494   14.09255621858605   12.68732011058336
B   9.94637352406212   13.19329726309210   9.45382132442796
B   13.90234869390494   12.15400854588142   9.97241466033732
B   12.52167607006863   11.39906893108020   9.31585602489036
B   14.83501709221743   10.59261825620555   12.38189215659881
B   13.20049793312236   14.31711124973278   11.95457295198588
B   14.95732387770445   11.80943088077253   11.20987233516074
B   10.97875893043756   11.94442747934252   9.09629731392300
B   14.22259070361968   13.42768514903226   11.01694283745369
B   11.15146270648602   10.27445268128117   9.04322662459151
B   11.86987976142505   8.88507427355913   9.98860193292472
B   12.86416599999857   8.07306431397737   11.14842263171259
B   9.43316357348491   9.58694124703302   12.64877683109527
B   8.64135563960159   13.22742622224498   10.42558890520223
B   8.44471378038274   10.62814689317908   11.79720128947363
B   10.22367044874791   9.11999146978799   9.84959794640412
B   8.21146322950326   12.21932950375475   11.62389000635674
B   10.89528955008750   9.50926837612508   13.40407746712930
B   11.74680899619347   10.91413101944317   13.76162080302340
B   9.09820549924538   13.57295409093757   12.12855346759509
B   9.03721475476370   9.27603636590657   11.00451607080263
B   10.05850336020687   14.16800964800080   10.83045647751059
B   11.57060623051535   12.54280344506880   14.04058232865347
N   8.55678754332575   11.60566676432919   15.28807069389689
H   9.10498030462495   12.24056314036270   15.87458100173888
H   7.60390835848572   11.97971578481168   15.25986956069911
H   8.53956857369572   10.68209391640536   15.73247619609414
35
F:    ...  E:  0.396117239999995
W   12.07228573266822   13.51866026325464   10.28941962045667
W   13.24515750310634   12.17580811673066   12.63149601107159
W   13.86053491774548   10.01902386235282   10.56444237437001
W   13.11838250213250   9.37247165895814   12.89782897148154
W   11.35557515562166   10.80763864770748   11.30832723322416
W   10.83490625111925   8.07561351482160   11.72093058241727
W   9.63112218968186   11.75676463745489   13.28276461970585
W   9.01966369076368   11.14754307665112   9.73039986232602
W   11.15887813711221   14.08978628316999   12.72024174679341
B   9.95223786639492   13.20767634493238   9.46970779391709
B   13.90714349575313   12.17740599919621   10.00263962949609
B   12.53403542592558   11.43113860343150   9.32506619158397
B   14.83372691771277   10.60004901925368   12.40736039251184
B   13.18693536260301   14.32379928703390   12.00262724535074
B   14.95606398294930   11.82836474129737   11.24518799962611
B   10.99016472288371   11.96845207635115   9.10082958512773
B   14.21651020585138   13.44473508335174   11.05954403376889
B   11.17362639334232   10.29663936025143   9.05129881063901
B   11.88699692981020   8.89971002150476   9.99087772307959
B   12.87572929518278   8.08479232007109   11.15346093997775
B   9.42323228324970   9.55913453944862   12.62152510246106
B   8.63942730441352   13.22688926967946   10.43232883295266
B   8.41254772527342   10.59449796391778   11.77191203110326
B   10.24331959867345   9.12917963518306   9.84153333500138
B   8.19533250330518   12.19623715882829   11.60664169452642
B   10.88191339484943   9.49536369752686   13.39015000506615
B   11.74483577479851   10.88973461123271   13.77233325009971
B   9.07990430062086   13.55707987790870   12.13292518397071
B   9.03854790736714   9.25602344483382   10.97683743790409
B   10.04949131148708   14.16586547162109   10.85607247693370
B   11.54766601177433   12.52073193543489   14.04886747891334
N   8.66005689856746   11.65537019174249   15.27213200559703
H   9.46620043487307   12.28691235095513   15.47308012499142
H   7.77815779716666   12.16706295117565   15.37801870897798
H   8.66794246968228   10.84733164682488   15.90308214647295
35
F:    ...  E:  1.60438001
W   12.06812884102860   13.53287643793715   10.28215965406326
W   13.23826371543477   12.17462689453216   12.63699485248397
W   13.82207672084998   10.01055143582012   10.56453303958544
W   13.11077989058512   9.37346599998000   12.91842662864604
W   11.34746255564967   10.82826322803355   11.32752311243551
W   10.82617989018711   8.08162109192314   11.76208199229183
W   9.59137000359794   11.75965585455005   13.41493058475412
W   9.00695958539023   11.15243503827385   9.76942492235410
W   11.16814920576938   14.08487660450609   12.72056788020980
B   9.93297634796094   13.20413498950668   9.48448865627595
B   13.88892565788786   12.16756897612882   9.98739031748431
B   12.50823281299674   11.43093315458265   9.32090029927440
B   14.82319051071718   10.59249329640055   12.39258424754691
B   13.19537137497591   14.31999121162767   11.99286877271938
B   14.93703462363082   11.81683524518970   11.22777550864304
B   10.96886650464671   11.96745982405607   9.11002863789543
B   14.21176159597297   13.42830356377493   11.04370421033792
B   11.14419175689072   10.29338186556077   9.06449524600218
B   11.86129786666450   8.89290679596675   10.01541271654371
B   12.85419597105458   8.08086051797705   11.17536582333652
B   9.42956497690309   9.58247088599501   12.65832703845858
B   8.63429999475148   13.22066373637708   10.46815020068554
B   8.40283777944217   10.59863533162071   11.79772083205505
B   10.21989667274167   9.12989474837508   9.87107324546050
B   8.19335797585924   12.20080836755328   11.64777761740877
B   10.88577072061634   9.50337379173689   13.42562216872787
B   11.75054446612894   10.89653534375193   13.78303401394801
B   9.10080058027414   13.54519614683753   12.16943233802421
B   9.02716703777599   9.26454159875607   11.02095810744217
B   10.05446541704399   14.16138905995971   10.87060181065117
B   11.49614644902328   12.52069289109652   14.10605346952683
N   8.40786552634310   11.47757644825932   15.12825145770767
H   9.78212649530257   12.35106176269252   15.13955155699882
H   7.53114293013278   11.98382632651195   15.24482959549873
H   8.47356796795202   10.70514142203623   15.78978061481790
35
F:    ...  E:  0.90794717
W   12.05988329702441   13.53277353995407   10.28813317629969
W   13.24465314455687   12.16176479005925   12.65424244742309
W   13.80251304143124   10.00354889928857   10.57067738046918
W   13.11208735061494   9.36665958494997   12.92792249017407
W   11.32557234813663   10.82011968200055   11.35976607318582
W   10.82597975477554   8.08122113460461   11.78722203192697
W   9.48111894103299   11.73218386167748   13.49820944295765
W   8.99038756179051   11.16160917492159   9.77147589446165
W   11.16561435470813   14.06259446534510   12.68697043583733
B   9.90988799075599   13.22464376529547   9.47442512958427
B   13.87163128954457   12.16136702748410   9.98332526064342
B   12.47163932674793   11.43245478793800   9.35562352616269
B   14.82079573419595   10.58468572288407   12.37997263327407
B   13.20754740444266   14.31630438860632   11.97128543312746
B   14.92285298924759   11.81947661006937   11.22602950442289
B   10.94028447961522   11.98546043101804   9.11157368507118
B   14.22375433601423   13.42170765100442   11.03489395168563
B   11.11122492152890   10.30930356158485   9.09923408766900
B   11.84352392039464   8.90576748877996   10.03606244602897
B   12.84508972052562   8.07529802890215   11.17373619246479
B   9.43831747123964   9.59760150926500   12.69668808019064
B   8.62347234473146   13.22546049807374   10.48511460175615
B   8.41169065546084   10.60176871257658   11.80322986383987
B   10.20087588472154   9.13499942579921   9.88738993406551
B   8.20201218421491   12.20130625145196   11.66109544492467
B   10.89284485884071   9.49302961019799   13.46324826040246
B   11.78507819458381   10.87703688104672   13.76840029683925
B   9.10368033011791   13.54061825526996   12.17438385686404
B   9.04416494252259   9.28214381318930   11.04979589911567
B   10.03901460811081   14.16791130802216   10.86676956625745
B   11.39422026350434   12.46813082633117   14.08678805161085
N   8.25122057199300   11.48481817459294   15.11569609345425
H   10.23167026139353   12.36971374466118   14.98085082649150
H   7.27244506971435   11.72504040904306   15.05427668639416
H   8.35847314654916   10.72943701923693   15.78570110146666
35
F:    ...  E:  0.23615842000001
W   12.07308268359210   13.56365938560513   10.25192261387761
W   13.23764327150868   12.14988174721803   12.67375843356534
W   13.81794666846788   10.01393975291726   10.59638145342039
W   13.07233092789069   9.36520286909783   12.91458816580637
W   11.33698545993414   10.89814129613256   11.37896660097797
W   10.80564316078355   8.08833214404927   11.75126924209559
W   9.44706185490092   11.69277852234954   13.50043247451919
W   8.99710027226422   11.14854640514488   9.73415139410399
W   11.13160483225085   13.93415515048325   12.67170809270964
B   9.90381691453869   13.20918285512803   9.44902084773812
B   13.89364890023226   12.17637816067692   9.99509440917391
B   12.49524258647952   11.45131892039651   9.35789049926218
B   14.80562794134388   10.58929170092015   12.41655213287647
B   13.16758674795818   14.29163284949498   11.98767546149430
B   14.92815663998616   11.82550740625197   11.25340051576050
B   10.95735340036485   11.98441393296262   9.08807611826905
B   14.21756635104348   13.41547018791928   11.07338739255322
B   11.12865067056202   10.32020422866574   9.09315044206857
B   11.86241466193511   8.94724708361507   10.03749374631489
B   12.83957505575180   8.07619828860359   11.15374551860579
B   9.42771875454215   9.59346743254829   12.65292300776639
B   8.61949664339288   13.18426067412130   10.45382569014122
B   8.42480905760596   10.60671438541746   11.78012026054386
B   10.21892680432254   9.16510760328121   9.89684942853737
B   8.15182159270249   12.18466315816335   11.64528039068543
B   10.85984527944275   9.49424165662082   13.44417008830621
B   11.72396976202687   10.85868011342830   13.78676410146822
B   9.08186695107576   13.47719998068486   12.16696742954718
B   9.00854052798319   9.26280774082531   11.01864013575663
B   10.02360856320656   14.12770618754294   10.85907989077212
B   11.44427765585465   12.45522435483550   14.19577901648447
N   8.16313456076122   11.42276666404824   15.03482201135877
H   10.66042388889080   12.63353706840323   15.13982805391563
H   7.19603105733509   11.72973605552648   15.06297709361085
H   8.28798578241796   10.71226807399790   15.75168802347922
35
F:    ...  E:  -0.232242119999995
W   12.07754677805386   13.56306223060344   10.25480852599311
W   13.22593739392008   12.15131320313987   12.69532924747730
W   13.82980296696240   10.02126312414490   10.60892937271970
W   13.05840234774118   9.39054884599721   12.90562314827780
W   11.35758237394306   10.94731361981093   11.37194962288593
W   10.80566652904346   8.09150451386791   11.71943157115758
W   9.41342933549344   11.66686871332360   13.43291044852357
W   9.01533613540324   11.13829738161755   9.70304533594103
W   11.10847020473560   13.86983466994669   12.67428901740189
B   9.92082369253979   13.20365327503558   9.43499194238402
B   13.90899600378601   12.18981647829156   10.00542384306791
B   12.52123279854510   11.46714377729568   9.34692292980403
B   14.80714837200581   10.59611676755548   12.43754839243391
B   13.14411690468381   14.28279197549122   12.01524326298250
B   14.93326567839334   11.83396451508071   11.27068786466971
B   10.97990528789571   11.98334353351784   9.07554697331557
B   14.21151031559767   13.42308000095022   11.09989737744581
B   11.16997289505024   10.32370012237945   9.08921055689470
B   11.88072413203690   8.94374423065178   10.01754518565466
B   12.84811706111966   8.08316157206416   11.14015033451310
B   9.39568791516971   9.56427434661825   12.59424788033520
B   8.61823639361208   13.17095940453967   10.41490688655986
B   8.37641412744941   10.57152044728399   11.72879845465190
B   10.24011185498378   9.17336605736856   9.88456937607361
B   8.12266626212085   12.16054878127950   11.59798144463429
B   10.82646016947184   9.50582515721002   13.39110512744111
B   11.65768820353561   10.88862900448550   13.81344816311054
B   9.04680262181678   13.45569089626722   12.13473406582941
B   8.98530540253107   9.22765048579680   10.96462133399558
B   10.01335512976731   14.11408235851690   10.85017095161068
B   11.41581940321124   12.45191822076578   14.29992905802622
N   8.25513503247075   11.45545552307049   15.02833939425619
H   11.04188943474655   12.80117188109497   15.39997720259550
H   7.32873353574785   11.85857232318504   15.14195858090931
H   8.44186992115317   10.81747401297203   15.80043647897487
35
F:    ...  E:  -0.416224629999988
W   12.08353283786078   13.56629982499173   10.26161695729163
W   13.23404901365825   12.15843107692749   12.70493424200162
W   13.84715640993819   10.03196893045109   10.60613383355581
W   13.06310281059167   9.40354388629447   12.89171743803850
W   11.38109610054873   10.97463964835010   11.36241592992621
W   10.82003406396072   8.09781827461851   11.69490420669184
W   9.43386544327124   11.66247282225996   13.40804397067912
W   9.03470303427262   11.13669403404877   9.69075853269624
W   11.10475313480642   13.85049777764399   12.68192149465091
B   9.93507259230164   13.20591030222159   9.43207834939425
B   13.92502797345461   12.20611807337043   10.01354490487984
B   12.54271840983715   11.48631374953278   9.34137983553822
B   14.81920274765952   10.60294632864613   12.44267440226507
B   13.13885252575794   14.28379390831485   12.03345226442167
B   14.94580875900028   11.84540948635937   11.27984677757207
B   10.99845094486304   11.99188472951015   9.06699237930219
B   14.21419476765406   13.43596033423213   11.11657891589417
B   11.20539455189960   10.33420367630625   9.08253104845610
B   11.90397259327592   8.94229490791201   9.99467581235425
B   12.86877612325482   8.09123905550011   11.11927873472617
B   9.38367960271600   9.54615199594665   12.57013430444087
B   8.62492740336999   13.16655875970931   10.40367186119563
B   8.35936642278415   10.55059927529311   11.70913988703190
B   10.26468400431881   9.18391535479448   9.87276883018691
B   8.12851874729590   12.14431270948823   11.58180234909577
B   10.82508895323804   9.51794885320346   13.36095496980441
B   11.64670811901781   10.89795550567827   13.82533868991553
B   9.03750981117830   13.45048018200802   12.12247868503613
B   8.99231881129996   9.21699697839078   10.93632579216113
B   10.01230924410318   14.11349940247078   10.85056426787247
B   11.44620493353629   12.45646314752035   14.33986748995343
N   8.40219538497124   11.55985294390787   15.07904836514419
H   11.30846598228288   12.88662849109912   15.47885945581909
H   7.50160347709262   12.01164811104243   15.22641864676496
H   8.67896327393646   11.04166565070154   15.91222326061887
35
F:    ...  E:  -0.485458679999994
W   12.09175603903647   13.57532288067955   10.26628136980478
W   13.25441484570228   12.16293515432237   12.69717304452944
W   13.86535747467920   10.04645428328183   10.59772205460641
W   13.08067053966903   9.40988240198679   12.87904470786451
W   11.39815661225250   10.98661749220159   11.35744794266887
W   10.83989312480684   8.10845284451619   11.68452064135364
W   9.47104608520917   11.66893575257060   13.41804660843249
W   9.04980832081434   11.14060304347565   9.69044733947323
W   11.11601032064398   13.85076821806247   12.68488477288431
B   9.94452836934641   13.21126629137130   9.43961136287815
B   13.94066272197732   12.22638654605334   10.01840400373038
B   12.55897168659327   11.50549071844491   9.34200952372069
B   14.83816784727160   10.60806174329117   12.43766725554911
B   13.14741515342820   14.29198122393719   12.04132254602251
B   14.96487466865264   11.85689386452675   11.27898820001896
B   11.01194840660201   12.00392063767064   9.06556729558128
B   14.22616285635924   13.45412203619969   11.12239899159277
B   11.22900306366403   10.34708662599685   9.07664798087372
B   11.92510589641745   8.94811611167087   9.97939352879142
B   12.89292624485620   8.10354556647031   11.10077639227629
B   9.39193315178402   9.53933628332069   12.57358156100499
B   8.63443262658088   13.16639705431338   10.41184584205318
B   8.37146240591639   10.54728550161778   11.71366842433982
B   10.28684764080209   9.19640326855058   9.86733649447135
B   8.14900092305458   12.13929084422669   11.59118651937369
B   10.84145958574137   9.52943517751032   13.35370435192953
B   11.66863371796070   10.89611511372107   13.83027842115312
B   9.04532684946975   13.45355483350277   12.12926673313298
B   9.01275708315621   9.22076028298951   10.93247977125476
B   10.01595334426834   14.11918388181399   10.85889103789895
B   11.51930718676110   12.46938911518091   14.34340007421194
N   8.52439828145050   11.66330250636438   15.13758578489355
H   11.59447102198889   12.98128089742841   15.44373642961186
H   7.64167441619983   12.14820449441463   15.30176913380498
H   8.87000141459037   11.24447901377048   16.00156152430971
