22
F:    ...  E:  0
W   12.88900824509310   13.83825580745030   10.03181151050008
W   10.40382225453780   12.85458124884924   14.26143966271681
W   10.70947308996953   10.34685312036689   9.97430643999496
W   13.86702286423803   10.68648108045452   13.72916337187221
W   12.86580020918221   13.40334700116295   12.91652445633046
W   10.81303135696102   12.85782192470782   11.38132905974269
W   11.32138315394816   10.71998392656652   12.68370420750442
W   13.20405432844926   11.18319499491976   11.01401987885964
W   12.21811411573094   15.44645044934796   11.81144660360489
B   9.33468222657766   11.80971708313173   12.84980573701528
B   12.08852375747674   9.25303726715996   11.08340311386270
B   14.70348405682439   12.08750636252515   12.47725575579783
B   13.13340363276113   9.34508397512008   12.33212579037806
B   14.41413032923017   13.10362151144765   11.27110236659459
B   10.87215924732996   14.46659096601051   13.05335234666366
B   9.42241320039476   11.01007644036395   11.43867405667518
B   11.79696374118474   12.05850660654309   9.47432293745329
B   12.21682195042055   11.80318199418208   14.49050446474375
N   13.34478563080739   17.41519115941051   12.14464172412758
H   13.59331212042078   17.48232894266998   13.13721089396766
H   14.22449262181525   17.37848362520502   11.61874200932252
H   12.86525817580665   18.28351412941668   11.88041782873558
22
F:    ...  E:  0.0969299399999954
W   12.84014705966634   13.77461189682323   9.99629340621398
W   10.36237551323556   12.75699084909070   14.26449271926057
W   10.72170778115748   10.27302303696105   9.95238507382063
W   13.89086324178300   10.68107058219493   13.74410430622815
W   12.80277634092992   13.25253884728283   12.98032320080840
W   10.78413794922862   12.75480824706607   11.37827859423977
W   11.30576551027089   10.65767018780528   12.68279908493456
W   13.23766060282077   11.20850099880736   10.99049399458121
W   12.26092114662927   15.29899529104153   11.82866329629959
B   9.30472973016182   11.70645642858831   12.83775706516776
B   12.13161238674683   9.25730669995316   11.06644617257445
B   14.69718780897481   12.11092886722823   12.47540083292742
B   13.17977545946237   9.39150070990179   12.30426071322996
B   14.37940554264349   13.18620853394637   11.30944040298247
B   10.86114437866783   14.36226626030861   13.03710893814876
B   9.41280705478367   10.90126330512483   11.42210219583505
B   11.76659726965492   11.98644302861568   9.43664850788723
B   12.16268741668413   11.66934739944404   14.53572328428297
N   13.16553363346786   17.38531462676410   12.14746975049169
H   13.62202335602254   17.48971170580754   13.04831470092414
H   13.87746490929894   17.60560403820576   11.42254243422059
H   12.41434962262905   18.06352315643422   12.08598371075897
22
F:    ...  E:  0.287944920000001
W   12.76014317502862   13.78365983907819   9.79318758544811
W   10.37785259339633   12.76427491007616   14.23624241865741
W   10.74681077232928   10.22866240669444   9.95204454718339
W   13.91363283132656   10.68465634746226   13.71508453897879
W   12.76657070905295   13.08452534064754   13.18354571850790
W   10.79951863204908   12.71267196144048   11.38646809132668
W   11.29493820117121   10.59873382608060   12.68841994745836
W   13.22660012695383   11.22336933219220   11.02678090817247
W   12.57769479597332   15.09855245241261   11.78782094823732
B   9.31543142368783   11.69934421691215   12.80480512815116
B   12.15108520873010   9.22130102535249   11.06809530982314
B   14.65119563335790   12.20064509521145   12.44669922427222
B   13.20486932977560   9.37376231890951   12.30140416417674
B   14.15705024884276   13.38116015790262   11.37687177881389
B   10.97513697966601   14.38260927826661   12.98397686791200
B   9.42312532462236   10.87667863130659   11.39871275345865
B   11.75440967860939   11.95053744232585   9.44450217144430
B   12.09158454585486   11.48019435681248   14.60983056771815
N   13.09526049642214   17.32142884114096   12.15803162731811
H   13.59633499908996   17.68866886790831   12.95642816555463
H   13.54004003697452   17.73488871802283   11.32556773207571
H   12.09595814086631   17.65345736341248   12.23811439633135
22
F:    ...  E:  0.740259210000005
W   12.67300049186334   13.85913301951499   9.64467866655199
W   10.47352499802703   12.95434368174792   14.14943208313068
W   10.80850148268613   10.25752785742514   9.92113872207561
W   13.84622555957919   10.75465157733307   13.64694455574155
W   12.83191014330557   13.28038377920541   13.38762686042094
W   11.00106654639567   12.86699884321508   11.43593702636642
W   11.26157154375771   10.39096788377688   12.80281280641725
W   12.98638356957211   11.24668396959011   11.18613288421583
W   12.78945156848553   15.06833398886978   11.77072278123979
B   9.52674195501229   11.75091410650131   12.76083867199713
B   12.12543498255888   9.09824563091764   11.07452797133012
B   14.55782517977914   12.31702472413048   12.36627212890173
B   13.09322738202519   9.23308926870335   12.37524271974641
B   14.05751247044779   13.34998999819368   11.18362818899276
B   11.10472506142075   14.68132183013389   12.98988481606593
B   9.55622881420279   10.96368696795220   11.35955363724861
B   11.75483783828824   12.02867081293230   9.40590706213291
B   12.02605998592420   11.47542129096232   14.61240509716358
N   13.24130211316387   17.24090867385489   12.25250761171815
H   13.47901483919510   17.91188003879600   12.99280531921341
H   13.59118835172228   17.61187510681343   11.37168894116696
H   12.25072781656951   17.29469266833124   12.24231194481333
22
F:    ...  E:  0.173788419999994
W   12.80215705499651   13.98015789066624   10.00917711092123
W   10.47587856259055   13.00184093975594   14.15547266016286
W   10.77369697120834   10.32015442755244   10.00227179432883
W   13.86287667097053   10.71417073921809   13.67537587992124
W   12.75796458893222   13.26911864852977   12.93323527895550
W   10.85397281511373   13.07235616546687   11.38138959651182
W   11.34611721624240   10.59508737864038   12.70665069631615
W   13.14074279422354   11.18289788572038   11.08073079253576
W   12.43854714455215   15.76401500726646   11.87149605424607
B   9.44560865723601   11.88754685160568   12.78025857638253
B   12.11976702797039   9.13838651588209   11.09285177281576
B   14.65259842054562   12.16603191239672   12.43899938520193
B   13.13115774242702   9.23683203674242   12.35574210686912
B   14.29462794677203   13.18940072607640   11.23063098405878
B   11.02970456887352   14.76641702130845   13.06123216042279
B   9.52026157700029   11.03793561225092   11.43344542067199
B   11.78812118334766   12.10678440369646   9.54420625159741
B   12.16580673397578   11.74207034699396   14.48289941677650
N   13.86139178002568   17.02547459182723   12.38750707366729
H   14.03793365319550   17.60199334221607   13.21804772152707
H   14.06288506604650   17.56116121432152   11.54050068830100
H   11.16535129162015   16.93017489269371   11.61762277501309
22
F:    ...  E:  0.0317485600000111
W   12.79413968494864   13.95826999015683   9.97338659320920
W   10.42624672567337   12.94240669375759   14.22294065292633
W   10.73030250439911   10.36797492959758   9.99090341130783
W   13.89965527750182   10.81067550225883   13.69277141323514
W   12.75903112654590   13.20651725248168   12.95526539109176
W   10.84669971481563   13.01847985654369   11.41127266202723
W   11.29266181595230   10.63680971015727   12.75899593313905
W   13.18659727470858   11.32017152921917   11.02224117471915
W   12.52565834914771   15.63562620959429   11.91651992542241
B   9.38058667082273   11.86300553600064   12.82259173289026
B   12.11639653264252   9.31939144533187   11.09979286889577
B   14.70633181139841   12.22462752794503   12.39355922987821
B   13.12719141079758   9.44433133153212   12.35168749325226
B   14.35784931075580   13.28703206787904   11.21657826822002
B   10.95370233939494   14.64986519272868   13.04944213368605
B   9.48522519289279   11.04930670662482   11.45040138403467
B   11.73160933668738   12.13751261144669   9.50517977160492
B   12.15954790223009   11.72493384962488   14.54203537597207
N   13.87769219020449   17.03696470834075   12.27526851394345
H   13.91691330915082   17.73925159336066   13.02194157244926
H   14.42364650270157   17.35093738554344   11.49621815885561
H   11.10896231478645   16.64108617407490   11.83843056030784
22
F:    ...  E:  -0.151098990000008
W   12.76026951269106   13.96501916004435   9.85710253744215
W   10.40378433064886   12.88724520229380   14.21717659752167
W   10.74131824512318   10.38462898881795   9.95700748097559
W   13.89248117641362   10.84492250699293   13.65979146530767
W   12.78627002618676   13.23984197626173   13.13742994270214
W   10.91089037291903   12.91338284547447   11.47492252530625
W   11.27015043037695   10.60807342027081   12.79694781031424
W   13.19092249082385   11.35998607123041   11.06207003580191
W   12.57533045679487   15.45192350331489   11.87242052467429
B   9.36179506933324   11.78263613967490   12.82703658580416
B   12.11342451322383   9.34226370793111   11.07510938219289
B   14.68322792222594   12.32084613416545   12.36587260073566
B   13.12699755556718   9.46392273356937   12.31971743228587
B   14.24765823088721   13.40498847628470   11.21899065702232
B   10.93812386898112   14.61509448795910   13.00286753851230
B   9.48011004883182   11.00987135106388   11.42495208807681
B   11.76205672951997   12.12622021852408   9.47776929100214
B   12.12700871446775   11.64201873525755   14.61861364755564
N   13.77657425255191   17.03615177978366   12.14381095951101
H   13.62493513368536   17.82642643888029   12.76623368606304
H   14.43062354263993   17.33283214665859   11.42138050536209
H   10.99151704137987   16.22883673029097   12.25114220841338
22
F:    ...  E:  -0.821245980000015
W   12.86773946440917   13.88602842705932   9.64174650454237
W   10.45657477768765   13.04887571866830   14.19204793037028
W   10.73090578546796   10.38636447719079   9.99132432637504
W   13.85166768289477   10.82889659515851   13.67640965209342
W   12.83840862650556   13.27683359199084   13.18821824162938
W   11.01791616535898   12.95289695039758   11.41306369487889
W   11.28082403185999   10.66398143181236   12.80565123003675
W   13.13959926700443   11.35412190928270   11.07658921404200
W   12.75425869804526   15.33817403709703   11.65452610988808
B   9.44196165356110   11.94985104675683   12.80453402091196
B   12.07776537563941   9.30009053601463   11.12130157394668
B   14.64447977829531   12.30781007301577   12.38566955054108
B   13.09691766616582   9.41531447285195   12.35525281872816
B   14.16878121351553   13.43576011392195   11.25206100843578
B   11.09677457811510   14.73742430381126   12.90234877740343
B   9.50061147395317   11.13171015659546   11.42759500321493
B   11.75564660710777   12.10479264541820   9.42771099399404
B   12.10464765106663   11.71451360036806   14.62586431030313
N   13.74575261891741   17.03984501736301   12.08290350759862
H   13.52572783695274   17.72011527721119   12.82366201902316
H   14.41137458559283   17.54361103195687   11.46413428687985
H   11.03459504391088   15.97874603516307   12.66932623077984
22
F:    ...  E:  -0.945595400000002
W   12.80190269399878   13.88765772729718   9.65038326156193
W   10.40930115900715   12.92528686210390   14.23013862819870
W   10.77952508068417   10.35696948314119   9.94677915486831
W   13.86018568663867   10.79114293142571   13.67002576048308
W   12.74903022267728   13.21209464167287   13.25012530974146
W   10.97065045318124   12.92225223858374   11.46314010171386
W   11.31438259386868   10.57427019837484   12.78061663756700
W   13.16510292279490   11.36731672234656   11.06427066612808
W   12.61764086472172   15.25155636303422   11.65973173339670
B   9.43479476161591   11.81361424747159   12.80275520778163
B   12.15439453656133   9.29220620809056   11.05401474371359
B   14.59130560267531   12.32511129427554   12.45362842934051
B   13.17560108900975   9.38603147557793   12.28270604008371
B   14.07598659279540   13.48660021048887   11.35986511192152
B   10.99657758000880   14.67977254544205   12.98779860526600
B   9.53063935177661   11.03990322479624   11.39690731874760
B   11.75932798212384   12.09096391004378   9.43380794744514
B   12.09202979444105   11.56316116846481   14.65349285885998
N   13.49707583337706   17.03755358379642   11.91159532966703
H   13.27443113371174   17.72285272884813   12.64259922702143
H   14.21979523355004   17.45387301951740   11.30611844612977
H   11.02228057720515   15.94157195661845   12.87988429468885
22
F:    ...  E:  -0.999662470000004
W   12.78364903396968   13.89212875152383   9.71562876938245
W   10.37468765698727   12.78102088690260   14.25165803018804
W   10.82192607187921   10.32322475919820   9.90448681734763
W   13.87340198725068   10.74990210555556   13.65783631984352
W   12.65748788537026   13.16962976727992   13.30309803547749
W   10.90683652859349   12.88049637016312   11.49153200026258
W   11.35688288770753   10.49827270630565   12.72553880968495
W   13.17712643355507   11.39233361269076   11.07466438003341
W   12.51342912767688   15.23433407970309   11.66994899870546
B   9.43426466590131   11.68369693797811   12.79546555816418
B   12.23776516478022   9.27564551980799   10.97827491243493
B   14.57706933344534   12.35891367458817   12.50872489979562
B   13.24523391140965   9.36437846514169   12.22245482664596
B   14.01970073508055   13.53313087406367   11.44902249505943
B   10.91982624073278   14.61826243484369   13.06374138092565
B   9.56421443479846   10.96290369785867   11.36834641904983
B   11.74549065940432   12.09708965883102   9.46280276814090
B   12.06529900176729   11.45892745787440   14.63106633916846
N   13.37282698240355   17.03724096711010   11.75059805601887
H   13.15261600885126   17.78354333105715   12.41217427051777
H   14.13669587133791   17.34475447121807   11.14710265610528
H   10.62371073442626   15.80062678769461   13.20617531607597
