33
F:    ...  E:  0
W   13.99501569639618   11.79421795663573   13.52921079854258
W   14.77695910298695   13.05224581399898   11.37058300930440
W   14.05463151016792   11.52580120931726   9.44525753501254
W   11.38748084912331   10.69395446969201   13.64572026829025
W   11.32677661902848   9.27326919477556   11.45956624803673
W   10.98319970033559   14.30374164423695   12.29451825850553
W   11.26884690565196   12.37784014957008   9.04913002684799
W   8.21824564718643   11.72320189139556   11.49937108126571
W   12.30412521952617   12.03705948570663   11.48604831333161
B   13.33172870861621   9.85580814418687   10.73986869215593
B   13.23350870001163   10.01599200313553   12.49809654227634
B   14.45278662053762   10.84476646462275   11.55000458995569
B   12.08111980961154   12.89197235475346   13.78086120944971
B   13.19039864802506   13.78011390686889   12.86553805886267
B   13.04195531791344   14.38634043430809   11.27685322376367
B   11.77695841553221   14.26562545459190   10.17324289950254
B   13.20229302634174   13.50364372432128   9.72660390419220
B   12.18163122253452   10.36910253871287   9.61787993180566
B   10.42351497039636   12.75241663820920   13.82622211279672
B   8.93313477702850   13.84201926794442   11.31764137301150
B   9.09660113872902   13.18886923306389   12.89159557469917
B   10.11795518803636   14.19530190275197   10.12102171924814
B   9.31009690868486   11.54749173502844   13.41444789984366
B   9.34291869863456   9.99805684322573   10.75980519067867
B   10.54936732356680   10.24524942771907   9.57101404884466
B   9.28572371895669   11.32623723079343   9.61561720068516
B   9.57289208739756   10.20369068054129   12.44004562327842
B   8.98062258552033   12.97391192852513   9.77215140759430
B   10.19911189645567   12.59131207634281   11.03835863769060
N   11.44690071730368   7.00587519356202   11.42314586915702
H   11.46895371343540   6.63302367646603   10.47006985472470
H   12.29230032768212   6.68573310230116   11.90175627149374
H   10.64366750629940   6.58753750034923   11.90017590280602
33
F:    ...  E:  0.0207530099999929
W   14.01800383095919   11.79404940618772   13.53349192959498
W   14.80537115240383   13.05402394464794   11.37854698871706
W   14.08799309872744   11.52977907620683   9.44847408236859
W   11.40928694013029   10.69005371878391   13.64295997352581
W   11.35444353895179   9.27921113186739   11.45864089699814
W   11.00423832592226   14.29711581923347   12.29483822255813
W   11.29295389414729   12.37887494890679   9.04675228163339
W   8.24101190109161   11.71544664043256   11.49122550145657
W   12.33132128956675   12.04097216362203   11.48465011038815
B   13.35923502191609   9.85752484613310   10.74053564136933
B   13.25777571100605   10.01749721376165   12.49869202098503
B   14.48024609145602   10.84814970386435   11.55350491875735
B   12.10092766807198   12.88479222014143   13.78070500872925
B   13.21139049674394   13.77868634136380   12.87047313133936
B   13.06657547075440   14.38450966326591   11.28078783362507
B   11.80354590833886   14.26152766127432   10.17480143956255
B   13.23153033917098   13.50270157780287   9.72621234343377
B   12.21324048110411   10.37560386318989   9.61651601229616
B   10.44282011361490   12.74409694807947   13.82299464228221
B   8.95712058501014   13.83375911440913   11.31297738750091
B   9.11791325041541   13.17992672270364   12.88628482954621
B   10.14387541670457   14.18714438030889   10.11970850705266
B   9.32921437154239   11.53957628560991   13.41140307341106
B   9.36985468302763   9.99611523586534   10.75214921732235
B   10.58041332342429   10.24774792866540   9.56591327322962
B   9.30902482901246   11.31772932187858   9.60320023464083
B   9.59488344028832   10.19718887826733   12.43436203432638
B   9.00933892569087   12.96567632402485   9.76687706314581
B   10.22370022772403   12.58252665206147   11.03873120379266
N   11.29146111986287   7.02044070110704   11.43186305298308
H   11.55210475852231   6.63105488374316   10.51585945312688
H   11.92544551340636   6.62348585437078   12.13501656065363
H   10.35516155894441   6.71443410587227   11.65227440730313
33
F:    ...  E:  0.0593264299999987
W   14.04296090031099   11.79894236350254   13.54071072812565
W   14.83293984194928   13.05448427143545   11.38279995260157
W   14.12102978192629   11.52640832472164   9.45387341989492
W   11.43488795571350   10.68966072859277   13.64948437551364
W   11.39139352996336   9.28174589088728   11.47286062087632
W   11.02376862649336   14.28982179985249   12.29252019384946
W   11.31639285534968   12.36711172160582   9.04744385075808
W   8.26511524510967   11.70080719148042   11.48829115061599
W   12.35992257444693   12.03844012604262   11.48641337712781
B   13.39286308580213   9.85643880683804   10.75001103820465
B   13.28915152907553   10.02061720666999   12.50794042857525
B   14.51359394920681   10.85027405285367   11.56200470718195
B   12.11953148110202   12.88149331718210   13.78106412675166
B   13.23131392112411   13.77769454183762   12.87255625560240
B   13.08891070690039   14.37892707079315   11.28049113437100
B   11.82685166816797   14.24932752056753   10.17461012382882
B   13.25724726465873   13.49340826497247   9.72519674192475
B   12.24773129805631   10.36976048878072   9.62291636941877
B   10.46142645464605   12.73959032822835   13.82344485623826
B   8.97860324377065   13.81923170823635   11.30631998923304
B   9.13937613413760   13.16925491806804   12.88034680333188
B   10.16680976324263   14.17117108596037   10.11508521204206
B   9.34973794981614   11.53241675221337   13.41497999685462
B   9.40010502143740   9.98608864860442   10.75555036331941
B   10.61383972483350   10.24022678691778   9.57080267956252
B   9.33285517601606   11.29687252316584   9.59757567138437
B   9.61995558623233   10.18914987247914   12.43932579796679
B   9.03785876833684   12.94554729548255   9.76383344526297
B   10.24942209324129   12.57033768543148   11.04268332823702
N   11.15625841697593   7.05580993962530   11.41999601705283
H   11.58932585596967   6.59582420221357   10.60768534631924
H   11.48315651353924   6.59477927489943   12.28597501876483
H   10.13708636010096   6.93975856751016   11.35663015686506
33
F:    ...  E:  0.399854059999996
W   14.05463737317334   11.78861078335590   13.55160086594404
W   14.84594860270748   13.02692054858286   11.37801830432316
W   14.13364414759053   11.49244009378865   9.45646572371303
W   11.44245492006142   10.68925282409541   13.67622584525464
W   11.41525037978801   9.30405377540341   11.50934606689468
W   11.03763886565336   14.27748920981595   12.28944708385163
W   11.31439366967486   12.33418935866757   9.05049454927865
W   8.27338755528606   11.68572988612345   11.48970999487057
W   12.37655605755495   12.01305938139693   11.48999508311174
B   13.40829162762517   9.84904053791291   10.76735443802911
B   13.30928344003888   10.01578883487291   12.52864550261371
B   14.53617327201760   10.82774977897438   11.57201826061404
B   12.12466187713563   12.86993624693963   13.78371091253739
B   13.23659458921812   13.75385637133505   12.86930931158831
B   13.10011962751805   14.34855170795318   11.27528490954328
B   11.83696788779663   14.22413485789994   10.17526433989916
B   13.25885515908438   13.44956343895016   9.72611840804371
B   12.25444287525879   10.34274398854442   9.63070049805730
B   10.46676840013786   12.73574878992829   13.82965117112409
B   8.98338689465048   13.80636779284565   11.29652502431474
B   9.14996268404639   13.15629052730444   12.86747135461939
B   10.17681835622842   14.14779874200379   10.11239100630925
B   9.35291757405161   11.53151558553265   13.42851422186589
B   9.40510886249007   9.96230185874294   10.77688660243056
B   10.61847838137184   10.21615784327512   9.57729448545253
B   9.32978359115212   11.25498468698941   9.59614303826461
B   9.61581139792147   10.18144999442471   12.46149556095532
B   9.05855986107778   12.91059543649455   9.76628320827802
B   10.26336859037625   12.55830138052093   11.06463783024575
N   11.17410260642413   7.12194019955077   11.40177936841541
H   11.52705078572169   6.50761710110123   10.65497594514060
H   11.17220654003075   6.62225739868238   12.29263042687099
H   10.21779682478832   7.46498431564276   11.12503393520381
33
F:    ...  E:  1.44512225999998
W   14.04032371644455   11.78430487446002   13.54899394392167
W   14.82151682344660   13.01573184350403   11.36948049847283
W   14.09899030809066   11.48284545072909   9.45450156778410
W   11.42153712640807   10.67387157113495   13.65071571596664
W   11.35499904886643   9.19031343632990   11.47586602749773
W   11.01880392079335   14.28569400862482   12.30297293529205
W   11.28297383215485   12.32655062158536   9.07418135728682
W   8.25171798035179   11.67867694485453   11.49054553388283
W   12.34437135058049   12.00017467069542   11.48723625642853
B   13.36460253109995   9.86013697746190   10.77161429822265
B   13.27742745601768   10.01682971790076   12.52478060544513
B   14.50005430951514   10.81746660354886   11.56867542058818
B   12.10601071061263   12.85880991957050   13.77888558311654
B   13.21688628788126   13.74440516711466   12.86653074991144
B   13.08109890623109   14.33210234269129   11.27217935691260
B   11.81288878900161   14.23608657716269   10.18026924371048
B   13.22532448926820   13.44227604331244   9.72272915862441
B   12.22803652160502   10.32817108757921   9.62085786581036
B   10.44705920682278   12.73954290801373   13.83833921533785
B   8.95677210521548   13.81550827163863   11.29538751157586
B   9.14403343170202   13.15333933782873   12.85634297517016
B   10.15273346532979   14.16313737993151   10.12242280154878
B   9.34168368918507   11.52799557461521   13.42180280282119
B   9.39535316620298   9.93027352000194   10.78135430401412
B   10.60062151613646   10.21644903879892   9.58443221141746
B   9.30054991024560   11.23928693182258   9.59854089923012
B   9.62105085550063   10.19736138295874   12.45562742248829
B   9.04071147156851   12.90584453153571   9.77627107042726
B   10.24461452484089   12.58178720335468   11.07923575104957
N   11.54731740150672   7.09298559699912   11.44403376668869
H   11.40765682874671   6.48803561207883   10.63032189665741
H   11.61397705452696   6.56641831009250   12.30352502874204
H   10.20972454175390   7.77900981972193   11.12276950161383
33
F:    ...  E:  0.616724409999989
W   14.04422504697681   11.78011550127835   13.55221335474464
W   14.80934283140117   12.99306199763321   11.36820759935154
W   14.06648208363369   11.45288890405716   9.46213043841196
W   11.41324822211507   10.66036216856246   13.63740975298367
W   11.32692127867295   9.07486300616775   11.46211093421456
W   11.02246993222193   14.28190839896134   12.30884902975200
W   11.26952321880856   12.31432988010291   9.08815973515093
W   8.25120583538381   11.67669468180131   11.48334510776627
W   12.32816999805574   11.98037349275178   11.50522509143209
B   13.33697527367210   9.84674377909739   10.79035228701049
B   13.27631552431163   10.00351662100220   12.54366555307020
B   14.48639399987761   10.79833690736722   11.57454044597830
B   12.10863420397020   12.84564423106034   13.79358804703922
B   13.20873563948397   13.73250909682347   12.86751170525460
B   13.07099579567340   14.31198790796156   11.27333660672723
B   11.80972555368362   14.25151123079016   10.17384530191158
B   13.21013235972367   13.42251267496894   9.72931945486929
B   12.21615455627957   10.29049033947834   9.61288600449642
B   10.44474248722061   12.73740301857228   13.83952760519936
B   8.95011273875236   13.83041074548557   11.29421426269440
B   9.14232445459447   13.16176401260683   12.85337394981433
B   10.15000212002034   14.17558748594472   10.12561904822639
B   9.33253698486494   11.53243784780188   13.41179067622905
B   9.39215626027065   9.92971700158950   10.79463804323904
B   10.59482776405921   10.22697354257975   9.59088919816406
B   9.27022615576677   11.21669479031343   9.59813449212340
B   9.61029818396764   10.19399532127819   12.46103055388597
B   9.03501378879358   12.90753337096213   9.78451490357258
B   10.24397857129678   12.60316529483807   11.08755711841693
N   11.77610697747626   7.08965278353234   11.46995442771184
H   11.27283230375150   6.48631844510489   10.79789811060777
H   12.03156013301282   6.56313194272487   12.28506615826923
H   9.96905299986008   8.09878685445247   10.85051827933788
33
F:    ...  E:  -0.16446861
W   14.04581858413204   11.79701646324010   13.53763240866808
W   14.80336377508162   13.02077593621035   11.36376934795344
W   14.08896372870400   11.47128976563535   9.46302595235302
W   11.44821252253400   10.67084821165312   13.65576679778824
W   11.41135401182072   9.09514762660980   11.50781440417684
W   10.99364141836469   14.26907916332718   12.30081947615860
W   11.27289889877968   12.29349109434360   9.08672325578592
W   8.25701153237412   11.62164304465259   11.52518659599986
W   12.34065434430862   11.98394825166315   11.49577931894192
B   13.37532402438609   9.83986896045624   10.79577261055236
B   13.28199029577446   10.00156503132300   12.53303066354738
B   14.50086223244061   10.81355324778819   11.57167599249318
B   12.10374688802693   12.86528923408498   13.78450272240951
B   13.19468911947552   13.75208310320451   12.85559629434265
B   13.04389404242102   14.31394137572222   11.25875366165413
B   11.77494453776643   14.21679662164840   10.17135832713670
B   13.19942875987340   13.42941790896201   9.71333099880264
B   12.27374003174085   10.27212410592777   9.59389582858588
B   10.44538650946948   12.73840778136778   13.85762707685168
B   8.90961088417916   13.75968851727067   11.28771018533891
B   9.13143261866414   13.13066382025145   12.86263536320871
B   10.11479198599954   14.10351580099752   10.12032274144710
B   9.35142195275927   11.51373609747300   13.46148788887973
B   9.41636694421310   9.79674310366451   10.81646063908537
B   10.66500106486908   10.24597497413337   9.63978862964386
B   9.29645333597957   11.15514737070759   9.61664991431591
B   9.67313681245890   10.21804717976148   12.48452479231170
B   9.02871679081521   12.82034606681552   9.79135962855158
B   10.23315717296651   12.55389171895371   11.10970602521559
N   11.71895179649441   7.11295469549350   11.50759860247609
H   11.38839674991564   6.52877720194692   10.73070154675882
H   12.13983459242936   6.55039667039450   12.24828738481353
H   9.54822531843442   8.51525313196847   10.72212820140891
33
F:    ...  E:  -0.492233710000022
W   14.06829749003810   11.81382607649370   13.54190581509187
W   14.82289003180296   13.03742366935728   11.36517800090289
W   14.11705614328607   11.48277544063524   9.46074533845518
W   11.47299804286934   10.67472597048186   13.65536094250502
W   11.47425765202355   9.10621584864919   11.53424315656031
W   11.00029967934035   14.25896915909454   12.29393289600793
W   11.28633589885129   12.26487169369910   9.09488449532416
W   8.26869326489446   11.61697733460364   11.53086317564910
W   12.36664143349621   11.99923171749631   11.49601878449885
B   13.42611009167969   9.85093790140921   10.78677794051995
B   13.31849134940124   10.02544581187193   12.53568705303223
B   14.53354488416470   10.83522410752548   11.57676821444224
B   12.11779961918815   12.87446136355621   13.78338388150982
B   13.20986691413601   13.77017441172737   12.85604992358781
B   13.05788126930217   14.32489170516303   11.25700446466419
B   11.78649976857401   14.20177848783186   10.16982184203896
B   13.22149481499581   13.43573853870803   9.71312571461614
B   12.29919867985367   10.26902514070131   9.61452175991298
B   10.45732637636331   12.73461424801578   13.85991604760711
B   8.92515474965866   13.73533621002140   11.29220665984199
B   9.13945044464936   13.11676916824834   12.87121239069728
B   10.12626192255754   14.08486346009270   10.12068191733247
B   9.38629429375979   11.49370954549234   13.44837003289101
B   9.39837504391368   9.73867363478031   10.78865231450566
B   10.68321466904189   10.20018278819539   9.65526845037560
B   9.33474972006734   11.15384922138129   9.63354570806518
B   9.70960257804030   10.20120042794387   12.46481317057636
B   9.03881498289573   12.80705099001868   9.78723588894777
B   10.24295899381092   12.52291924824178   11.10153584258325
N   11.62849457031957   7.13046322095155   11.54629752116895
H   11.59619658484526   6.57735815788589   10.68724754432010
H   11.84338165259934   6.53511043435182   12.35201850757870
H   9.11278966723398   8.59662814302723   10.59614788184551
33
F:    ...  E:  -0.663313170000009
W   14.09010997868253   11.79739209693247   13.55229946191110
W   14.85611115417845   13.01930091943922   11.38027132403092
W   14.14327582425342   11.46714986410745   9.46788482614911
W   11.47391507180166   10.66174902665643   13.63703184298237
W   11.48405722444386   9.10686130609472   11.53141120998853
W   11.03430376514625   14.25295844135869   12.29315079326388
W   11.32064666490780   12.25306493892523   9.09902754161334
W   8.28530666219438   11.63817011728345   11.51079456042634
W   12.39272925031136   11.99991991871544   11.50466553697085
B   13.44172423388185   9.83762888431176   10.78839343816977
B   13.33504835748502   10.02195837063098   12.53720952905282
B   14.55176812647797   10.82114814968659   11.58486337134607
B   12.14005100252105   12.86188640357888   13.78722490373631
B   13.24215638299878   13.76161028184339   12.86915098776960
B   13.10312007094212   14.31746604721688   11.26765701219160
B   11.83213929815319   14.19476326470581   10.17573220312394
B   13.26537421857459   13.42730982940119   9.72215818316426
B   12.30520220661284   10.26217202822302   9.62715247063136
B   10.47891671927443   12.72216892685705   13.84881690681676
B   8.96809274375866   13.75177372970397   11.29252563808152
B   9.16063121115035   13.11998055173616   12.86852891270379
B   10.17099309398874   14.09738673993304   10.12101086961435
B   9.40750975614681   11.48618569229104   13.41377294145417
B   9.35865786160550   9.74078257666149   10.74477883725653
B   10.68127701119716   10.17340825181167   9.63325519380276
B   9.37276785581376   11.18460394103722   9.63929735781181
B   9.69694677264162   10.17420235514660   12.42754376087269
B   9.06524523072485   12.84082630236414   9.77488837868471
B   10.26818534627593   12.51703416991719   11.08089455634058
N   11.52566929397962   7.14013588876075   11.59389414538515
H   11.73841483212865   6.55547328631141   10.78616725687366
H   11.45819265254875   6.57147278592550   12.44107360547397
H   8.82288340285080   8.69347819008013   10.46889571997022
33
F:    ...  E:  -0.71463866000002
W   14.08906554832133   11.75006057765820   13.55998661421707
W   14.88467102868330   12.97979529835693   11.39054694598591
W   14.14979406575770   11.44268020616147   9.48970190795251
W   11.46358435997291   10.64227912929441   13.63811036664768
W   11.45742910260348   9.10502313452709   11.50547644677992
W   11.09202066731247   14.22457986621481   12.29012726991812
W   11.36051529521288   12.26469522556924   9.07328618001595
W   8.30947846808006   11.68746459132955   11.49586800255848
W   12.40486932012537   11.95976387422564   11.51554046923492
B   13.42378557067332   9.79182327535770   10.78891086981140
B   13.31958898323594   9.97902792377646   12.53785078387295
B   14.54897483566435   10.78078124603273   11.59575433799432
B   12.16188671599506   12.83297271032348   13.80493480452476
B   13.27155195677213   13.72225721216128   12.88036061143519
B   13.13461101404610   14.29577390552113   11.28141237739457
B   11.88452767519191   14.20665464665100   10.16677851729653
B   13.30320644826094   13.41530042504569   9.72544527105332
B   12.28954564832850   10.26166575228499   9.64168967999069
B   10.49779080537454   12.70527769250285   13.83345934335655
B   9.02977531526522   13.75145994197693   11.30714327898441
B   9.15551361871798   13.14444025240827   12.90283005242795
B   10.23097480949015   14.10444345118153   10.11667921958143
B   9.39727170360864   11.49594286906142   13.39601308544363
B   9.32081532500914   9.79513077353565   10.69267791213988
B   10.66283866855670   10.19353519951534   9.56605211055217
B   9.39448690123811   11.25277688105824   9.61486480673328
B   9.69794438657163   10.19676429629349   12.38752544784202
B   9.07760447354889   12.90301373793015   9.75627715033357
B   10.29653715944356   12.48623916339485   11.01609817772196
N   11.44873865428936   7.14109643625992   11.63191257822709
H   11.92910158291761   6.50256332733806   10.99511750177794
H   11.13723608929929   6.62999751745581   12.45899498957944
H   8.64568708008534   8.82614273724995   10.41399616626881
