35
F:    ...  E:  0
W   11.65170999232114   12.97493795624515   10.43798561706065
W   12.90964537017318   11.46282288970647   12.70123935539566
W   13.53230592192938   9.46501724860413   10.46626928066901
W   12.89013407723200   8.65406045108282   12.77102436581462
W   10.98352733936912   10.12070982250944   11.39293793684307
W   10.64023824703206   7.36993126587290   11.62523572126164
W   9.38923681919187   10.85383565056873   13.49491877179947
W   8.63140197456745   10.47653896440140   9.89153911230602
W   10.82283832538941   13.27510639793843   12.99267017890695
B   9.49411640353957   12.56709190594004   9.73549687350638
B   13.50340571911522   11.66140929401401   10.09021570343590
B   12.12335439815738   10.91750989775383   9.41888824624132
B   14.55599336437591   9.94850948896242   12.32755198710946
B   12.79769111782729   13.64591107541333   12.22040037288526
B   14.61026249155261   11.25676303130588   11.26175170462831
B   10.56410579755859   11.40926789297055   9.25374427959322
B   13.82639878228539   12.85529860106292   11.21456433101140
B   10.79576670500022   9.75304874131117   9.08407289260580
B   11.58841925365765   8.31979563966178   9.86644090895137
B   12.64308550621681   7.48079744462133   10.92653914174333
B   9.17138231036349   8.69788142384721   12.70245043962796
B   8.24487113524380   12.47834574154835   10.76931462608407
B   8.12692037919328   9.77984843390052   11.94411156833933
B   9.93255745620822   8.51564497975567   9.83630964623336
B   7.85329260080103   11.37767873468396   11.89802399343065
B   10.67185621964900   8.68286972225680   13.39701561327528
B   11.52257613957707   10.05846333123237   13.84456417297865
B   8.74233366493143   12.71274336968325   12.45920945248328
B   8.79030900564933   8.53861533071981   11.04175680339392
B   9.63959366157433   13.42903794797335   11.18257062234234
B   11.29813265077907   11.65857908034180   14.24401534381353
N   12.04953678524474   14.76282531498575   9.10942916325983
H   12.48423490755569   15.47566420674021   9.70302744066481
H   12.69234773761465   14.57176672767305   8.33516467257338
H   11.18781912620051   15.15307338178892   8.72095104680821
35
F:    ...  E:  0.0251666999999998
W   11.67453476669150   12.95952432671553   10.45024074870308
W   12.93906195714793   11.45693094348891   12.70420120373342
W   13.55332916368496   9.45912833478757   10.46038272134034
W   12.90819349670346   8.65192802493056   12.76536325581840
W   11.00536124945209   10.12302871935973   11.38518014397306
W   10.65516581703693   7.37339860674726   11.62275421443931
W   9.40687280810663   10.85828261624560   13.48593396429101
W   8.65069028592773   10.47705562257093   9.88554431727106
W   10.84392007713899   13.27239121973692   12.99053318322452
B   9.51556047616779   12.56326604064491   9.73304398799318
B   13.52922557844574   11.65659418532649   10.08587526861519
B   12.14633859264155   10.91242051554196   9.41618834340791
B   14.58113799978699   9.93909877006313   12.32058348908251
B   12.82563883932640   13.63804003571347   12.22444753685016
B   14.63507543179572   11.24928407159392   11.25748998794725
B   10.58592340103748   11.40534700827453   9.25222407245746
B   13.85021223296680   12.84862132104011   11.21295919660398
B   10.81488142437707   9.75162028609277   9.07692035995780
B   11.60492134582619   8.32059442442138   9.86110525276786
B   12.65705285405444   7.47869064468862   10.92308022070487
B   9.18425566477525   8.70301749561200   12.69711735744532
B   8.26395690382081   12.48314843050206   10.76263168146266
B   8.13664688299293   9.78313433698656   11.93844592070249
B   9.94816787541109   8.51758581869343   9.83252158916263
B   7.86988404317705   11.38164634809750   11.89097929632129
B   10.68683297249273   8.68928696173087   13.38891462274477
B   11.54203083550171   10.05956199410045   13.83876932842175
B   8.75793082165074   12.71698953367597   12.45303456491366
B   8.80424992245500   8.54206873159658   11.03660105987021
B   9.65734385263536   13.42386367026623   11.17932611966858
B   11.31724929376454   11.65880523962614   14.23847015641796
N   11.92537628795323   14.77611017676181   9.14191200319562
H   12.50550161823764   15.45241431881231   9.64089493931538
H   12.37317161360945   14.60046711323723   8.22385470787386
H   11.00570500028373   15.17805549939381   8.98387657037835
35
F:    ...  E:  0.0639213900000186
W   11.69566894660783   12.94355824839112   10.45006730138564
W   12.96950137480664   11.45225520423382   12.70261343497917
W   13.57436833150004   9.45095451333278   10.45357877145688
W   12.92601132805228   8.64976607980231   12.76152473610431
W   11.03290611834217   10.12752087186458   11.37462122466346
W   10.67119062225781   7.37696157740198   11.62490053618953
W   9.42453517872011   10.86035510376472   13.47626984519560
W   8.67141984018055   10.47270595277733   9.88224597462793
W   10.86417473657274   13.26825782447746   12.97919444155004
B   9.53657663463266   12.55425235030854   9.72610374609014
B   13.55473917608054   11.64808853767147   10.07656791374286
B   12.16876287587212   10.90490801849841   9.40819452136620
B   14.60407537701847   9.93122177057233   12.31322928433483
B   12.84981761490599   13.63178686751178   12.21536194648695
B   14.65878951711585   11.24155773236829   11.25023193410526
B   10.60650598761017   11.39663287658716   9.24235233963858
B   13.87441651559818   12.84090253495505   11.20374651001344
B   10.83341724344153   9.74594552357938   9.07102735382013
B   11.62130161857304   8.32085567463794   9.85943672450046
B   12.67078176506851   7.47601765764354   10.92255227077355
B   9.19463848034030   8.70581223850770   12.69552343699540
B   8.28331140232138   12.48369605399194   10.75273905911980
B   8.14237537348480   9.78280532691968   11.93553615245648
B   9.96332728176792   8.51747157155654   9.83452301274878
B   7.88663231535394   11.38236880059387   11.88259762797431
B   10.70071581824904   8.69887882208637   13.38110188800294
B   11.56284173671570   10.06200102046191   13.83317019219116
B   8.77446885198959   12.71787575643121   12.44197861127609
B   8.81507841143169   8.54153508909675   11.03491664079168
B   9.67373837100062   13.41570930815760   11.16870109916626
B   11.33706096995507   11.66088968285360   14.22926819444277
N   11.81323162520367   14.79230806520195   9.17262335780050
H   12.51354474657768   15.44192722025761   9.55730018501151
H   12.01284307078290   14.66219629491176   8.16936643507552
H   10.87863212894571   15.20142121566852   9.27823468299822
35
F:    ...  E:  0.172837580000021
W   11.71544132323596   12.92314934392940   10.44240035372172
W   13.00249331883262   11.45020759381883   12.69709287854240
W   13.59480374085735   9.44339950189948   10.44443419454111
W   12.94364618580484   8.64998407888907   12.75792651187197
W   11.06358602552027   10.13712429779721   11.35881462860853
W   10.68641353124359   7.38510797312015   11.62956611120230
W   9.44129581717075   10.86847979917959   13.46276069723967
W   8.69265409696803   10.47000407631756   9.87810699939265
W   10.88201333096350   13.26820011292446   12.95726160008815
B   9.55684276803295   12.54144128592728   9.71245594746219
B   13.58224417276704   11.63717272813284   10.06091791326848
B   12.19228115204494   10.89811750061667   9.39274659722671
B   14.62703864426018   9.92620672965667   12.30230466553568
B   12.87143186526657   13.62827335802353   12.19601035246363
B   14.68295503264985   11.23632159055852   11.23910562595320
B   10.62509295508918   11.38694409178365   9.22046062081868
B   13.90075376659895   12.83366039665704   11.18769559701533
B   10.85627178112355   9.74016532951920   9.06557611865536
B   11.63722491596613   8.32296674276595   9.85962156932792
B   12.68323703077582   7.47602787970303   10.92398484007300
B   9.20301540254915   8.71272323652548   12.69442079457186
B   8.30178318656600   12.48822838878999   10.73531018000888
B   8.14686235084458   9.78561105721663   11.93285603105467
B   9.97905497970081   8.52146974527535   9.84072430410892
B   7.90580668970402   11.38730161153815   11.86894123071191
B   10.71335472012600   8.71372786541567   13.37306732331290
B   11.58327504854195   10.06989791319698   13.82710494575294
B   8.79272749639082   12.72409303812674   12.42174787318029
B   8.82359463588851   8.54268430491853   11.03409077455801
B   9.68777563170751   13.41562397196540   11.14764715464515
B   11.35630671491394   11.66942292923006   14.21344781249652
N   11.71273318490146   14.79879867228791   9.20899370879345
H   12.48328697708704   15.42852694195354   9.44459901871845
H   11.60953113886185   14.74073061335695   8.19641379454388
H   10.82457177412126   15.13960668605864   9.63279261760896
35
F:    ...  E:  1.11177334000001
W   11.75209576522346   12.91362299351329   10.39992955048188
W   12.99446318977314   11.45137656208921   12.67763612958743
W   13.58916694702796   9.45230278379321   10.45019390662146
W   12.94117096929190   8.65344999268535   12.77601392573500
W   11.07158164233682   10.13507876669498   11.34682785725817
W   10.67395543924249   7.39779947205840   11.63549973776485
W   9.44606669985783   10.92318795134305   13.41965052651412
W   8.70858387772883   10.48511574075459   9.86396061285536
W   10.88623593313575   13.31483847020540   12.90994521126001
B   9.57791147070882   12.52661089616319   9.68097130113900
B   13.59395238442638   11.64440175003342   10.04771162256270
B   12.20274123312842   10.91749644425465   9.38397704035094
B   14.61851650682170   9.92907626995958   12.30257047474285
B   12.86691767505317   13.63419890528169   12.16722394658666
B   14.67739907718781   11.24250753329951   11.24004254177478
B   10.64196936437973   11.39246068538556   9.16878278107449
B   13.90117056155381   12.83586704602310   11.17390018484821
B   10.87594393266944   9.74215919201024   9.06845477705463
B   11.63148031234625   8.32374767139699   9.85660215601363
B   12.67021164296752   7.49463498668002   10.93616702923522
B   9.19878312700254   8.74444092335793   12.69807610845796
B   8.31175827664409   12.53753568584522   10.67738712795303
B   8.15223061025073   9.82640972420504   11.92156116989798
B   9.97462630328145   8.53281066549888   9.84307760735182
B   7.93792028895435   11.43700141587461   11.82582656776433
B   10.71225172430081   8.72377364294784   13.37848136038871
B   11.57224051243859   10.09685669849213   13.82086268430256
B   8.82465416784510   12.77744574416733   12.34831871621194
B   8.81786071067954   8.56452401506158   11.03747979277644
B   9.69201750388847   13.49770935111735   11.07240659456366
B   11.34889840880090   11.71266255715092   14.17399628685861
N   11.69312122517751   14.77381580397041   9.26332255932682
H   12.46917842294709   15.38434443853010   9.50102226320381
H   11.54455509315279   14.72291852312796   8.25457645447728
H   10.78977038685207   14.61921808410363   10.03894478007896
35
F:    ...  E:  0.986465960000004
W   11.77448617760429   13.04366900570389   10.30281929507126
W   12.95438200646744   11.44117686205094   12.65238257481807
W   13.57081768029287   9.46545963803159   10.45538216380197
W   12.93479506864758   8.64576049130983   12.78464562989880
W   11.05280459532965   10.09976912659871   11.35652883903105
W   10.67389951068363   7.39390821096271   11.63487218551061
W   9.44682537888761   10.92669146883731   13.41555967649658
W   8.70030479022056   10.48448573705004   9.86326297725930
W   10.89329182416110   13.35013096853624   12.94915320249814
B   9.55591644065261   12.49317448683718   9.66841072641643
B   13.56766233954124   11.66383422711309   10.05729042574982
B   12.18670993229946   10.95071966048416   9.39966178217291
B   14.59931507450438   9.93441118372362   12.30204717862675
B   12.83538883227966   13.64918551552442   12.17001212851748
B   14.65123147800986   11.25218943657272   11.24390057803727
B   10.63735953621769   11.40337141848623   9.16493360911836
B   13.86381095393923   12.84214801533342   11.18111644063428
B   10.87363073690237   9.74149709430734   9.06875049765981
B   11.62317233984609   8.31049833275721   9.84400601039274
B   12.66679644878207   7.49792856453259   10.93625828932216
B   9.19663992276860   8.74155685711843   12.70182046268478
B   8.31146759949787   12.55199954673222   10.67367381884160
B   8.15411840161941   9.82935592084886   11.91662400270316
B   9.96707738237967   8.52185572235345   9.82840408550249
B   7.94290115599277   11.45192751026999   11.82411708413389
B   10.70978624859268   8.71834243897596   13.38695425387498
B   11.56451876240870   10.09939892182468   13.82358197436301
B   8.83846313921339   12.79140637865006   12.35757160701184
B   8.82808298616276   8.57017466935707   11.04013153405717
B   9.71825372262815   13.50996815855656   11.06314195091837
B   11.34314148494929   11.72075996995492   14.16802075971661
N   11.90178395909958   14.71776447380995   9.14955900099722
H   12.55330964956539   15.44193939484467   9.45584286580409
H   11.82758233180083   14.71374129649340   8.14102362168024
H   10.44167349512841   14.39120068253260   10.37994015375293
35
F:    ...  E:  0.228701950000016
W   11.80461563100110   13.04220970339507   10.26250942246219
W   12.98319370978779   11.44918148461309   12.69104833474562
W   13.59728408117367   9.45147300495747   10.46649355777646
W   12.92263019897017   8.66647849129586   12.78621978259318
W   11.05934180117147   10.16346527555930   11.36828200593895
W   10.62699364733768   7.40335714395944   11.62868227726179
W   9.43303835511390   10.95772983676147   13.40680287162174
W   8.69845124229019   10.48668097620293   9.84453640897981
W   10.88598028378509   13.31262723477718   12.94427824820347
B   9.59432330048850   12.46930731296341   9.68416748801123
B   13.58160316654458   11.63191769244525   10.06013736295285
B   12.21875371070776   10.91017670606763   9.36648159083884
B   14.61393210680576   9.93013666057700   12.31660297776126
B   12.84189996460749   13.61845093564357   12.13855575792019
B   14.67709720223369   11.23951938645110   11.25229036786189
B   10.67049364578594   11.38890851701237   9.14012298432294
B   13.89842287566025   12.81145148407288   11.19803288708106
B   10.86758089321596   9.73334360755954   9.07563083252109
B   11.61546289934085   8.32745000245705   9.86576260232324
B   12.64505759537173   7.51479256133746   10.94796999067354
B   9.18708765361127   8.76972691349702   12.69929457606371
B   8.30209411813917   12.52157835107509   10.63956746072751
B   8.14855736297442   9.84103296454999   11.91091287631193
B   9.96475559368694   8.54085341597920   9.86016205783719
B   7.92135386294572   11.45177574899523   11.80463652455331
B   10.69619003010703   8.70637172205125   13.38632389211011
B   11.54417131173765   10.09650293504566   13.81142361548732
B   8.81260204888777   12.77860240181892   12.34710790573124
B   8.79449406278386   8.55862994272308   11.05033506531202
B   9.70638602729454   13.55742391975097   11.02475984622688
B   11.34575771208836   11.70476807111946   14.18857206530958
N   12.15260494219341   14.59251521587020   9.09988020635794
H   12.64022178978573   15.40014180217592   9.46382261586212
H   11.97862818067121   14.70842619287376   8.10197065236224
H   9.93034037877641   14.62439377144193   10.52802427497112
35
F:    ...  E:  -0.096046269999988
W   11.84034786797403   13.01832938751550   10.25302977146251
W   13.05806659968586   11.48726388848168   12.76060419151639
W   13.63425496457331   9.41098123190347   10.43703605301506
W   12.93926642417563   8.71514635344076   12.75171898005804
W   11.12530116503470   10.30353691939653   11.38405829454668
W   10.62883035850916   7.41928794508443   11.63572238155663
W   9.41401559232896   10.92280044688666   13.41913168858235
W   8.72498874899139   10.49309088476616   9.85599252295952
W   10.89920864098843   13.20725069113428   12.89155265823163
B   9.63181858245376   12.48457977870397   9.69527767522068
B   13.61387981647536   11.58874170308902   10.04543447617812
B   12.24596091466702   10.88371853431870   9.34330597079775
B   14.65538594366220   9.92916073049372   12.29948399008890
B   12.86950669090855   13.58970944384177   12.11748807288175
B   14.71691125472437   11.22713298637761   11.23627041736865
B   10.68794114512665   11.38449748894671   9.14966606921901
B   13.93956046830703   12.78406004241589   11.18602056853983
B   10.87601451735051   9.73972211961234   9.09838406489926
B   11.62770790323641   8.36054664887942   9.89275385764993
B   12.64876758589732   7.50634122524093   10.92814367808452
B   9.18593740643253   8.76609785880600   12.69570346735642
B   8.31150242540002   12.51406948029304   10.63400227376933
B   8.14256366739609   9.82572696810505   11.90949117252173
B   9.97483139071011   8.55356947238501   9.89569654788765
B   7.91918351700923   11.43657501767520   11.79784177714236
B   10.70099048222521   8.71554452527886   13.36825269036501
B   11.55870932344649   10.08567591403005   13.81608994862351
B   8.82796176501401   12.75542059728365   12.32214925263650
B   8.76723285916895   8.53113713129462   11.03931723320617
B   9.66641478480071   13.60231219623259   11.00062187622609
B   11.36711258358187   11.68105439040267   14.21169884200423
N   12.12720548179985   14.55658199904927   9.07977295755003
H   12.70578170449963   15.32305370563867   9.37749511468803
H   11.67429715126679   14.78015156417699   8.18680635250412
H   9.65394165925529   14.77853211589539   10.64538649773758
35
F:    ...  E:  -0.257799369999987
W   11.84920048270091   13.00757135548455   10.25920372270764
W   13.10396060691166   11.50767128378266   12.78550859218908
W   13.66902329063980   9.39070371164081   10.40312583213702
W   12.97187876819898   8.73456283277060   12.72271338823504
W   11.16822956210720   10.33325744135469   11.38679845355696
W   10.65780922999335   7.42631191040616   11.63101627679995
W   9.43059494334162   10.89300015133256   13.42078847650825
W   8.74368214764961   10.49707183380352   9.87295609367148
W   10.91876808078567   13.17618639626364   12.87332384087617
B   9.64237219774820   12.50183485753016   9.70993129866653
B   13.62988679741106   11.57819315703458   10.02382504632710
B   12.25815475757063   10.88150462201221   9.33489613563168
B   14.68745247423190   9.93385008836669   12.27369762362567
B   12.89158791114752   13.58470307475005   12.10785965142265
B   14.73650272448620   11.22849375861108   11.21577309839403
B   10.69562968723966   11.38929843902590   9.16464798157989
B   13.95776798416967   12.77753567880822   11.16359362371491
B   10.89077695812236   9.74771635075685   9.10453749237916
B   11.65272352182586   8.37976518468652   9.90019540659604
B   12.67648930426129   7.49736477012681   10.91036716041221
B   9.19416540160944   8.74931642167234   12.69039618788793
B   8.31636953594148   12.50448585945241   10.64779590326929
B   8.13951813839644   9.80013308546217   11.91131783023806
B   9.99625907520913   8.56484299936139   9.90819078976802
B   7.92627884323758   11.41316108976346   11.80539560080833
B   10.72195185841287   8.73701975554142   13.34521795589339
B   11.59398182607591   10.08061006587381   13.82128630381745
B   8.84766057864514   12.72475849294262   12.32460330910056
B   8.77139919612542   8.51190152098698   11.03405196324460
B   9.64173105132513   13.63704633621594   11.01289012628309
B   11.39020868046453   11.67029497822598   14.21053054428117
N   12.00608517303889   14.55429617204491   9.06357400763246
H   12.72787441528711   15.24533420693446   9.20429067016815
H   11.35147465771265   14.86393313291910   8.34193643875740
H   9.50395152505167   14.83767037112939   10.77516456049187
35
F:    ...  E:  -0.305494460000006
W   11.84446135242922   13.00987336351804   10.26680515110804
W   13.13498903974257   11.51322113371952   12.77691355903769
W   13.68466245740173   9.39847394182044   10.38296614284998
W   13.01018426729732   8.73831372845371   12.70861017760794
W   11.19452680861058   10.33582453813306   11.38602819780304
W   10.69311677646244   7.42618258394249   11.62443235119658
W   9.45814057825825   10.86773130041014   13.42121665401750
W   8.75527753401790   10.49782213425656   9.88134045732735
W   10.93777346801168   13.15678016932281   12.86953038829745
B   9.63186431065967   12.52003645209734   9.72479535797182
B   13.63581217610604   11.59306425327562   10.00251341836589
B   12.26173992077599   10.90465109987733   9.32621182976709
B   14.71709693083110   9.93929670995289   12.24355532586237
B   12.90959957544239   13.58712888248217   12.10431493767072
B   14.75038660517831   11.23852822687025   11.18649194549310
B   10.69435297949665   11.39983512992889   9.18988472329738
B   13.96629777796450   12.78949572294353   11.14070847441828
B   10.91532775225130   9.75829516635833   9.10597594056024
B   11.67569780177690   8.38373478614806   9.89796247631958
B   12.70729519933779   7.49552124422719   10.90082506032615
B   9.22379575542392   8.73698638135043   12.67849398096607
B   8.31219702868946   12.49295262366960   10.66482317972660
B   8.14864241876837   9.77369597066399   11.90938365576401
B   10.02341622811423   8.57198234798401   9.90612846196572
B   7.92918819667083   11.38653368736290   11.81563898568369
B   10.75573844369947   8.73788397984786   13.33328211028236
B   11.63355291392965   10.07070872007330   13.82419451985619
B   8.86001614873255   12.68895350868583   12.34011286254624
B   8.79382344323526   8.50014529508212   11.02530097735609
B   9.61394514470582   13.66735590269222   11.04231232096300
B   11.42064600351865   11.65762077927875   14.20791730960540
N   11.87964527550476   14.56895653626261   9.06349916167546
H   12.70990956425637   15.15720027581301   8.96966173211743
H   11.10442404222300   14.94871798291570   8.51793893875266
H   9.37385746755260   14.84789682765677   10.92163062051866
