33
F:    ...  E:  0
W   13.98603195170892   11.35523125093182   13.56239141189793
W   14.68824781289583   12.68173626104218   11.42225984855949
W   14.12993570932117   11.11888874092524   9.47588366814333
W   11.48040260451310   10.02528652096507   13.64670324118356
W   11.56883669550981   8.67202110781129   11.45508270031376
W   10.78483795813722   13.63542287004034   12.32468527200014
W   11.28448351752762   11.74037013024930   9.03706746151303
W   8.26568613044695   10.81358936390085   11.45897520435723
W   12.30064852136849   11.43768324518280   11.49293785052663
B   13.53230478925305   9.38822946293360   10.75674984766984
B   13.40608398091602   9.51840904944232   12.51675863794710
B   14.55853348101546   10.45933967967997   11.58497932062892
B   11.97805113700779   12.27285890371165   13.78639491900961
B   13.01965471197971   13.26319997003184   12.90220654576765
B   12.84048039729070   13.85173913216569   11.31699025060926
B   11.60962134466526   13.64873722655806   10.19602343858495
B   13.09442080485412   13.00091089850267   9.76773548622894
B   12.35823443158599   9.81027898208507   9.61429460659223
B   10.34427785726042   12.00039984618538   13.81195547733509
B   8.80550541263257   12.98222357010617   11.29842028278999
B   9.00265916482948   12.33005172764414   12.86717092088666
B   9.96675514953372   13.45105516534692   10.11856688320540
B   9.33163537487089   10.70697243605431   13.38778920764159
B   9.53650358601803   9.20943374548423   10.72078827267839
B   10.73435963707933   9.56446754311515   9.54071715652309
B   9.38301593508164   10.51958197039191   9.57271393903788
B   9.70526266119355   9.39087595350950   12.41483051161395
B   8.95662310217204   12.13461222779323   9.75187293296525
B   10.18529721398377   11.85481482517114   11.03542595561720
N   10.38783627386698   15.79371748193402   13.03316214530970
H   10.77751244469576   16.48842314737671   12.39080650130725
H   9.38373631679618   15.97222818360943   13.11305660249550
H   10.80195893600828   15.96315203662177   13.95376269456413
33
F:    ...  E:  0.0430190399999901
W   13.98957015727243   11.34854510600679   13.56680760484949
W   14.69486192713427   12.67921811967113   11.42438739796872
W   14.13827240074380   11.11994346043824   9.47595057496527
W   11.47922729717262   10.01529710236705   13.64586146614342
W   11.57312463097286   8.67187677691600   11.44982086602087
W   10.79666822446648   13.61339754797549   12.31855234981404
W   11.28749499403070   11.73955747661281   9.03154053393390
W   8.26667605690431   10.80657767261918   11.45313581959963
W   12.30319459963857   11.43390044337782   11.49003584445467
B   13.53724852549394   9.39027421136418   10.75536865127257
B   13.40735185831139   9.51931533592198   12.51596393970443
B   14.56362521443532   10.45948582511683   11.58618338659360
B   11.98076570384056   12.25952203307449   13.78938256571682
B   13.02235638365491   13.25098782030269   12.90172082051742
B   12.84620502831962   13.84482992394805   11.31777484865283
B   11.61663420425542   13.64404203035210   10.19738204735523
B   13.09964867899772   12.99792073176392   9.76252112822255
B   12.36458457540248   9.81372787492936   9.61000158649493
B   10.34558448193175   11.98901338224885   13.80940956058904
B   8.81332368834365   12.97413459371949   11.29679317574924
B   9.00600065292191   12.31969435800131   12.86416556290392
B   9.97426096388864   13.44214936595412   10.12131832626918
B   9.32870577375911   10.69867213249960   13.38513694387261
B   9.54159923558973   9.20343885648074   10.71326616786687
B   10.74033128530484   9.56290107675456   9.53516802037839
B   9.38748839042242   10.51780809129421   9.56756266029838
B   9.70738563440152   9.38549503680755   12.40828405068287
B   8.95634849368635   12.13190764140644   9.74625409841647
B   10.18891176545763   11.83826058245353   11.02785978570278
N   10.38025346800180   15.69039751987338   13.13456839461192
H   10.47654284506061   16.45072325782078   12.44114096724602
H   9.38352516937247   15.65183068942230   13.39259868676245
H   10.92129686952266   15.94648700097935   13.97749369824708
33
F:    ...  E:  0.125905069999988
W   13.99032365323518   11.34345995506398   13.57031066606310
W   14.69824242921621   12.67874224635396   11.42771259830843
W   14.14542643392313   11.12173051161136   9.47688703674322
W   11.47840145690288   10.00819670075074   13.64446362661145
W   11.57787393680149   8.67112440241385   11.44509323379426
W   10.80694110724959   13.59148183347950   12.30234235911553
W   11.29271520117005   11.73740103747660   9.02550509741798
W   8.26747716263045   10.79977906163250   11.44712776888303
W   12.30492139788920   11.43075191844415   11.48736895519344
B   13.54204266776936   9.39207910100921   10.75405274397181
B   13.40878427886451   9.51914893856476   12.51472074437982
B   14.56665588192892   10.46131157848350   11.58715977729845
B   11.98052448861492   12.24862638240505   13.78934454790959
B   13.02226001167301   13.24224494497873   12.90100973498461
B   12.84870098476808   13.83940459535754   11.31785480595139
B   11.62191874260626   13.64191308787415   10.19521069778397
B   13.10460312323859   12.99636081366204   9.75882596173447
B   12.37170676420653   9.81629821999838   9.60537011456617
B   10.34414603624625   11.98072123369897   13.80538221270101
B   8.81828949624980   12.96597142964062   11.29243215108799
B   9.00573086648518   12.31062830450322   12.86080467590768
B   9.97976507959926   13.43342639223955   10.12016141790008
B   9.32587677616353   10.69189935769248   13.38111082286562
B   9.54684607071325   9.19869779911563   10.70688730019180
B   10.74644661242147   9.56231652774656   9.53099321244433
B   9.39118017203310   10.51558917806157   9.56248240512127
B   9.71026167593122   9.38035684264461   12.40212688503930
B   8.95597240576990   12.12860678898645   9.73894230644034
B   10.19009762420438   11.82388892517464   11.01831708178063
N   10.37145176430771   15.60208332090934   13.23131729568466
H   10.13940963070256   16.35177507322081   12.56939353310619
H   9.48587636948478   15.32642223461552   13.66512170701286
H   11.00748842775393   15.95112811871280   13.96371206847394
33
F:    ...  E:  0.328726829999994
W   13.98679447336912   11.34410414880674   13.57518133835224
W   14.69387387205491   12.68502389845591   11.43572745636873
W   14.14874574120506   11.13096978826023   9.48191577292965
W   11.47462076383164   10.00201358180335   13.64446403731130
W   11.58308351415094   8.67250152705786   11.44187007033657
W   10.80592459405151   13.58047478861067   12.28745298292133
W   11.29358544192382   11.73836463958434   9.02503848089602
W   8.26676053947289   10.79074429973247   11.43957646906382
W   12.30396866881200   11.42893699093107   11.48793294187669
B   13.54550020432052   9.39821640229025   10.75364302114752
B   13.41056791210735   9.52181976991340   12.51456501677460
B   14.56927459323927   10.46649157465155   11.59042822635420
B   11.97240987877010   12.23838788016810   13.79140572987772
B   13.01248305513996   13.23998084106996   12.90707253967466
B   12.84331230193761   13.83848805358799   11.32375970600933
B   11.61913139100537   13.64653817346742   10.19654544483077
B   13.10109444560143   12.99884941065381   9.76344749272350
B   12.37740936132813   9.82262154307800   9.60191422947353
B   10.33789659983871   11.96904867796685   13.80020452485971
B   8.81207374848950   12.95741996060957   11.28816971191866
B   9.00184478620621   12.29727423612486   12.85511883292635
B   9.97582965249514   13.43039440580680   10.12304461107599
B   9.31817666957181   10.68136041449391   13.37971112530644
B   9.55188099570236   9.19527521051154   10.70094168181684
B   10.75218566187619   9.56394715172294   9.52579678218396
B   9.39396248010521   10.51169226389544   9.55655476620240
B   9.71007385203994   9.37158274780581   12.39649145469680
B   8.95678274135327   12.12338106399339   9.73336500147040
B   10.18849851040717   11.81907045356997   11.01780849556863
N   10.37645434295234   15.51949796629117   13.30458502472547
H   9.81972583566501   16.19607220305632   12.76211649290480
H   9.70714737710535   14.94937131121473   13.85504667869663
H   11.06368530468000   15.95941988112153   13.94055945265747
33
F:    ...  E:  1.74018537000001
W   13.97967327373195   11.35520470800488   13.57696516505403
W   14.67898288232814   12.69579870725916   11.43946802012739
W   14.14934603087250   11.14704770856157   9.49503667962733
W   11.47078460314446   9.99057399511939   13.64912185608241
W   11.57568689966688   8.68960823400199   11.44838165704933
W   10.73811211277793   13.62984864052425   12.40543248253186
W   11.26242966399832   11.77345422108245   9.05300906792476
W   8.25645618998733   10.79005809930923   11.42980990169606
W   12.29490869376974   11.44464478156391   11.49145837965431
B   13.54132589062210   9.41863275034424   10.75698194843917
B   13.41123452378983   9.53679164813799   12.51879639467553
B   14.57247938770013   10.47167630253216   11.60235899713648
B   11.96557473343934   12.23545244390089   13.80062950619588
B   12.97630922735379   13.25543710176233   12.92149983948278
B   12.82376280647694   13.84134469112931   11.34206802456850
B   11.60634427077995   13.67559289140400   10.20467600650468
B   13.07440864982161   13.00648135569163   9.78990857082839
B   12.37301945047980   9.82914250701937   9.60793102632548
B   10.34696869069045   11.91650036719044   13.78505556659216
B   8.79163301583942   12.96715807008515   11.29517363038969
B   9.00986054532830   12.26906836311263   12.83183845973893
B   9.95979566075183   13.45819574856887   10.15569092185226
B   9.29910158126140   10.66267718925654   13.40030231600441
B   9.55617712774139   9.20000759041353   10.71181334011171
B   10.75137076852943   9.56325663571665   9.53218827096442
B   9.39832120896505   10.51912256006217   9.56526570788680
B   9.68735024971398   9.35940525338129   12.41121407980676
B   8.96858326160809   12.13326828913039   9.74340377079162
B   10.18468267600200   11.85617491948429   11.05717476616406
N   10.43337835824865   15.63156446026653   13.18232278143967
H   9.95397332334173   16.36083229757641   12.64510223417253
H   9.83142974375405   14.34037028458520   13.76777605944411
H   11.04773705139987   16.03235960747923   13.90302282225161
33
F:    ...  E:  1.19495279
W   13.97843781304265   11.35959976390094   13.58194457395593
W   14.66657132646161   12.70025377670989   11.44252615779900
W   14.15439121186867   11.15746696390314   9.49448279478855
W   11.46430970188207   9.99843615307874   13.66252971165626
W   11.56868692250075   8.70193560831949   11.45717913482234
W   10.69149068901994   13.71141550833166   12.51311191289504
W   11.25380141242633   11.78812080378802   9.06586250429699
W   8.24556714090573   10.79859925775227   11.41398615379562
W   12.29033132053081   11.44370981398181   11.48743826067407
B   13.53895560995722   9.44014372095287   10.76239337305205
B   13.41151536803640   9.54571805344561   12.52314560864460
B   14.57700416789508   10.47712310775337   11.61165045323925
B   11.95355956649196   12.22972021089040   13.78194615660771
B   12.95457818868099   13.25929514145195   12.92243074864733
B   12.81824962987307   13.83525484519237   11.34365082637535
B   11.60649822347649   13.67544307730028   10.20639279021086
B   13.07154380246212   13.00756594362377   9.79122661414242
B   12.37560650221760   9.82731563287109   9.60714345923643
B   10.34760111983641   11.87049985592917   13.79104051324472
B   8.77374756858309   12.98688825085585   11.28440231761978
B   9.03055877496824   12.23495296235201   12.78391283155390
B   9.95721314414140   13.48214731772315   10.17103405557058
B   9.28571947417718   10.65629607304719   13.41792864664256
B   9.56430240282417   9.20941062761090   10.72714697734854
B   10.75377600209759   9.56225210863452   9.53572632828962
B   9.40548754132366   10.52649347393277   9.57020016957256
B   9.67712296849624   9.36034041984508   12.42756266204891
B   8.97654348901183   12.14203389476300   9.74699276731965
B   10.18257737422777   11.88472543391421   11.08520288252931
N   10.64774231809104   15.73320595208755   12.92380025590331
H   9.87810688084069   16.36318356847169   12.68897171355388
H   9.79628271059572   13.80912161385144   13.98869025683760
H   11.05129781570455   16.07632201962083   13.82949482702020
33
F:    ...  E:  0.895915930000001
W   13.97369801547661   11.37588617469012   13.58274694257455
W   14.68261308694384   12.69697035987228   11.44734767862872
W   14.15696066948522   11.14936565585302   9.48966049104246
W   11.47237760457513   10.05113965033945   13.65538851700070
W   11.56970795372387   8.70377960933889   11.47096729565685
W   10.77633558340698   13.73723770697404   12.35740971009513
W   11.25466010220890   11.76605946009692   9.04055778119083
W   8.25724012836899   10.78969397400965   11.43219914014388
W   12.29739337952826   11.44145685640619   11.48623952518316
B   13.53320781896165   9.43087208432867   10.76650668578576
B   13.40680996450510   9.54996599992387   12.53395122434831
B   14.57354237754235   10.47650699862746   11.60579963206331
B   11.91621052765326   12.23454516190837   13.72764184170458
B   12.97495569238940   13.25994829642707   12.92679144786722
B   12.82190297222941   13.82502549125837   11.34479064193987
B   11.60246028892797   13.64720294327011   10.21435861968853
B   13.07458521051608   12.99647262825663   9.79413459739761
B   12.37749043168142   9.82747647895325   9.60041788326222
B   10.21693600018799   12.20858366165355   13.92969658445240
B   8.76536929534330   13.00761629386965   11.23736790185531
B   9.04332867300718   12.27002975232210   12.70328153285515
B   9.95699430118465   13.47221561936168   10.13308783277385
B   9.30969421300443   10.75839534307413   13.40513851856734
B   9.56759635607717   9.21307500761755   10.72918020207490
B   10.75627991815182   9.56709863184706   9.53149933080918
B   9.40389201095462   10.52009982643367   9.56887074074764
B   9.68479980501028   9.41945946755346   12.44185771643807
B   8.97338336968820   12.13306855209321   9.73352480119686
B   10.18358536942330   11.88360987135754   11.06235741537911
N   10.55670410075719   15.63948006933501   13.01291855722538
H   9.83811718840012   16.31216667468066   12.71802748882727
H   9.82951371922796   13.40208679095499   14.21694568133534
H   11.13853621038591   16.06736803472114   13.75302157123578
33
F:    ...  E:  0.198518869999987
W   13.96879905056637   11.38449305570793   13.58249305250065
W   14.69827140424230   12.69271368865875   11.45665651089246
W   14.16205563456270   11.14111045940289   9.48367675329496
W   11.47028256355373   10.06277153951806   13.64717424719793
W   11.57988342869256   8.70126205563570   11.45746121213435
W   10.79191302760465   13.73682079319991   12.30567941666540
W   11.25933780795823   11.75303715093952   9.02191433606267
W   8.26373919882528   10.79063629376114   11.43914939561465
W   12.29904982177651   11.45502726014634   11.48263464212946
B   13.53710256711696   9.42750349935995   10.76212541705729
B   13.40032522164725   9.55425386029709   12.53278846991444
B   14.56746878176499   10.48186932286418   11.60342941928405
B   11.91259957008025   12.24965185559394   13.70539985440739
B   12.98284983246529   13.26901552187695   12.91799137542810
B   12.84000099474738   13.81995450923771   11.32557872560399
B   11.61486930284054   13.62330982292702   10.19666218502904
B   13.09808596138086   12.98930196009731   9.78551295726236
B   12.38102693458184   9.82887085304460   9.59744268562073
B   10.20419717787248   12.20852465152334   13.96905040364494
B   8.77055981585503   13.01700014333725   11.21924341214303
B   9.06889285074086   12.28617232833748   12.69123207666793
B   9.96439304856423   13.45684106106038   10.09933596718547
B   9.31224562300796   10.74468545935819   13.39093456127634
B   9.57029865709303   9.21332660070395   10.72282729787168
B   10.75996054304414   9.56582937014180   9.52227882666219
B   9.40527417535200   10.51416570612897   9.56538635069337
B   9.69933934238919   9.42022351031442   12.42995923175487
B   8.97124248650839   12.12316578282397   9.72828476389134
B   10.18020952925410   11.87862433341406   11.05212136765203
N   10.51192385283884   15.56321088837137   13.06674351428206
H   9.68034314689897   16.15484312843452   12.90673007056070
H   9.77359543967689   13.14179880311500   14.64395129433381
H   11.19263197211496   16.08821874316535   13.63733791359653
33
F:    ...  E:  -0.17489114
W   13.97109897929343   11.37994376021582   13.58309191883847
W   14.69646901864645   12.69903006070585   11.46754816030163
W   14.16438244850887   11.14751711482159   9.48252448779628
W   11.47386274040624   10.04152389872410   13.62691690827429
W   11.59517605836184   8.69235903347141   11.43098728326898
W   10.78304819010456   13.71625757443707   12.32123517326142
W   11.26310708349944   11.75249195339208   9.02427612630034
W   8.26883929660617   10.78025566506100   11.43642775652218
W   12.30031277586076   11.45652062539756   11.48376891493174
B   13.54932603146590   9.42229010494524   10.75529813376314
B   13.40270278627757   9.54842435573557   12.52299183344538
B   14.56678184807458   10.49130288557923   11.59880262421396
B   11.91139242177212   12.22976477585846   13.70447101972576
B   12.98362448935630   13.26587431251133   12.92003029798377
B   12.83981604601306   13.83357567440741   11.32974221241753
B   11.61352695072737   13.62637772778135   10.20373925397719
B   13.10639488680000   12.99752670303988   9.79333965716173
B   12.38893470123791   9.83314550995753   9.59434217915632
B   10.20307811803714   12.13958488341514   14.02271778482845
B   8.77895667274901   13.00501971418907   11.23887616587027
B   9.06001592032171   12.27445959471295   12.72836449900789
B   9.96568817819145   13.44702218458442   10.09721849867948
B   9.30785167397231   10.70383514401802   13.36787872120499
B   9.56640528286892   9.20505837049306   10.69935715158838
B   10.76627947351095   9.56703089208756   9.51274601267392
B   9.40583437361986   10.50785600531608   9.55548301872569
B   9.70801950883613   9.38838384086097   12.40136235131995
B   8.97984178720976   12.11845078350047   9.73582188754455
B   10.18014199067294   11.86906008147154   11.06125385231185
N   10.46523870207661   15.51962492930310   13.10528460931712
H   9.55687732079430   15.99809206576644   13.12704672143320
H   9.80983882887438   12.81352636142801   14.94112340208952
H   11.17943799536753   16.12991057376199   13.51452701587139
33
F:    ...  E:  -0.301403279999988
W   13.97109931045837   11.37065280823502   13.58948154831066
W   14.68800443145221   12.70986996661700   11.47696742593345
W   14.16754463425906   11.16010744567616   9.48660673470735
W   11.48035306762403   10.00727777520106   13.60566234452439
W   11.60672455118590   8.68016322007627   11.40476580855143
W   10.76827547085460   13.70076952025371   12.36109386494184
W   11.27007921396813   11.75608930464123   9.03364832866544
W   8.27326184390536   10.77618467955165   11.43449269206381
W   12.30399191938693   11.44729125165836   11.48578944762852
B   13.56117637552915   9.42361829304292   10.74928592197882
B   13.40988102115796   9.54198794551622   12.51196626560410
B   14.56928622419847   10.50090903633853   11.59526960878023
B   11.91115372715682   12.19853402629897   13.70976864136919
B   12.97704944010426   13.25034836384324   12.92610941075389
B   12.83402191559417   13.84677737347334   11.34348092735180
B   11.60654146592143   13.64196331046932   10.22058640784152
B   13.10453152356908   13.00995510044318   9.80534571341481
B   12.39648805904837   9.83702063861332   9.59071991301266
B   10.20694903645063   12.03346256373527   14.06641120348485
B   8.79060233233651   12.98293872358566   11.27499573160900
B   9.03475804988189   12.26069382890570   12.79013509089853
B   9.96498311289584   13.44481055089615   10.11550888253620
B   9.30858769071273   10.66304988084230   13.34055562697628
B   9.56511705929548   9.19482696419301   10.67425427441884
B   10.77048105431392   9.56511325391354   9.50202279064559
B   9.40724349579223   10.50500370343519   9.54787472200655
B   9.71197475359416   9.35471343061414   12.37492395283058
B   8.99194113899990   12.11706642309516   9.74882503812315
B   10.18642156677598   11.85732410325733   11.07197516746029
N   10.41039234360949   15.49099982758055   13.13581186361471
H   9.48291849082296   15.87721487304037   13.31394808095172
H   9.87231812451872   12.43338401407556   15.16112927263701
H   11.12171215132720   16.16913149733108   13.41120151457416
