35
F:    ...  E:  0
W   12.64145125466293   14.27689463180615   11.03555349669578
W   13.95001113827838   12.89508506411608   13.28338383947728
W   14.55944123109725   10.83354607063009   11.08838565975317
W   13.89906567210407   10.08779715408439   13.42092156150652
W   12.03077204906094   11.56214635339730   12.00565508793440
W   11.66056687649120   8.72876912010192   12.32755113191089
W   10.38398591622142   12.27513325659490   14.10217300046643
W   9.65169068554143   11.81152874185510   10.52875315499865
W   11.83103766511681   14.72739028877736   13.54065173676254
B   10.51626362140934   13.90639325272506   10.30706816993554
B   14.52122222336205   13.01365062398242   10.63000040905423
B   13.14226988849087   12.24956017810713   9.98618737538059
B   15.57100432630858   11.37544147903301   12.92844700676434
B   13.79297931743005   15.06480124633772   12.74287551444322
B   15.62427362300471   12.65861603256264   11.81957555128126
B   11.56975237418543   12.72588689011146   9.82262874592078
B   14.82150885756436   14.23907317826967   11.73319859114296
B   11.82135829841200   11.06940613832157   9.72694002927428
B   12.60462562018078   9.67807259154671   10.57250191362223
B   13.65890640521715   8.84327616538331   11.64078372584778
B   10.18603587776001   10.11584776042416   13.37701867931418
B   9.26264865668358   13.83259052359772   11.35113737715300
B   9.11950302759799   11.15995744491936   12.59946181363432
B   10.96059312769827   9.86812082693014   10.53938295376695
B   8.86104498775504   12.76318521187255   12.50295921806608
B   11.70186923010201   10.12030906251379   14.02786144765373
B   12.53442876930816   11.51460669895257   14.45417953228188
B   9.74729154271257   14.12213702434590   13.02666889105760
B   9.79804299020618   9.90796042856548   11.71880410865628
B   10.63578216010712   14.82016252597759   11.72749053038130
B   12.30639878679883   13.11848023502603   14.79762594673113
N   11.15726895258235   6.49773421994480   12.37500825625765
H   11.11455678186104   6.14624233592031   11.41258670859463
H   11.90184290322626   5.97668342692675   12.84719337678854
H   10.26880869531983   6.25805850410617   12.82510262453881
35
F:    ...  E:  0.0164548199999786
W   12.64559287326625   14.29673975771085   11.03652984447211
W   13.95159871980191   12.90522139165899   13.29355500115193
W   14.56674808317734   10.85055399505045   11.08252755121196
W   13.88674268354835   10.09732797013581   13.40487190789174
W   12.02935161733587   11.60093187148657   12.00489070739474
W   11.65608107858912   8.75769747724188   12.30308569278430
W   10.37172902266890   12.28379297459122   14.10022075879471
W   9.65460257237293   11.83930672745768   10.51382847676428
W   11.82551028166434   14.72187933454443   13.53798597785460
B   10.51711303899793   13.93063174191484   10.29955361315995
B   14.52909187227295   13.03097309162052   10.63139707190378
B   13.14845059315474   12.27096242834341   9.98778750460087
B   15.56848015270579   11.38466279930764   12.93027278404550
B   13.79153684473849   15.06877612736563   12.75242059315964
B   15.62783150637824   12.67285092086912   11.82682650876912
B   11.57565778386587   12.75474394459756   9.81318625598332
B   14.82466255204485   14.24868751259728   11.74384177025112
B   11.82213870945804   11.10144570586085   9.71494766812624
B   12.60537902430752   9.71457719361396   10.55392634435656
B   13.65711051063238   8.87020004230405   11.61224834432069
B   10.17884755618935   10.12612576597956   13.36044882263191
B   9.26034073378240   13.85382474872874   11.34133908441526
B   9.12083170749303   11.17846743601973   12.58162800409031
B   10.96157342889389   9.89776716716839   10.52115569878796
B   8.85775176322776   12.77995510823691   12.49169484474245
B   11.69120700532752   10.12391650189651   14.01978009170454
B   12.52349265763652   11.51392803747755   14.45250313597231
B   9.74221505407101   14.13433870103918   13.02112613434160
B   9.80054054927512   9.93058472798418   11.69932855064467
B   10.63443701755464   14.83779596695338   11.72441794381140
B   12.29839998669252   13.11421204331253   14.80030556502527
N   11.36639488319930   6.50914789462505   12.42256632853911
H   11.21310405335731   6.10156034097757   11.49160639063067
H   12.25654675977745   6.15430775778174   12.76727696624267
H   10.61452611739806   6.16930564985694   13.02928384544796
35
F:    ...  E:  0.175193939999986
W   12.64803487529843   14.29058540420681   11.03841269422824
W   13.95084802169628   12.89908408953898   13.29580101454931
W   14.56060291510566   10.84349348122327   11.08794099662388
W   13.87495096475327   10.09073771701110   13.41176808752728
W   12.02822502661998   11.61346907913653   11.99329671163021
W   11.63121118264668   8.78470570848694   12.28967555161828
W   10.36838990041717   12.28415814143183   14.10568653795504
W   9.65084384577163   11.85086383135106   10.50479051494997
W   11.82563008130898   14.71364494191477   13.53692755848306
B   10.51888935483245   13.92859788924938   10.30086259887687
B   14.53004783372464   13.02224578990991   10.63304766799772
B   13.15347615323408   12.27114882834223   9.97569767031896
B   15.56376958761453   11.37364545452368   12.93163660204867
B   13.79294568666146   15.06006913236940   12.75412300852130
B   15.62670472255183   12.66352793073749   11.83081812861796
B   11.57870858746695   12.75407924848722   9.80744573601586
B   14.82680167063826   14.23964995403503   11.74607430687514
B   11.83535956405858   11.10163921624775   9.70047656504880
B   12.60231440193342   9.71053793973825   10.54393673570514
B   13.64656285250133   8.87338310310639   11.61882870827578
B   10.16759239929138   10.13336074162110   13.35798805250393
B   9.25813425085624   13.85852686090446   11.33908672157411
B   9.11525153851322   11.18823602704671   12.57986799834687
B   10.95747839934174   9.90795486226006   10.50209967154886
B   8.85640566946422   12.78495282680057   12.49058901572960
B   11.67933756588030   10.12983088273037   14.02182603882040
B   12.51916430908105   11.51289116322956   14.45692648446198
B   9.74216515153874   14.13417635206374   13.02143888794950
B   9.80436794304606   9.95669826644895   11.68896110798077
B   10.63509744822731   14.83701086093486   11.72505728435168
B   12.29887296296235   13.11168687593781   14.80607592760443
N   11.46448747831143   6.56676669343839   12.41020033996677
H   11.33151685706418   5.98572733013435   11.57615326466194
H   12.48826990019281   6.57938139263077   12.63387730508145
H   10.91106112741852   6.17303900220024   13.18041784581646
35
F:    ...  E:  0.925405810000001
W   12.64016874638190   14.22483039496683   11.06028434412679
W   13.93914185985002   12.85242918022076   13.28026461124606
W   14.53084925833148   10.79033852920476   11.10541529820488
W   13.88737091030893   10.05653793153464   13.47107369386201
W   12.03160059940786   11.53649609472147   11.95906220461105
W   11.61080435347821   8.77907163310467   12.32605722912573
W   10.38183956768804   12.26137494083493   14.12394170674807
W   9.63981326740979   11.81316472606382   10.51303652408423
W   11.83241794138369   14.70928776362308   13.55490457883772
B   10.52467529517511   13.87791656885045   10.31900395539192
B   14.51347301762764   12.96827969532279   10.63786146855339
B   13.14800531142484   12.22330664157070   9.95093746418523
B   15.55606514573862   11.33321455034144   12.92460962893776
B   13.80225593562618   15.02453922604169   12.75279784462313
B   15.61671329738583   12.61660244207253   11.82347561980707
B   11.57327097630690   12.69250920238891   9.81884036706573
B   14.82885593075099   14.19927857570151   11.73745348084840
B   11.85342259566395   11.03095632834032   9.68913607775794
B   12.59698710626261   9.64242242076693   10.58114903855810
B   13.62443385420809   8.81342379745248   11.71009036302844
B   10.16926188617888   10.12905100887081   13.37404219821888
B   9.26152160955925   13.82214900703609   11.35234656963611
B   9.11179681789514   11.17029116335977   12.59887578413123
B   10.95086964490573   9.86591348224775   10.50425516173832
B   8.86119142474885   12.75908797472753   12.50652783259943
B   11.68158197877816   10.14169357841450   14.04124287053245
B   12.52450512123441   11.51276250313754   14.47233804396175
B   9.75060235717562   14.10414680917880   13.03675846385121
B   9.80176159056200   9.95357624014305   11.69904381957594
B   10.63878316778978   14.79603506401568   11.73899257337191
B   12.30728195513625   13.11098248155013   14.81381755947293
N   11.21650981828376   6.68421010775846   12.25714704723375
H   11.33587636819962   5.92527246003200   11.58406051146480
H   12.29634292004839   6.96670582559809   12.50500612032778
H   10.62572399116272   6.37317917363236   13.03967277834559
35
F:    ...  E:  0.648751149999981
W   12.63299909327226   14.22030580346611   11.07396161988266
W   13.92586229804671   12.84495379657618   13.27816466175925
W   14.53306369820049   10.79325747821659   11.09545258257520
W   13.90233506466106   10.06638866831764   13.48832006826788
W   12.02140878250560   11.50995668548419   11.95543640016916
W   11.62013798757582   8.63813835163901   12.34560104306034
W   10.38058628452348   12.24861512873242   14.11830143047852
W   9.64724338173663   11.81187041889713   10.50796966019723
W   11.82897687335526   14.72268171895379   13.56426620690933
B   10.52448660187838   13.88481908522507   10.31871393794897
B   14.51506161778519   12.97601554991947   10.63820007767021
B   13.14465767404871   12.22448070688355   9.95372153404568
B   15.55328019375118   11.34208576299055   12.92358815962409
B   13.79978978679479   15.02984540962352   12.75646804643313
B   15.61490139003761   12.62699028216912   11.82470027328775
B   11.57300378552853   12.69790783186173   9.82107178655501
B   14.82686010563880   14.20668092963757   11.74236355805585
B   11.84823768049127   11.03555996467289   9.68747113947633
B   12.59068179533924   9.65046874765700   10.60035468333093
B   13.61258664417660   8.82795692696474   11.71922513231564
B   10.18363684274086   10.11891300617457   13.34818587815066
B   9.26179632425282   13.82298789599139   11.35193929986063
B   9.11784199266728   11.16908427018456   12.59143638098869
B   10.95704007346400   9.85794837846416   10.51169616532965
B   8.85907060451604   12.76128406413018   12.50599957584130
B   11.68859103982580   10.13588441596345   14.01930584154667
B   12.51639033264165   11.52003278672609   14.46605312438007
B   9.75185416492038   14.10592449166511   13.03813142623772
B   9.80850536378871   9.94853041546433   11.69451415797041
B   10.63703175279708   14.80044753121901   11.73928867053962
B   12.30129652340136   13.11819930272605   14.81533203385681
N   10.96187721972642   6.69940449448361   12.20747064741504
H   11.40642303005156   5.98427244188684   11.62635704579950
H   12.82702683676332   7.29436787041731   12.47879998908341
H   10.62961578429945   6.26859974989069   13.07057979217941
35
F:    ...  E:  -0.260057150000023
W   12.63044219645931   14.19437803020804   11.08118764540497
W   13.92126957423293   12.83237864811312   13.27327277469096
W   14.49405323427730   10.74869743613346   11.12331250982718
W   13.90164645049898   10.05540804217537   13.49312701821332
W   12.02967925943942   11.48008168331430   11.95826549678427
W   11.51182495019502   8.59604075963969   12.35162543393304
W   10.38070635227411   12.22979927919592   14.13057841349289
W   9.64694909954133   11.78346581347349   10.51844855150756
W   11.83306591373899   14.71726658825383   13.57127981829204
B   10.52752215914608   13.86116363000008   10.32305358903813
B   14.51480428706668   12.95357152845429   10.63377473992232
B   13.13937710558267   12.20030637638984   9.96052783815846
B   15.55441121398475   11.33179472437212   12.92118038478639
B   13.80026718872335   15.02550546415973   12.75846392971495
B   15.60637654158781   12.60943050544731   11.81655518815650
B   11.56910686218267   12.66940384306077   9.82689852077508
B   14.82463586662782   14.19570843484811   11.73912140989896
B   11.84066918068357   11.00090096554750   9.69689686357661
B   12.58489774929759   9.59276372344924   10.66042478343563
B   13.54350006797744   8.67479850228089   11.82491813948180
B   10.17476940943274   10.10668271137846   13.36909740480533
B   9.26641854779938   13.80018835943271   11.35948127331524
B   9.11419701539262   11.15235434126183   12.61048536387185
B   10.95506486607388   9.83131413961132   10.53128146937098
B   8.86182492162919   12.74255306990514   12.51308246681170
B   11.68969099503406   10.10956154172655   14.02362253005330
B   12.50679630704241   11.50634962648315   14.46031055971804
B   9.75736034968120   14.08553990857231   13.04198010434779
B   9.79545171367207   9.93155706585537   11.70792936307299
B   10.63736831966265   14.78086452335678   11.74296852891110
B   12.29811727934819   13.10284406044041   14.80877867621155
N   10.82134518208249   6.71687290549488   12.14919976777876
H   11.12662612467018   5.97086366283365   11.53034813960949
H   13.14384647561305   7.57418271781396   12.41275052171831
H   10.25577279617839   6.35194155174201   12.92139673099887
35
F:    ...  E:  -0.867500730000017
W   12.64045138138011   14.17657672737876   11.06820785804663
W   13.92175047563272   12.82050143053631   13.27692767375325
W   14.49836610411936   10.75509131012545   11.12885203972321
W   13.88210772270459   10.06253660773327   13.53824903329931
W   12.00263261333496   11.47052287040316   11.96541666075753
W   11.55910017475625   8.61018631326666   12.36833950440479
W   10.36073475798145   12.23715717698903   14.13410602644897
W   9.63803143458612   11.78072918343381   10.52244614961492
W   11.85153590454300   14.71591103196652   13.55658831637017
B   10.53706268440113   13.85578894510626   10.31268650774316
B   14.51225760961490   12.92855102336998   10.63746361796690
B   13.13806896384171   12.17962431176459   9.95681251233475
B   15.53501462820022   11.30102145947533   12.94052748630950
B   13.82318190427349   14.99805760806011   12.73641264447057
B   15.60626835579039   12.57419427830224   11.82598086954127
B   11.56598400176723   12.64902447872251   9.82691839824819
B   14.84561898582501   14.16263080260276   11.73253593704023
B   11.82658991157827   10.98828560674623   9.69942768268578
B   12.55074285776331   9.65169334891698   10.64207102435043
B   13.57511136626631   8.79336457755164   11.74635352555311
B   10.16595786291028   10.10087891558766   13.38140507263501
B   9.27573227544505   13.80581824009914   11.35042925625970
B   9.11070747060373   11.15203740052051   12.61038950183132
B   10.91129687420243   9.82768846079250   10.52789217419935
B   8.86624891231768   12.75020103961763   12.50636244618427
B   11.67326511522593   10.11259191531667   14.04213005199424
B   12.48922301582345   11.50713571866522   14.48232393760776
B   9.76868477813472   14.09304145372210   13.03698799917966
B   9.79090499995609   9.90389702694672   11.73424990098155
B   10.65579221256361   14.77262482101609   11.73595984032518
B   12.29455270082971   13.10891812360541   14.80605265437415
N   10.83946694386253   6.73824452497007   12.35574484323780
H   11.23764148118533   5.96262034678616   11.82627859769583
H   13.34155493970373   7.58572776651667   11.99787920757080
H   10.00158868018701   6.40376226149258   12.83668846981727
35
F:    ...  E:  -0.981998480000016
W   12.63902537226203   14.19895713395631   11.07420096166201
W   13.91193947286641   12.84194938358536   13.27298889292428
W   14.52696627274789   10.79816737073193   11.11788390154127
W   13.89985721155041   10.08431136199840   13.50291917458796
W   12.00339310585409   11.48772385622702   11.95103681290924
W   11.60943569455342   8.63299606703592   12.35463664763072
W   10.36842479521468   12.24350294388994   14.12645889675295
W   9.65085307068217   11.79221952066757   10.51103069046229
W   11.84029175383161   14.73554812416370   13.55985372087733
B   10.53249929989062   13.87280323064203   10.31317064858635
B   14.51773927587003   12.96847228165200   10.64393387966503
B   13.14422122086002   12.20738204811600   9.95828808840806
B   15.55047821944436   11.34723133440185   12.95043404547269
B   13.81756959666113   15.02856575891984   12.74559950365217
B   15.61397082335585   12.61857078171747   11.83326173803354
B   11.57085404920438   12.68237548974977   9.81754695603028
B   14.84673454016852   14.20284299954838   11.74342191053196
B   11.81974918804039   11.02658258970485   9.67587154610668
B   12.58559412634348   9.69233963933094   10.62287487454527
B   13.62345258992558   8.81305195748574   11.68770495368000
B   10.19693973361541   10.10437278020215   13.36538400188409
B   9.27024397542177   13.81289880413890   11.34588401458271
B   9.13847469003853   11.14778128429163   12.59121498160481
B   10.94487952514847   9.83746856452421   10.50520526232048
B   8.87283889006977   12.74649243795448   12.49553372031345
B   11.69795238373869   10.12725686044572   14.03138218797650
B   12.50124884723131   11.52279076713984   14.47779424126338
B   9.76133826708153   14.10056204101860   13.03393809258213
B   9.83428830443397   9.90647937933444   11.71344495505105
B   10.65006149604170   14.78587343716017   11.73728330948801
B   12.28588061524251   13.12480323237382   14.80552930346273
N   11.01691740525088   6.73797075398412   12.50832095657449
H   11.51675877509830   5.96330715530613   12.07104962292402
H   13.42009906437575   7.59955102025288   11.81473180287671
H   10.16299980065305   6.37634205768490   12.93360997191105
35
F:    ...  E:  -1.04905989000002
W   12.63368206404422   14.22213148705718   11.07884438767056
W   13.90245935470882   12.86404598240807   13.26891461330473
W   14.51707571792832   10.81801043124494   11.12301699703642
W   13.91295720636488   10.10020828676997   13.47520186801676
W   12.00396372825154   11.49731441664938   11.94181965718629
W   11.60259491792659   8.64823005217011   12.35996936461576
W   10.37404783169779   12.25723263598544   14.11820755628972
W   9.65526228751912   11.81161929794671   10.49632412777720
W   11.82917569909128   14.75092925282660   13.56551386525938
B   10.52690673299177   13.89183510872187   10.31532264269566
B   14.51399506610077   13.00052862659850   10.65192431239658
B   13.14472242262919   12.23214690616735   9.95791304756490
B   15.55437841283262   11.38108144320415   12.95755273122913
B   13.80653171636155   15.05423883967986   12.75388707527438
B   15.61657799230775   12.64977237292759   11.83695481881986
B   11.57217621496113   12.70870592160838   9.81479586552434
B   14.83875019374473   14.23465829658707   11.75148347652116
B   11.83215777760934   11.04755540570939   9.67254969595407
B   12.60223639890416   9.68391820970557   10.62807805084363
B   13.65350670016854   8.78993968200172   11.66109395151533
B   10.21538887713742   10.12255437816274   13.34581815685575
B   9.26204863312084   13.82533942070077   11.34396219767238
B   9.14912835035605   11.15731882869446   12.57379557857128
B   10.96094161460884   9.84926308104611   10.48936620834866
B   8.87125898768696   12.75202145235227   12.49091074764130
B   11.71125106109657   10.13955984804832   14.02142571456864
B   12.50714163394470   11.53564384659068   14.46613677491358
B   9.75065996224966   14.11133327545468   13.03524914232522
B   9.84793651914847   9.92679719262988   11.69397554311987
B   10.64180792894704   14.79939269853945   11.74288649619490
B   12.28510091279578   13.13768954145637   14.80871192537642
N   11.12678189750781   6.74096707378388   12.59566585796793
H   11.68542175277570   5.98589430985090   12.19387838847878
H   13.71917271608852   7.56128965099004   11.66037404800033
H   10.29641200444967   6.34998826975036   13.03627345150522
35
F:    ...  E:  -1.09488696000003
W   12.62530466593492   14.23966904764074   11.08255443504709
W   13.89511503280445   12.88553545465359   13.26579236782623
W   14.51001298429614   10.84585193832942   11.12519670154921
W   13.92892184623986   10.11330054859562   13.45910635961976
W   12.00521695135424   11.49677309532446   11.93551851089526
W   11.60643733054772   8.65574202124758   12.35962404348952
W   10.37975179896593   12.26601204761435   14.11257596154302
W   9.65662275779845   11.82031298484411   10.48960641003980
W   11.81918345335666   14.76260157817699   13.57032014389563
B   10.51909652819592   13.90222440324084   10.31793459626699
B   14.51129752121862   13.03055096673365   10.65795832131920
B   13.14550158747896   12.25604855810356   9.95910727651761
B   15.55805957209162   11.41251101479056   12.95937353409695
B   13.79457746028392   15.08134391986234   12.75903463822125
B   15.61462128401140   12.67974380661767   11.84014902782681
B   11.57186419020323   12.72417674325439   9.81611303482758
B   14.82963517581876   14.26932993243248   11.75495464397670
B   11.84529639607241   11.05854556248818   9.67261635648372
B   12.60943471692541   9.66990279785934   10.62508990267202
B   13.69330611933110   8.76853442357510   11.63791170854838
B   10.22917050620473   10.13090796105363   13.33901204347359
B   9.25308191185972   13.83056028297039   11.34470105612641
B   9.15802736630657   11.16420790795576   12.56469703364675
B   10.97964665088702   9.85337580339347   10.47943979517954
B   8.86854294740049   12.75461896348849   12.48993864718968
B   11.72649248368417   10.14582257844056   14.01571190437039
B   12.51533654254456   11.54459802542032   14.45340037152534
B   9.74003660528784   14.11676191835370   13.03817085440525
B   9.85806031982884   9.93364670408447   11.68370963041742
B   10.63081141268944   14.80677662649758   11.74784741731152
B   12.28736208124514   13.14583858382543   14.80865947256068
N   11.20913077794050   6.74568255679799   12.65850826219136
H   11.81311600679459   5.99267688355943   12.32214428671439
H   14.05831525045983   7.61275715305022   11.50596529836223
H   10.38333072362038   6.34753217533995   13.10648634774958
