35
F:    ...  E:  0
W   11.70105259492433   12.09730803284391   11.32340280331447
W   10.99533169166645   9.70022914717420   11.63197906883208
W   11.63333733433137   14.68041477242972   11.31372673779175
W   9.37892922566393   11.60256833986252   9.76191740458928
W   13.35256112568879   11.20292757062228   13.14110650025022
W   9.54606835929347   11.95249087553091   13.44907803681196
W   13.16170078563587   10.51700733299858   9.41822199790560
W   14.22747484482581   13.77490828607341   11.56184859874761
W   13.22387467519906   13.28771385395729   9.45738220910099
W   14.76361134124681   9.90719236974646   11.20295706736155
B   8.34473455745529   11.17748309727676   11.72908127870406
B   15.11241159767665   11.84506749744722   11.94798746840365
B   10.95234927366400   13.48160688276575   9.45616893082394
B   11.98251520383539   9.46156295261247   13.63520693847825
B   10.93246145466042   13.77223686137442   13.22691167627546
B   11.58943485853587   8.91950530913585   9.60457152661218
B   9.62375227917292   14.00075140076914   12.27620612445038
B   12.85248386123483   8.74816032240166   10.71218902661801
B   11.47618700183155   11.97869464463815   8.84190412733453
B   11.40139228909123   10.88371743427434   14.28347812152552
B   14.75037354677867   11.89305136619925   10.25019269784452
B   8.99367842727697   9.94318076393693   12.67675263351683
B   10.99064286039422   10.34162976086260   8.90660281273720
B   11.67454532308486   12.47734325487016   13.94806954916870
B   13.04551643385582   9.08645149226210   12.40340433126954
B   9.77375482438861   13.68264552806226   10.60808855332964
B   8.69294848313187   12.77096689982014   11.57212852946683
B   9.88341476232188   9.37609006255245   9.70737792039014
B   12.61212126606260   13.57121151765550   13.02703051857289
B   10.22829893841083   9.81879584314029   13.75753739952573
B   8.84688443464098   9.78778020047894   10.92672535321001
N   7.90915593644991   12.17499137351633   8.12314231979689
H   8.37596927253503   12.65799122001297   7.35080077443429
H   7.46844626544325   11.33434508260025   7.73742033283280
H   7.16123688466582   12.78486969273420   8.46378352466456
35
F:    ...  E:  -0.0127862900000082
W   11.71349396742203   12.11044008623730   11.33297702550526
W   11.00662531206686   9.71112979168496   11.63847063585185
W   11.64892559235860   14.67927602742041   11.32219136976235
W   9.38765678645346   11.61265477318133   9.79093500684232
W   13.37058430630935   11.25079455084418   13.11604877872343
W   9.55376032841825   11.95681205706024   13.45756562860348
W   13.16119745737303   10.50697129870357   9.40719044064766
W   14.18097362976110   13.69506663694980   11.57019995670807
W   13.20948656389828   13.28458908552300   9.43692757587195
W   14.77612047753292   9.89270305175264   11.17435383300655
B   8.35441797880676   11.18000772199663   11.74566106356747
B   15.14694577887951   11.81126386749361   11.93142535667726
B   10.94141332799590   13.47480626647467   9.47006087742274
B   12.01333510769837   9.47308846153556   13.63062524512591
B   10.92419382011871   13.78029455820482   13.23675616785584
B   11.58415330939307   8.91659379465817   9.60915936230704
B   9.60961629957806   14.00536875688363   12.30095937101502
B   12.85371499289564   8.75100875208930   10.71066903961295
B   11.47585557109958   11.97770823544056   8.84212379816324
B   11.42100106917209   10.88812489890635   14.27437414024549
B   14.73611101550520   11.90098720391322   10.25446275588992
B   9.01119174167459   9.94113062645369   12.69079266977646
B   10.98994202436383   10.34117476155927   8.92511390519218
B   11.66964524164420   12.48776030441663   13.96297688093397
B   13.07049875962428   9.10812860013483   12.39757172392624
B   9.77153008511765   13.68805906416447   10.62768997064863
B   8.68408775979727   12.77902420925900   11.58659120827664
B   9.88174445977875   9.37424377136419   9.71708004987367
B   12.60650291022997   13.58259124114802   13.06357396340805
B   10.25074345955762   9.81547974232662   13.76325275623265
B   8.85628366857564   9.79268727446285   10.94293375368388
N   7.99118903041168   12.07375100165211   8.06827977421661
H   8.40382587076181   12.72085704653635   7.39749613328600
H   7.80018917647864   11.20108598316243   7.58511343406309
H   7.10178316620895   12.48229715396263   8.37755623522919
35
F:    ...  E:  0.0030283099999906
W   11.72212985847628   12.11253996495732   11.33691082834076
W   11.01138458934076   9.71335980646608   11.64023425172744
W   11.64836344761585   14.68416537358764   11.33402976889697
W   9.39309710955382   11.61907155392853   9.82160998055562
W   13.37697384330754   11.25405113883825   13.11092337666482
W   9.56543807455980   11.95828246197007   13.47317206628893
W   13.15493369114534   10.50600796239163   9.40114423894227
W   14.18265865009464   13.69289860129298   11.56570960042069
W   13.20659382628634   13.28426616835968   9.43115761983451
W   14.77879654071502   9.89380631517556   11.16645367489501
B   8.35490918050573   11.18046884271297   11.76753068333131
B   15.14366003722745   11.81268623267342   11.92090510804774
B   10.94119409626138   13.47942812773006   9.48354036814814
B   12.02250674983611   9.47561484929585   13.62807968676674
B   10.93329750155851   13.78538394332816   13.24615076275759
B   11.57778834954360   8.91339673107047   9.60714875024030
B   9.61724816569471   14.01080341356058   12.31626614221930
B   12.85714584925104   8.75087134672067   10.70364657861460
B   11.47050467554695   11.98101170231398   8.84964885058599
B   11.43355806884274   10.89091813398450   14.28070274748313
B   14.73269890490225   11.89871546429548   10.24346297045029
B   9.01994362374997   9.93896986447085   12.70430020815377
B   10.98629895237871   10.34136397381246   8.93618811042602
B   11.68449867123014   12.48996153691136   13.96712280064619
B   13.07727769884117   9.11085031585077   12.39132104075038
B   9.76578538929820   13.69373051669397   10.63930700213367
B   8.68442633667954   12.78247543125130   11.60487886150059
B   9.87630215794144   9.37026750255633   9.72578099481973
B   12.61536479407103   13.58464289211828   13.06306249607859
B   10.26531891578942   9.81309294142484   13.76785502839131
B   8.85623070317116   9.79134166911657   10.96005774585515
N   8.08299395648125   11.97120278709538   8.02812210436051
H   8.37729374895158   12.76189600311639   7.44126933546893
H   8.16576379224301   11.11280195551424   7.46596163021188
H   7.09179306029172   12.12903229810327   8.25797329007068
35
F:    ...  E:  0.0688032399999656
W   11.72508592622639   12.11111626052669   11.33623966103299
W   11.01235399004888   9.70847213744524   11.64804132496621
W   11.63977568154152   14.68582205082112   11.34131382447578
W   9.39109857189041   11.61359936976833   9.85473061276815
W   13.38997586423148   11.25202162639648   13.10471734493141
W   9.57954954811681   11.95042681214707   13.47215333251821
W   13.14568036344261   10.50770400823448   9.39136223931612
W   14.17343758894476   13.69518683753098   11.54852101138958
W   13.19894135499777   13.28164708075054   9.41483848467412
W   14.77753973920287   9.89928982480304   11.16480439647649
B   8.34242371801458   11.17391920607955   11.78729857759394
B   15.14940140894372   11.82237642201457   11.90609144045140
B   10.93756293921227   13.48430191655614   9.49003731208822
B   12.03300081086028   9.47436256951483   13.62910807437257
B   10.94127903615970   13.79230123373151   13.26314517681927
B   11.57596754571559   8.91771366121214   9.61283126366408
B   9.63569826468438   14.00190559628306   12.31735043386919
B   12.86174293503345   8.75572414571113   10.69955196186541
B   11.45845051069901   11.97921092171888   8.85847994235397
B   11.44721392983781   10.89117959120000   14.27866685823159
B   14.72138947368615   11.89889432923545   10.23146426745396
B   9.02304438775203   9.92929776625048   12.71565309289850
B   10.97977396529148   10.33744195598448   8.93957816835395
B   11.69865030509856   12.49049540812002   13.97292561645800
B   13.08005898801971   9.10797423805370   12.38977965715771
B   9.75933590213699   13.69940678328584   10.64439956625800
B   8.68119249900857   12.77929728771097   11.61721118875872
B   9.86982371340295   9.36901777186015   9.73605890912638
B   12.62301837477662   13.58312549878421   13.06174110808052
B   10.27361016679454   9.81195307130016   13.77533984019732
B   8.84997923123419   9.78331296305237   10.97718663270699
N   8.18119755474615   11.89378897804561   8.00616384500804
H   8.31608566484885   12.76461708499637   7.47121007386874
H   8.57081439305536   11.10978386158645   7.44280985367803
H   7.16180496674611   11.75955708429616   8.10083256464272
35
F:    ...  E:  1.57065241999999
W   11.59899100905945   12.19166912864770   11.43260239937982
W   11.02221906879068   9.71685057824109   11.66607489471334
W   11.63635843335189   14.71464577300051   11.36068352489283
W   9.41089705837733   11.55740341902334   9.69980581368104
W   13.36541134428398   11.26168171734780   13.10138100080868
W   9.55592602859715   11.92565118668623   13.45516159278353
W   13.10744313927977   10.53266317315328   9.37251379121611
W   14.16133474784965   13.65721683633456   11.54319352544262
W   13.17235822431704   13.24714859042324   9.38400440380910
W   14.75361941920102   9.88030617171251   11.14691202907571
B   8.37939320762045   11.14993604825554   11.73390352660022
B   15.14668183438513   11.79881696196355   11.87171588692260
B   10.94180555312055   13.45637483891003   9.45917109319072
B   12.04837933041635   9.49469678982742   13.64945121600016
B   10.95723491439263   13.80328879397346   13.27012611478096
B   11.57210253592330   8.94721686085173   9.62473344006350
B   9.67465752270360   13.90758720676870   12.24067576540735
B   12.84849487052434   8.77490712459141   10.69132871402733
B   11.44733241178800   11.93138183387107   8.88616658387486
B   11.45422963467976   10.89315022896327   14.34403825710074
B   14.69689687889439   11.88462721318696   10.22618494004170
B   9.03342681152903   9.94283114362664   12.69174018878428
B   10.92705328535366   10.27692641872376   8.74821320425091
B   11.69106285411651   12.48626369527029   13.98602590857749
B   13.07270076138495   9.11467498127373   12.39012421505760
B   9.75045366225549   13.65027033273032   10.57626570446358
B   8.70352631595053   12.73817038301694   11.56814853844208
B   9.91037192431451   9.34860594863350   9.74607757281691
B   12.62386361841951   13.59645597699765   13.08125671115278
B   10.28291099785054   9.83260442959129   13.78618009355742
B   8.87240666165216   9.77841471886048   10.92233245946376
N   8.07533675504726   11.96941722273812   7.98892164881115
H   8.25115287072997   12.79788055366519   7.44300146310908
H   9.01205374209563   11.15678838659229   7.95581604984111
H   7.07171534292345   11.87850706569376   8.15411886481142
35
F:    ...  E:  1.10553567999995
W   11.60370284764321   12.17590234873208   11.40559495900820
W   11.01761252050501   9.74277800739226   11.65501691028981
W   11.66508538205970   14.70193966396519   11.30949240779494
W   9.31665910390425   11.53703685354581   9.54254835903749
W   13.37831986941686   11.25792637163569   13.11831736906546
W   9.54422471769061   11.92820961976431   13.44424284419902
W   13.09777721494470   10.51839073237823   9.37856609467991
W   14.16058137319002   13.67893974693528   11.56354067603285
W   13.16394223445808   13.28420888855456   9.43654110408674
W   14.74486389629636   9.89478391038958   11.14177985090664
B   8.37940507610682   11.14972912491623   11.71755104638381
B   15.13949537354473   11.79834004319442   11.89291966351454
B   10.92028408693935   13.46481515307909   9.43223168902431
B   12.04481031715897   9.48398722871790   13.64378683697458
B   10.96176712445077   13.80199780462735   13.26290436987368
B   11.55473765131782   8.92224403251879   9.61398304115905
B   9.69591108321736   13.89502438624685   12.22057423030280
B   12.84092064005436   8.76399371411807   10.69571079666475
B   11.46244956812600   11.94662335363961   8.91793156409906
B   11.46053731692037   10.88489357568166   14.31912837773323
B   14.69000178256442   11.89737373593849   10.22546890499046
B   9.02795888233905   9.94516668798875   12.67493559673052
B   10.91867016107160   10.27118969723717   8.77266161661452
B   11.68865645780558   12.48208241923215   13.96513903959977
B   13.07406804395092   9.11855303354802   12.38201841037157
B   9.74270296179488   13.65162886595730   10.55806570225924
B   8.71912584095163   12.73708232517360   11.56064824287438
B   9.90641317737917   9.30936017244352   9.75496042519036
B   12.62943285502248   13.58873769176439   13.08176742765300
B   10.27951030701211   9.82856642605530   13.77317364030071
B   8.86992148291335   9.78959158828807   10.90099704456090
N   7.88610280432467   12.29915855982112   8.26088565783820
H   8.19308001036133   12.75232591885530   7.39132671314411
H   9.46587514992795   10.83281232088949   7.98402393009784
H   6.91966215352798   12.01794297932434   8.20947408240244
35
F:    ...  E:  0.268701919999955
W   11.62221972790404   12.17263014255431   11.41211333850544
W   10.99203167861180   9.72350827766862   11.66291376908939
W   11.66291035528269   14.71217314756474   11.32581720546560
W   9.27005525369014   11.63728873813641   9.66039678848529
W   13.36503678231709   11.26266880254343   13.10272122789575
W   9.55985831480122   11.92330976089391   13.47569685110206
W   13.05489796754695   10.52767736052704   9.35360202018346
W   14.14696838354978   13.67963818947888   11.53662185605477
W   13.13608333963659   13.27862782844030   9.41816020342878
W   14.69774722420941   9.89920422470871   11.10852111615158
B   8.33770610967452   11.17456374551622   11.78412262506842
B   15.12422870115694   11.80235270225787   11.87131602469435
B   10.90427249630685   13.47076561032955   9.45132461014385
B   12.03397724403640   9.47918199455993   13.63197642702195
B   10.96999380770302   13.80979492106287   13.27934405527406
B   11.47230307573777   9.00225514019122   9.58800710390639
B   9.71630581242424   13.91928788644418   12.24708438331893
B   12.77553838911275   8.78151844282655   10.65362080519638
B   11.37654025994006   11.93880880638355   8.96352161361397
B   11.45267657811739   10.88804193861580   14.31916041371629
B   14.66689189885794   11.90114638875791   10.21070671060122
B   9.02582521091645   9.95186957076127   12.69686609457861
B   10.72371053545429   10.30542167570585   8.58198185766991
B   11.69202815429482   12.48714823951234   13.98686296718677
B   13.05008146592095   9.10850566971916   12.36007255823974
B   9.75738916477169   13.69712904725673   10.59998778811268
B   8.73469036380041   12.74315837485992   11.59739787337025
B   9.84837557777357   9.40742433089536   9.78863619092573
B   12.63801206999383   13.59180974031113   13.09547840385456
B   10.27893685965426   9.82246623816809   13.78164234025991
B   8.82348381492695   9.81745189555409   10.94829167553135
N   7.96445437554385   12.28480390140820   8.30172414560987
H   8.23627804192342   12.81733177880883   7.48252134027163
H   9.82314338294283   10.47775982704569   7.69626458675239
H   6.96098255781016   12.09561785935298   8.27383952819353
35
F:    ...  E:  -0.402023430000042
W   11.60549729633256   12.17932434837463   11.41779932506226
W   10.98853151961212   9.72395154481502   11.66185241469841
W   11.68312024557394   14.72043761985684   11.33538554412383
W   9.25850892544644   11.64721337835457   9.71969239545399
W   13.37554866132551   11.26297088998675   13.10543633108954
W   9.56692593172753   11.91979108852871   13.50341477538348
W   13.04838422408385   10.52569687009386   9.34230635547507
W   14.12784907943519   13.67660871915632   11.52819416337336
W   13.12266649625109   13.27984877268450   9.41178410146391
W   14.69417946553178   9.89915105455179   11.09844825779377
B   8.32740143346681   11.17185801487777   11.82038415298696
B   15.12366894194954   11.80214481559737   11.86300525863923
B   10.89548854741586   13.48919495863862   9.47197637601078
B   12.04217394580530   9.48943946991671   13.63435154696460
B   10.97913600298085   13.81761266710894   13.29374179883620
B   11.46383986327470   9.02736512831359   9.59065306567425
B   9.73349019256441   13.91572002702234   12.26614094763423
B   12.76825981539767   8.78847724910066   10.65817433712151
B   11.35234780041202   11.93446637406735   8.97081053936725
B   11.46633918628833   10.89704747636416   14.32921506316676
B   14.67213191091277   11.89575303242015   10.19615590219995
B   9.03668019573340   9.94563990582084   12.71683067281057
B   10.72912611113892   10.29141324567618   8.52640541095600
B   11.70466846934895   12.49410768384556   14.00068478399788
B   13.04960978288325   9.12024434988215   12.35724862911695
B   9.74414041737144   13.71634788078980   10.61994171046690
B   8.73846415982480   12.74242614739642   11.62931066831262
B   9.84053968663518   9.44604206152795   9.76561423602902
B   12.64119360677968   13.59189565910955   13.10507781874360
B   10.29246543500641   9.82633674142669   13.79708166710708
B   8.82209043041899   9.81844413031814   10.96321774885578
N   8.01240916106444   12.19949565161570   8.29719659943026
H   8.20205283384551   12.88447245568525   7.57411389053450
H   10.12812536501230   10.27545824802288   7.44709849592319
H   7.08289780433642   11.79842709046977   8.16574580537678
35
F:    ...  E:  -0.589733700000011
W   11.59456197955929   12.19926130119382   11.41873781911912
W   11.00907071863990   9.72714908365866   11.66117066061556
W   11.64190592038926   14.71241470647062   11.34713747642779
W   9.27384057044285   11.61571627452869   9.72283408558098
W   13.35278930624032   11.29541351959099   13.09248242406253
W   9.59635163606773   11.90056759027140   13.50737850610399
W   13.06008955546045   10.54577766287509   9.36999239642336
W   14.16994081624266   13.66642970876280   11.52101603731090
W   13.14410324644061   13.26421236324897   9.39068895321015
W   14.71642450001500   9.87969930880671   11.10923770134864
B   8.33809277754063   11.15164804654406   11.81930997992019
B   15.12172355372132   11.78739020851170   11.85050300747562
B   10.91073952211602   13.49568857349705   9.47270447455450
B   12.06300598260844   9.50841785308407   13.64214877857263
B   10.98299684218465   13.82323393937447   13.30987424100164
B   11.50742620614073   9.01819325870581   9.60664608596904
B   9.74553812556069   13.89779253196219   12.25855417270936
B   12.79092522880205   8.78953283195741   10.67509328597161
B   11.36005912427840   11.93485474214772   8.97279627287654
B   11.46057584728990   10.90496747854275   14.36122277292097
B   14.69339460605521   11.89222420052156   10.19755524375496
B   9.04119327977081   9.92883292594699   12.72446641925490
B   10.79444909882321   10.26529744277422   8.50860374443886
B   11.70492869862988   12.50659015097290   14.03934227403412
B   13.06893987423611   9.12954748189022   12.37502156355762
B   9.72116947148303   13.72296100475506   10.60193833882215
B   8.74569708724268   12.72410328777453   11.61276408261726
B   9.86968099813194   9.45098780417384   9.74902087543327
B   12.64602699697907   13.59173176769950   13.09200835602047
B   10.30778648224890   9.82226385090616   13.79577091401866
B   8.84310396578209   9.79733115590265   10.96093358244320
N   8.02047186960372   12.08985808995464   8.28055503949380
H   8.07163620466109   12.90222967487420   7.67477731857708
H   10.40420659219340   10.16188923033473   7.34835763423283
H   7.23572796052196   11.49794613098358   8.01026411894900
35
F:    ...  E:  -0.676733930000012
W   11.59493534040811   12.19977418747743   11.41015434251349
W   11.02603095455753   9.72853770065508   11.66416394854167
W   11.63388393912521   14.70769506780232   11.33717706646065
W   9.29672672850924   11.58366428109453   9.70145717504722
W   13.35898145471429   11.30743064739048   13.09682630343739
W   9.60086796295588   11.89350050676954   13.50633121840833
W   13.09000990968842   10.53150561776661   9.38812505025569
W   14.17809938948071   13.67101384669680   11.52291574784212
W   13.15096232115591   13.26772696821459   9.39408327487669
W   14.73893802647696   9.88498030391016   11.12611972202439
B   8.35873363605081   11.12867111893027   11.80677115015064
B   15.13116159300141   11.79787183679396   11.85495719862158
B   10.91330932062961   13.48056010541987   9.46327834269350
B   12.07288733309639   9.51850385087787   13.64951592955007
B   10.98258835073856   13.82128554291007   13.30652803595522
B   11.54903645357654   8.99274562896946   9.62966591215552
B   9.74630765261104   13.88904501228344   12.24800745403510
B   12.81581762172982   8.78202336314848   10.70534119947775
B   11.38890650774704   11.92199794050994   8.97825457973644
B   11.46981858215071   10.91321127535433   14.36664537117528
B   14.70374916218958   11.89990575478181   10.20066955884957
B   9.05191979972142   9.91528378874602   12.72110884938218
B   10.87895233453390   10.22141663901726   8.49508252181699
B   11.70938663091135   12.51370564263421   14.04650845468004
B   13.08535707093814   9.13946944378092   12.39122518683477
B   9.71811879220777   13.71092196959297   10.58737855489448
B   8.76800447577473   12.69805303475740   11.59196114918596
B   9.90310438336760   9.43608734592299   9.73322000775503
B   12.64510951746030   13.59166965816182   13.08270057503088
B   10.32152251247252   9.82421765097818   13.79442846936900
B   8.86769082080480   9.77844284743698   10.95031622802867
N   8.00223920566743   11.98892897818450   8.26929640249342
H   7.89699189963291   12.86971734079903   7.76855851920709
H   10.72205690315685   10.04541829822134   7.30949058430517
H   7.38715744684116   11.27919157134457   7.86971116642680
