35
F:    ...  E:  0
W   10.77906305618995   11.78745974580070   11.29865672938481
W   10.31730297162494   9.22885345013940   11.44267126376374
W   11.33557084767946   14.20732598421646   11.31145475538792
W   8.90635265161175   11.37101739160525   9.51694878536267
W   12.63639794386230   10.59089846198346   12.85152200791231
W   8.95203214310823   11.52407562286627   13.27552428419331
W   12.52600029970154   10.27819007053487   9.81204724898910
W   13.90178444436825   13.12650058173782   11.83074755749673
W   12.87220918184242   12.90802506706247   9.62026666436992
W   14.17926592388911   9.27200891036044   11.33006123140856
B   7.77330346749782   10.88393962803712   11.42612693240836
B   14.69146008267854   11.18965122408248   12.14652934961689
B   10.54093022758137   13.23088731751430   9.35689517090638
B   11.21194406379196   8.90819982500184   13.45453314415631
B   10.45145492275215   13.29036824705704   13.22415803860483
B   11.04417584705046   8.64096270774393   9.41945191450992
B   9.25537991391836   13.57505034238058   12.13135638504792
B   12.14126106553491   8.21278456319203   10.62103028049352
B   11.05547161635331   11.72392064717237   8.79459315999418
B   10.67777036253293   10.34252317289412   14.12014100846624
B   14.34653862981998   11.40648802085170   10.48881872747139
B   8.27626831756311   9.58121889200922   12.37221165890460
B   10.54288782349524   10.09294744613715   8.72995778235557
B   11.06797189868134   11.93830903685480   13.95563272346925
B   12.26547402799463   8.37631857082081   12.28705935957060
B   9.30022850038557   13.53587202581226   10.43370629001885
B   8.27696430704842   12.46108488708888   11.33939195657565
B   9.31961123032361   9.15513781662096   9.40562970703974
B   12.12087976756513   12.97969446500663   13.05413964388104
B   9.46744951217047   9.35197170177588   13.51060545969242
B   8.21359477667089   9.50288958229509   10.58448888619994
N   15.59205562374718   14.57092600857444   12.10401551464193
H   15.94579297881135   14.84185943678301   11.18158631835968
H   15.31033045261545   15.42626600199475   12.59125869687679
H   16.35908403107094   14.14063605752438   12.63104427400199
35
F:    ...  E:  0.0626625799999943
W   10.77925505450542   11.81691731935294   11.30221187128338
W   10.31292759879429   9.24908517947241   11.42020245500922
W   11.33145331002735   14.23310272970452   11.33653899954924
W   8.90370240334578   11.41816078781070   9.51108120074175
W   12.62653369995200   10.60629463986416   12.84741383217095
W   8.94109184758802   11.53547016114955   13.27376739535307
W   12.51811441222418   10.31348156850876   9.79618799323730
W   13.86071659261528   13.13910601691180   11.81412574507624
W   12.86710184198457   12.93177871010478   9.59615261119078
W   14.17037261100973   9.29441810757037   11.30483246271423
B   7.76910460667137   10.91859072014544   11.41512178387960
B   14.66588864874998   11.20963548236544   12.11962774040165
B   10.54721846947669   13.27923844290952   9.36876955254177
B   11.20232094742488   8.91764742576254   13.42964924618806
B   10.43731975005666   13.30166357552040   13.24150499670491
B   11.03922759824685   8.68533763342552   9.39206768620156
B   9.25099297212837   13.60176291145762   12.14067215987678
B   12.13728665581790   8.24203487973297   10.59076171355426
B   11.04558567002274   11.77057095090657   8.78895448113566
B   10.66625665110329   10.34416993861850   14.11457298002358
B   14.35287672709269   11.43448232991146   10.45237323955138
B   8.27164701086765   9.60648657103338   12.34685237386064
B   10.53641550327164   10.14087385592712   8.70530134020849
B   11.05584948487033   11.94214114086699   13.96191829110927
B   12.25860230077237   8.39814337629369   12.26001318985137
B   9.29742229798988   13.57077917922993   10.44102799396899
B   8.27467816949019   12.49512801883121   11.33924832233465
B   9.31545830175162   9.20488854563293   9.38165457959949
B   12.10673835166185   12.99490407492747   13.07101059710742
B   9.45768887560089   9.36306827952410   13.48639363837123
B   8.21078384395086   9.54520585943089   10.56164793160045
N   15.65371335201054   14.41421166619831   12.17367273533384
H   15.96644372317291   14.83217191087700   11.30184468056012
H   15.50209009420911   15.17377172057413   12.82934570207551
H   16.32138353307640   13.72953920097851   12.53774138916619
35
F:    ...  E:  0.266124439999999
W   10.80126616578623   11.83480211574510   11.30374887209971
W   10.31179500254478   9.25778505403976   11.40291368244602
W   11.30789059403380   14.26445333220197   11.36961558943754
W   8.90259038651449   11.44000675847498   9.51530414426103
W   12.64263073913360   10.60678461907704   12.83201254491752
W   8.94272801874146   11.54602503025372   13.28015131606365
W   12.52468500463175   10.33380103207861   9.79493757265621
W   13.80530935161687   13.16720965627891   11.78733906885589
W   12.86695541546002   12.94412837286649   9.56965507792267
W   14.18786554461709   9.32167395754199   11.32686018930410
B   7.76492910333657   10.94449447721204   11.41071521262487
B   14.68446026742575   11.25097390851804   12.11996406797755
B   10.56162699923571   13.32116147120271   9.38349140824906
B   11.20968102374720   8.92653611826833   13.40825146623071
B   10.42470934841557   13.31116117778221   13.25141290859627
B   11.04503008548608   8.70833143315741   9.37352263880796
B   9.24871999137897   13.62813078360523   12.14461922351956
B   12.13740777755198   8.26116469114959   10.56643179160372
B   11.04557152247096   11.79981082115008   8.80544232065244
B   10.67303074674660   10.35126708178023   14.09778680575822
B   14.35620729532083   11.45844864730971   10.44958893757899
B   8.27483965958918   9.63441186708461   12.33775310496117
B   10.54334324265976   10.17251000924403   8.70436117366581
B   11.05611824275955   11.94893389179998   13.96120930070747
B   12.25848826815360   8.40035075602622   12.23618904907288
B   9.29727947439699   13.58646578628212   10.44493328506032
B   8.28866419493942   12.51123550343002   11.34133991737694
B   9.31588326661342   9.23880437641534   9.36923289749667
B   12.09324578482275   13.01302364614415   13.08686103378551
B   9.46317488157464   9.37919791927124   13.46985310179367
B   8.21252336635777   9.57553461402228   10.55409187399631
N   15.60658656999491   14.32412611403336   12.18565575313351
H   16.06105277565070   14.80105569471057   11.37984372292654
H   15.66728408991476   14.98185709706383   12.97616889972957
H   16.07068870991091   13.40860509630940   12.41300495826401
35
F:    ...  E:  1.03616159000001
W   10.83768886702575   11.81394763284186   11.29820097654656
W   10.32472284058593   9.23784212558569   11.41664383832478
W   11.27182929096471   14.28102980241529   11.36496350315356
W   8.89733999631736   11.38417671084842   9.52549217484971
W   12.68695801629921   10.59757238055849   12.81628270658655
W   8.96511775311406   11.54052254385207   13.28262323983049
W   12.54810043749364   10.31684265988723   9.83837103110185
W   13.80240206002116   13.24025000044473   11.75046638537295
W   12.87709209094693   12.92318582719959   9.55692962333054
W   14.25473528933288   9.38246142409246   11.44136107644568
B   7.75389454196123   10.92329873483978   11.41899103967394
B   14.84191299501230   11.37048838336932   12.14851490281911
B   10.57239611941908   13.29897885555411   9.38576792540444
B   11.24038474173943   8.92755217955197   13.42465847614154
B   10.44753691457785   13.31460905505984   13.23352499962915
B   11.06875427961564   8.67195642416344   9.39804358916485
B   9.26365317208969   13.61109169250432   12.13384184614022
B   12.15164222975915   8.23926454789265   10.58360243451377
B   11.05319752833835   11.76968253658109   8.83610116654194
B   10.70599332578972   10.36306470885666   14.07414572456191
B   14.33260843706575   11.47018579585706   10.51601882997626
B   8.28406620143456   9.62795677948915   12.36243583037914
B   10.56801424734623   10.14273434486366   8.74271681351690
B   11.08570671839252   11.95799220763381   13.94229842196058
B   12.27893564383061   8.38284034139908   12.24777723663871
B   9.30805584216985   13.55292145147270   10.44436457686943
B   8.31546331029969   12.47356165163723   11.34275145133738
B   9.33340790133581   9.21171165546426   9.39510686933008
B   12.10620089514769   12.99640320527763   13.04147967619881
B   9.48392743954704   9.37652329189271   13.48629157446244
B   8.22411092277481   9.54346027917133   10.58716333430775
N   15.46777520389822   14.47599719415964   12.08188617464217
H   16.06675719266642   14.79093699540458   11.31818532131577
H   15.56143036698373   15.15612585661723   12.83804909991315
H   15.67245009823644   13.28709363509313   12.37921104055114
35
F:    ...  E:  0.69178340000002
W   10.83951512835417   11.81616570226977   11.31053247858256
W   10.31998997305077   9.24893240849202   11.42009906971489
W   11.26393713251085   14.29066315889480   11.32938607381652
W   8.88883634571799   11.40207646482448   9.51137113768823
W   12.67497971290090   10.59627079544378   12.79748277313458
W   8.96245700363872   11.54619436730130   13.27207925052596
W   12.54601405843543   10.33016051274553   9.82816471465729
W   13.92255495052260   13.24644947467166   11.81144579792985
W   12.88127977718087   12.93222311590037   9.59772354103564
W   14.21817181334635   9.33450185980865   11.38090257225550
B   7.75248760441544   10.93690074901165   11.41892989289201
B   14.84753667804005   11.37762396447584   12.16123645955190
B   10.58040268975735   13.31542948962665   9.38189134980559
B   11.22914396469389   8.92300808172272   13.42216735903159
B   10.46589658522995   13.32774244747518   13.23769574104414
B   11.05864715629943   8.68918854398922   9.38714527630007
B   9.27058173878604   13.61603886754527   12.14246659410628
B   12.15017684913175   8.23575978130744   10.56947582192956
B   11.05000186315399   11.79066913282367   8.83668399787470
B   10.70470040798176   10.36236332421933   14.07071479999385
B   14.32734872922738   11.45852344415596   10.52640502025855
B   8.28183597287564   9.63024003593543   12.35351016923494
B   10.55868291235705   10.16824269766309   8.73545572440623
B   11.09030528733322   11.95818157548250   13.93350352450216
B   12.27126226895643   8.38428529012001   12.24157271146636
B   9.32221005620070   13.58615318980541   10.45627552130070
B   8.31607134345705   12.48742932303515   11.34778897386015
B   9.33403382500693   9.22999498979074   9.39335243022095
B   12.12482988066308   12.99261131131553   13.01761179702586
B   9.47652520674044   9.37467533942355   13.48740370266925
B   8.22501633096177   9.56466170432090   10.58269564913699
N   15.35488185794126   14.68800936546972   12.04100939590540
H   16.09860707822936   14.83151997761710   11.36446001212393
H   15.60616369885939   15.19979011632556   12.88834864048644
H   15.63917702957668   12.78158230852191   12.39727493706593
35
F:    ...  E:  -0.299245060000032
W   10.82374476430053   11.80898554110222   11.30504478457694
W   10.34510920346712   9.23429075763487   11.43041187881637
W   11.26374205535459   14.28345281650229   11.34630554628945
W   8.89667951929655   11.35083772502613   9.51017034670656
W   12.66877291821191   10.62292861687384   12.82904663424162
W   8.96792200105954   11.53606836550303   13.27174836590052
W   12.55557074670962   10.32396392280848   9.87722917034695
W   13.91486492502319   13.36381938023719   11.75569667366423
W   12.87774603973422   12.92839091298986   9.58414087759894
W   14.26869376719515   9.41125662217631   11.46747198952321
B   7.75891481168599   10.90041276979394   11.42389659473612
B   14.89711947273736   11.40137562566214   12.12966723326552
B   10.56496637468536   13.26835583124334   9.38580098559592
B   11.25791068639342   8.93340142280520   13.44606737392150
B   10.46431824932967   13.33544717223088   13.23282339182859
B   11.09427477465944   8.65630848830427   9.42038303609788
B   9.26699707403427   13.59971259636038   12.12663713796824
B   12.17527300559873   8.22296853557684   10.60192287862304
B   11.06207613969688   11.74922141816062   8.83672461887689
B   10.71541314042632   10.37282888330726   14.08547173796694
B   14.29292693867485   11.52592624765966   10.54601322779824
B   8.29787511258651   9.61066162547317   12.37184444106921
B   10.58896483446462   10.12196097200236   8.75204371964669
B   11.09831885433189   11.97381408671401   13.93997672415106
B   12.32047520270699   8.40890525474883   12.26646005169900
B   9.30459609370521   13.54509488432447   10.44123487348378
B   8.31650529322087   12.45273239612021   11.33936183594124
B   9.35155551250050   9.19290239920064   9.40780502672960
B   12.13848087445552   12.98910896764654   13.00080509503037
B   9.50068384494524   9.37037341150070   13.49968761190324
B   8.23916020735354   9.52132149288023   10.59800460453823
N   15.26833609630381   14.84954866918585   11.90802436034708
H   16.06380495293462   14.93109860231044   11.26765001527728
H   15.49130032118115   15.42440250237307   12.72774367665646
H   15.54116910256743   12.43238399509443   12.52094639071632
35
F:    ...  E:  -0.675934149999989
W   10.83154343582635   11.82338580362159   11.29867502727283
W   10.35313673197923   9.25372042877763   11.41739379564743
W   11.28027296484196   14.29047288076787   11.37409522241041
W   8.90377588026568   11.37748863539289   9.51682783572556
W   12.63640537027054   10.62633713947339   12.81197212986138
W   8.96396506002443   11.54533956262136   13.26776931149463
W   12.55134640241191   10.34208399252303   9.84857689289783
W   13.92121253408681   13.35207057575052   11.73568870428327
W   12.90003685230408   12.96593973624876   9.57965579539273
W   14.22664002811406   9.39679868123629   11.39961683120799
B   7.75993887898578   10.91446649870723   11.42278641922862
B   14.88948228883692   11.35924720889069   12.10007596482049
B   10.58178635080342   13.29163672196438   9.40408924153666
B   11.25377323975651   8.94501502367790   13.44101691049642
B   10.45681698345860   13.34735674942462   13.24212581121801
B   11.09690283075045   8.67459200609429   9.40003863479503
B   9.26313152427302   13.63570655033983   12.13215843654988
B   12.17559701528759   8.22902433363732   10.59739800164436
B   11.06836351008573   11.77948126176771   8.82804521830070
B   10.70268867420371   10.38198405714212   14.10169420333955
B   14.33097577001855   11.53861792922165   10.50048399800112
B   8.30690014668676   9.62166347942028   12.36419300451282
B   10.58594301293708   10.14817861530539   8.74015220623045
B   11.08843302993284   11.98048486214158   13.94910709714365
B   12.31256608069010   8.39909932130610   12.26877769506874
B   9.31093060178241   13.55890879381199   10.44909036421994
B   8.31421692911532   12.47114061063160   11.34512311026689
B   9.35626681245729   9.21142829223983   9.39556319875635
B   12.14127519135888   12.98002436971628   13.01069580022110
B   9.50578869268573   9.38540493122186   13.49020281841844
B   8.24996714020947   9.53216327172422   10.59506430434598
N   15.27419765669352   14.79551375372440   11.91018820164215
H   15.92828894292429   15.10029930924375   11.18652172938404
H   15.52371496646261   15.25604118993516   12.79062685852378
H   15.60798138101262   12.14314633382878   12.73877213667362
35
F:    ...  E:  -0.867533840000021
W   10.81998718760584   11.84267981144174   11.29421931255330
W   10.34218892642087   9.27799627165383   11.40348990556618
W   11.27786084817087   14.31018803972805   11.37506864719172
W   8.90563879398126   11.42627906271455   9.51430961602863
W   12.62727532760349   10.63207839530292   12.79062014072428
W   8.96391180765213   11.55583031876957   13.26506831084891
W   12.54434513691145   10.37500531328805   9.83406032903257
W   13.91909941172542   13.32962795282398   11.75497106904715
W   12.90793426135208   12.97893806642800   9.59847755333444
W   14.21240500285922   9.36563316452840   11.33907193832359
B   7.75559532412699   10.94786642011658   11.42120004463030
B   14.87207321438388   11.32975346526625   12.12531676898758
B   10.58881837698786   13.33237311119473   9.40678568798398
B   11.24635359771533   8.94919302387535   13.42232639017801
B   10.46328697319863   13.35392167120336   13.24526574380751
B   11.07917937640354   8.71923168013272   9.37681733076530
B   9.27012635562264   13.65132395169458   12.14484016784559
B   12.15504455127965   8.25305083364598   10.56848603297203
B   11.06589578633672   11.82218505149203   8.80978773709941
B   10.70732497456172   10.38175212882235   14.09224777162035
B   14.35615484888785   11.52313196575318   10.49702704455681
B   8.29688067967457   9.63568134669841   12.34673511799448
B   10.57063859412389   10.19480210612338   8.71431905420510
B   11.09441703071108   11.97968012979106   13.94544549170576
B   12.28852309395885   8.39771654196581   12.24008141540747
B   9.31584052002112   13.60162428044890   10.45947127487408
B   8.30757527979556   12.50611593801326   11.35272400270453
B   9.34927576355447   9.25200599476671   9.37959905012601
B   12.13291113320643   12.99466347214911   13.01184105576844
B   9.49703305578429   9.39496181832434   13.47714753596015
B   8.24193080808222   9.57569901001440   10.57675981294521
N   15.29415718312978   14.72279396025135   11.96638697259212
H   15.84396812685107   15.16609452378926   11.22861509441790
H   15.59323508386018   15.07748052150588   12.88018323840401
H   15.74737647499406   11.79690356781374   12.79549625133065
35
F:    ...  E:  -0.992223029999991
W   10.82031925381205   11.85968972245155   11.28283865888609
W   10.32974817648169   9.31003583971208   11.38636304393511
W   11.28496489122955   14.32251878423192   11.37093656937961
W   8.90062520196919   11.47639623835097   9.51326424298259
W   12.62146979133993   10.63118469664925   12.77080986113364
W   8.96870399707955   11.57108721218624   13.26243978651421
W   12.53871195624188   10.39886022236319   9.81154738045401
W   13.95006133070073   13.29194538127292   11.79434832416898
W   12.91660771475576   13.00629655217896   9.63392739122263
W   14.18539451763982   9.33767511918193   11.29153699417751
B   7.75279279220915   10.98117856036502   11.41657906203827
B   14.85524994504340   11.27268475506072   12.13704361516293
B   10.58887724270550   13.37151876363402   9.40498468076983
B   11.23686168539583   8.95181883857103   13.39845921318932
B   10.47260905177014   13.35870032953445   13.24925010156591
B   11.05809706030715   8.76070541832677   9.34767522804450
B   9.27588470254040   13.67251218876493   12.16192709212853
B   12.13578003410249   8.27978628036146   10.53578041915717
B   11.06517408813381   11.86650016232356   8.79952933767260
B   10.70544424921742   10.38126694063188   14.07923029292014
B   14.37517338812880   11.49638721215184   10.50819894986846
B   8.28884295733056   9.65505693606722   12.32996580668118
B   10.55691879696242   10.24272530065873   8.70058091495948
B   11.09837560622189   11.97886655686424   13.94061351635713
B   12.26877744535825   8.39856004422183   12.21049633721247
B   9.32318031338866   13.64005462770872   10.47280499591396
B   8.30455086481401   12.54028119901182   11.36022343418092
B   9.33578403075101   9.29472169742630   9.35897205306545
B   12.13700409624017   13.00122959147851   13.01326594279918
B   9.48726214209915   9.40465897280552   13.46113515650181
B   8.23039964560362   9.61538375579568   10.55909187489862
N   15.31269970085251   14.68200420419191   12.02723997171291
H   15.78826922476835   15.21286089072160   11.29757926193529
H   15.65192367116397   14.96663441793142   12.95056945647695
H   15.83172334517820   11.42247549834135   12.81505394346765
35
F:    ...  E:  -1.03739396000003
W   10.83123533474909   11.87510723155530   11.27602060261412
W   10.31884485915836   9.34008653313169   11.36853558794006
W   11.30338631047981   14.33518850654517   11.38170976360782
W   8.90327024819186   11.52093702294051   9.51108967956747
W   12.61365811953026   10.62654570706478   12.76174804262050
W   8.97096026659572   11.58842461229304   13.26014317581300
W   12.53993155534614   10.40907763624324   9.78979132738548
W   13.98270661365861   13.25416134607391   11.83707881732835
W   12.93293171592826   13.02608994549034   9.67278141352405
W   14.16080264508468   9.30761368202501   11.26278028601177
B   7.75157222562397   11.01489062548763   11.40481031425518
B   14.83212544367013   11.21180917727706   12.13886789468538
B   10.60457104982397   13.40652215620699   9.41115544364817
B   11.22040011467882   8.95460782248611   13.37843617466460
B   10.48374704345929   13.36302875026353   13.25814102931585
B   11.04252215675732   8.79180796788144   9.32166567400216
B   9.28744708260634   13.69076931390663   12.17700904030722
B   12.11904663700978   8.30154689797496   10.51015908313622
B   11.07760592234593   11.90368986942055   8.80148284096635
B   10.69495814966452   10.38154485325791   14.07119808672993
B   14.38013326436574   11.47424795533938   10.50925482983452
B   8.28107460946311   9.67977120979853   12.31105059864757
B   10.55364471744205   10.28512828866771   8.69723056352336
B   11.09760398615864   11.97719790814041   13.94230432122758
B   12.24843015187737   8.40122212314304   12.18812560640345
B   9.34167698688770   13.67167261479245   10.48617295807960
B   8.31128561041339   12.57099478885493   11.36304548512481
B   9.32766673657268   9.33236025996059   9.33904903006590
B   12.14472581664842   12.99928518927452   13.02568179754993
B   9.47324254397477   9.41632730238910   13.44308594852433
B   8.22210064457464   9.65287434830230   10.53936981793903
N   15.32038229515941   14.66369136238552   12.07565688125377
H   15.71980843082709   15.26585280367027   11.36040063964264
H   15.71169322322177   14.88704160039763   12.99494864460143
H   15.84907039958319   11.07314549889074   12.78428151099163
