35
F:    ...  E:  0
W   11.34288710916325   11.52789649594196   11.38388365619038
W   10.87129678447574   8.99323906947557   11.56326058691488
W   11.88133395353308   14.00899454865695   11.32954243043904
W   9.44545965119492   11.10339085849764   9.66337440183649
W   13.21586699618670   10.38379652264645   12.90771191822034
W   9.51386540065621   11.32662234183436   13.40019424793462
W   13.07600319314102   10.00173881284864   9.88300116753100
W   14.45798588375001   12.85946397355964   11.93682064707386
W   13.36542852855664   12.64989527527193   9.71923147067439
W   14.73668098539674   9.04160941361242   11.42662187038680
B   8.31346249846481   10.64655794177595   11.57890910167444
B   15.32012349064861   10.95533231840645   12.18801377936551
B   11.06254772684215   12.94699716311190   9.42661574289761
B   11.79070639387507   8.71982628627353   13.58107385644870
B   11.01259300233628   13.10434488159005   13.28668404843153
B   11.56827312282490   8.36008517541980   9.54117507612660
B   9.80472548605048   13.34047210188951   12.21421088451462
B   12.67503421605929   7.95316184768355   10.74195661572022
B   11.58658492698600   11.43958112171978   8.87283560969890
B   11.26804834184396   10.16530839264556   14.22542145337853
B   14.87302148070310   11.16232079383924   10.56571816426789
B   8.84774272301753   9.35835308486781   12.52925562360803
B   11.05779276788321   9.80746293106979   8.84680215118306
B   11.63240750276498   11.75514697304235   14.01560930763322
B   12.82566487964514   8.16435687691038   12.40438146463976
B   9.83316334069401   13.26670326467105   10.51928417674601
B   8.80178058846611   12.22525438284251   11.46055025065657
B   9.84652801645893   8.88334219243104   9.55522225753173
B   12.67234122151790   12.80286853867413   13.10346606877362
B   10.05641217499615   9.15605766318189   13.65152497194676
B   8.75573694584084   9.25515595105996   10.75095928944505
N   11.56818351362266   16.29649288677782   11.35195992932447
H   11.51061376979784   16.68712171155595   12.29671476996132
H   12.35360414611865   16.74907272990574   10.87543480176815
H   10.71036214801981   16.55623838784145   10.85684111858881
35
F:    ...  E:  0.0886420200000089
W   11.31557570928413   11.52629380352514   11.35848044588821
W   10.85783269781402   8.99884837570469   11.55475645491555
W   11.86917105157885   13.99421075730691   11.25455902161179
W   9.42449510728191   11.09786948913625   9.63894628407973
W   13.19983080554809   10.41425298762947   12.89437470507705
W   9.48768263296256   11.35016958053536   13.37513689971402
W   13.06080952720796   10.01215196587954   9.87775717859212
W   14.43246164541517   12.88027675534148   11.91585390542058
W   13.34178260229033   12.64709070503246   9.67191337841467
W   14.72669874858051   9.06944186308603   11.42656150181688
B   8.29087933963662   10.65077889277966   11.55795111181038
B   15.31297998024799   10.99123012161695   12.17573631324551
B   11.02733900561593   12.92574363628887   9.37849678858926
B   11.77744296337820   8.75042521191107   13.57387850163740
B   10.98448164931244   13.12523689126512   13.24366649310412
B   11.56053274629888   8.36522417854967   9.53617928599709
B   9.77421927264384   13.35463742933556   12.17709369003415
B   12.66737920572287   7.96518095200103   10.74222134411011
B   11.56689251242996   11.42823721054840   8.82924675335436
B   11.24749934588904   10.19712566080856   14.20645383389370
B   14.85659015102610   11.18697332911935   10.55780819788661
B   8.83112508198472   9.37012921403999   12.51664507675322
B   11.04436885898660   9.80083491637470   8.82720414445875
B   11.60283118393672   11.78807945066847   13.99503926758352
B   12.81862234617258   8.18948003195421   12.40162844276485
B   9.81103620476727   13.25968522349432   10.48280739229674
B   8.77003395533942   12.23240573636253   11.43313385264329
B   9.83597619307550   8.88213751277442   9.54617073363149
B   12.64558840507879   12.81496672158910   13.06839318545260
B   10.03915826983864   9.17927583718149   13.64117079247229
B   8.74199728678096   9.25642894792826   10.73979948992210
N   11.68559518346525   16.23028219683914   11.46766621417315
H   11.87693006546835   16.34682230474436   12.44333283556512
H   12.40654637682286   16.72908132619732   10.91271561602213
H   10.76187679964983   16.64325369398356   11.23148377859991
35
F:    ...  E:  0.456960170000002
W   11.28592467881605   11.52999634831845   11.35198450364651
W   10.84656519534897   9.00288582054208   11.54366467786719
W   11.83832254648542   13.97265277916555   11.22255567175087
W   9.40088851346339   11.10397813058258   9.62551051010945
W   13.18115957455033   10.44206787890290   12.89106029674666
W   9.46333023578312   11.36093160040458   13.36786308855448
W   13.04908157101638   10.04344954275425   9.87880434286291
W   14.40917781626973   12.91745267310802   11.92474245793939
W   13.32023449818912   12.67025611597342   9.66390742396824
W   14.72225326418436   9.11433966313768   11.42955247022538
B   8.26373779188258   10.65653603362675   11.54556786300276
B   15.30092696918721   11.03639882679892   12.18218855888953
B   10.99519126849276   12.93471770489618   9.36667823259654
B   11.76580225984423   8.77233807761066   13.56162552660262
B   10.95655864073855   13.13220844713342   13.23811606427879
B   11.56087416783100   8.38798215706199   9.52333691272006
B   9.74617771116535   13.36330029460381   12.16824589788254
B   12.66924106520143   7.99048885799295   10.73156038919402
B   11.55257841906931   11.44462622925485   8.82347514731981
B   11.22462647976938   10.21456664949799   14.20302077473418
B   14.83515814482072   11.22918564807306   10.56841611003066
B   8.81409608063082   9.38051299784884   12.50233932390907
B   11.03611393703065   9.82107408299660   8.81555541694154
B   11.57803117452270   11.80754798146758   14.01020560707465
B   12.81676628743067   8.21592825381230   12.39030913558609
B   9.77753966537606   13.26507679549981   10.47063114026767
B   8.74795703866490   12.23458774964184   11.42497645177098
B   9.83206790062299   8.89679791845801   9.53342261036227
B   12.61443301865652   12.81292154508710   13.05671492941429
B   10.02200837104373   9.19200263549693   13.62765047788721
B   8.73227472433729   9.26628121234899   10.72688026449158
N   11.76896240980104   16.16063523221208   11.40928741451805
H   12.16889934016512   15.87336215852432   12.35819331588207
H   12.46507926913403   16.73457941236617   10.97227861345651
H   10.89222288200720   16.67259545633380   11.54394128904785
35
F:    ...  E:  1.34772631999999
W   11.30454532022351   11.55184013979550   11.37584295213403
W   10.84889815397891   8.97771772387746   11.54519330694642
W   11.80912879695039   14.12856728488459   11.36918101593697
W   9.39991438545190   11.10501512788564   9.63660786380000
W   13.19024617533084   10.42079559571015   12.89456689555335
W   9.48020570122486   11.33911725885426   13.40046790725838
W   13.05271052828207   10.06489186204949   9.89972600794390
W   14.44660543617728   12.92561662570829   11.95848963330561
W   13.32699769637706   12.68687132574385   9.75255163498362
W   14.73852618776578   9.10871582215344   11.44344601900956
B   8.27363630472562   10.66804946305801   11.56455829954539
B   15.30341405730368   11.03076748357263   12.20604032113230
B   11.01858597444735   12.95784903419881   9.43466781090210
B   11.77704375219119   8.75411732374904   13.56202558894674
B   11.00304111048120   13.11164477659131   13.26296092220045
B   11.57879462484396   8.39594738195470   9.52253030975857
B   9.79299188662929   13.35727337658430   12.18990536033649
B   12.67324835360903   7.99152310918162   10.72427526215295
B   11.55870072215213   11.47637667127378   8.87369156927440
B   11.23585099998306   10.19997866540162   14.21536541403862
B   14.84009746187429   11.22864241307941   10.58952255433953
B   8.82238155282739   9.38262292531391   12.50701476399739
B   11.04802546483424   9.84267549330952   8.83532628778839
B   11.62387037474031   11.78932453052464   14.04342981031416
B   12.82507758319499   8.19959963499302   12.38896880375625
B   9.79968742030302   13.28017899940622   10.50777441024285
B   8.79831196749047   12.22726883098245   11.44672652579088
B   9.83903131179841   8.91448252984617   9.53894538572955
B   12.63754236335778   12.76097503462437   13.07322761991679
B   10.03684541797806   9.17743884370198   13.62982182085218
B   8.74101258726639   9.27664494385315   10.73604939690420
N   11.56275035339648   16.16865360232929   10.96412376288616
H   12.19859764044275   15.61271274715747   12.34944730052488
H   12.35734991697831   16.82625527749316   11.05927511582511
H   10.71059532692058   16.71411105268997   11.15251525750432
35
F:    ...  E:  0.195717510000009
W   11.34500041845068   11.58893846472799   11.41987020569394
W   10.86094631776121   9.00484276085649   11.53192079301929
W   11.76894913853242   14.27168163162048   11.45820172274057
W   9.36394817250586   11.09747910300830   9.61423331813366
W   13.20349728452207   10.40226771748348   12.93674184628249
W   9.47442693899420   11.32188328280235   13.42270221541124
W   13.05904400639617   10.07242866534984   9.89592756997131
W   14.37671328370901   13.00020710878984   11.93841950994091
W   13.32405398482332   12.67687758189299   9.77723171362827
W   14.76181994281185   9.11987881694578   11.44464265802480
B   8.27208506635373   10.67947789439803   11.54819008483827
B   15.24055591267337   11.05696835375689   12.21364636637813
B   11.05106707523869   12.97656076004107   9.48090998616255
B   11.76571645139045   8.74625876786233   13.54732083318499
B   11.01562588658381   13.11802100086200   13.29383774119795
B   11.58051972292072   8.38871913083891   9.52166501743194
B   9.83247909874950   13.35845706982471   12.18153043632441
B   12.69135916729307   7.99346516501230   10.69937847673884
B   11.53605816284592   11.47655102973675   8.91801512179677
B   11.20102490769915   10.17217975842158   14.24127342355234
B   14.82755102013739   11.25629076170602   10.57750292326873
B   8.81458182877698   9.39619868497599   12.49080365091561
B   11.04503335549721   9.84279854077028   8.84916761832240
B   11.59229508270760   11.76474925651277   14.06847671507851
B   12.81389698130042   8.22559789960723   12.35606268800317
B   9.81449163460010   13.27356176165845   10.52064511988052
B   8.86151445817337   12.21433833863155   11.44843491659571
B   9.82853751486768   8.92585556730327   9.53729303535986
B   12.60158867231941   12.71351860830685   13.08042010777351
B   10.02025073319693   9.16262271008589   13.61613181265246
B   8.74309768556047   9.28487750010614   10.73632709160816
N   11.47539332862245   16.17119638392280   10.77854998011200
H   12.65721420449364   15.34474302207862   12.60959613973283
H   12.21049241562721   16.82443122250752   11.09461801599995
H   10.62343305539654   16.73033858912786   10.80457405577609
35
F:    ...  E:  -0.254678490000003
W   11.33713658767070   11.58790036224654   11.38152838886199
W   10.85878166475760   9.00520857029013   11.52224355547960
W   11.70103515882331   14.24607553845043   11.42280930146960
W   9.35537919689865   11.11663715469491   9.62784165463861
W   13.16753641437445   10.40723010635857   12.89331629045305
W   9.43751221070062   11.34513788749685   13.41211472483489
W   13.07634065695249   10.09021522240943   9.84237510414887
W   14.24845332849111   12.96248351973130   11.95754651405371
W   13.28739790548860   12.68818545893462   9.73302750323254
W   14.75463142074945   9.15244157923438   11.46088690257587
B   8.24238383221120   10.67630134656036   11.53362168854677
B   15.26654183440853   11.08506289243101   12.20073779552020
B   11.08709911765847   13.06002747753401   9.52672119498419
B   11.74878921167825   8.76214294331586   13.54614694462827
B   10.96503608592494   13.11706312108811   13.30958043063507
B   11.57453379651840   8.41915955115923   9.52053323004086
B   9.79734536866412   13.35321816396038   12.17058659229354
B   12.70993529915550   8.04568486411968   10.70597668876577
B   11.53454071971750   11.51181882122217   8.95467477989818
B   11.16630816563621   10.17661564076173   14.25652250511802
B   14.82206649994678   11.27151310777483   10.58673516181413
B   8.80783118494196   9.39992016434383   12.46956320492918
B   11.04096692681075   9.87691353143645   8.83275610675415
B   11.50933963519084   11.77355662463152   14.12358229909034
B   12.81961414949338   8.21827633143571   12.37423317198541
B   9.73977933997197   13.27335038077022   10.49097359624899
B   8.81422155550507   12.21335305170436   11.43197679799961
B   9.84293727630633   8.94146072107070   9.51933732342532
B   12.57682581567676   12.64644206648620   13.11989607147378
B   9.99915529221244   9.17577189194038   13.59261864627283
B   8.74848005201605   9.29556709558386   10.72037470346625
N   11.50719874340260   16.21632406591603   10.94339762859678
H   13.09493749895255   14.92765555689395   12.52061744334802
H   12.33752829863442   16.82066720372157   10.97506650836400
H   10.67666266599079   16.79488089582423   10.97434245758379
35
F:    ...  E:  -0.208388070000012
W   11.36578357964692   11.61466059985104   11.43981544947299
W   10.86243124508899   9.04227515697751   11.53281743740094
W   11.61747352502653   14.25416562713773   11.35725684998691
W   9.37803050442446   11.11623890862709   9.61509212490056
W   13.21594966112110   10.45275932638233   12.88080309590270
W   9.44443889665366   11.36929203923726   13.38870403520307
W   13.06579238694274   10.05668232884704   9.85082183671258
W   14.15368326028565   12.92764153577235   11.91284238280243
W   13.28841595718082   12.67023137195870   9.65605117940664
W   14.75959158823536   9.16517887326164   11.51379786009311
B   8.25616104165070   10.66846887422351   11.52920812118257
B   15.33041095687300   11.11078683750862   12.18385539201772
B   11.09640032177414   13.04262334957153   9.51231914961403
B   11.76692424048237   8.79439212779276   13.55025997307421
B   10.86598105691646   13.19079726157992   13.30093516138325
B   11.57141554083927   8.41421786692321   9.52391265630820
B   9.72887595386825   13.37359839268372   12.14599405632021
B   12.69663991329625   8.03853165016028   10.71996580044278
B   11.52608514971368   11.49149351545136   8.95136107879864
B   11.23361295848157   10.25660163058488   14.18413580538660
B   14.82956570477431   11.26320088707495   10.58201841009590
B   8.83348069339044   9.41322108735690   12.48977557420720
B   11.05663728046994   9.85655262275354   8.81383580796464
B   11.52369283276839   11.85241071800839   14.05862529112983
B   12.81063114283241   8.21794289330118   12.39115432488727
B   9.74296873639667   13.25653100525673   10.47465838543259
B   8.78262247510478   12.21274190535558   11.40461227728857
B   9.84490745332150   8.93986345156445   9.51883161041304
B   12.49685439884160   12.87887909465901   13.17798278725860
B   10.04145426168609   9.22306024966368   13.60993035296537
B   8.76024941318617   9.28938408540577   10.72529536054342
N   11.54671103239343   16.22656814890430   11.04330932785580
H   13.05841196683755   14.37831574683792   12.64747621781471
H   12.38970068434963   16.78581073766897   10.89494036609492
H   10.71227709667808   16.80914300318967   11.07186737116994
35
F:    ...  E:  -0.101623469999993
W   11.33742993064377   11.61299740253397   11.41805506836983
W   10.85549826809791   9.06065043091949   11.53625906111511
W   11.55821889104974   14.23351688824893   11.23853760528954
W   9.36637700425866   11.08127193139943   9.60379620850038
W   13.23436944885762   10.44713731872893   12.87194841916712
W   9.45495455031564   11.38064837721943   13.37757540948583
W   13.03800666818713   10.09654091919820   9.88901917301520
W   14.28519333217993   12.97926215990639   11.93649573497787
W   13.29119434179346   12.69656648242574   9.73061131114786
W   14.74617072519104   9.16279436138827   11.51937981143680
B   8.26480662445070   10.64462163836001   11.52157563297288
B   15.31898189574588   11.12177799687372   12.17349789765789
B   11.03925286315988   12.97737996664090   9.43111446736937
B   11.77318437192305   8.80064822335464   13.55980051582880
B   10.83472199826664   13.22408901721020   13.26525069415545
B   11.57291324028480   8.39594410594675   9.52622153617641
B   9.68256939642827   13.37684969918400   12.12040388201530
B   12.67704099163525   8.01489021279146   10.70396921515540
B   11.52140156022746   11.47327293854300   8.89096073534523
B   11.25442676804198   10.29184367614927   14.14565660567592
B   14.80140712863121   11.28536683050399   10.58624092367155
B   8.83283994033069   9.40115137956981   12.50740767311116
B   11.05026907029302   9.83869412961672   8.81777969628270
B   11.54429949666610   11.91115545510806   13.98201232067934
B   12.79219525298484   8.22502016073033   12.37177599987854
B   9.72044066822593   13.25870119154657   10.43919281748865
B   8.75917483041906   12.19722252704741   11.38344150661711
B   9.84189916670828   8.91905297320578   9.52987738371986
B   12.51055623108928   13.06424700247971   13.08020204792515
B   10.04642792349732   9.22514667111828   13.62701541725155
B   8.74310881420139   9.26303292803093   10.72867106683956
N   11.59306385608764   16.21140871873175   11.08279670728520
H   13.14461606394312   14.23755550964159   13.08453050560277
H   12.40451190280877   16.74666736527364   10.80455086555251
H   10.76273969490748   16.79713632190656   11.16863899476871
35
F:    ...  E:  -0.403863010000009
W   11.29439566617644   11.59828577591429   11.36831075350925
W   10.84081792018604   9.07548269036618   11.53726259634574
W   11.59085414265566   14.22068718670758   11.19412578479097
W   9.35714660816871   11.09939273646311   9.59535052357846
W   13.21563199265978   10.47465119004718   12.86667871730736
W   9.45363431782225   11.38221906568674   13.34817009897613
W   13.02398359609932   10.10767508358106   9.88023767150927
W   14.30727878035789   12.98587874969410   11.97111926366634
W   13.25670961012261   12.73955558042806   9.72126706098845
W   14.72555606810586   9.16528399895711   11.47851586621481
B   8.25015645626941   10.64699211343052   11.51439006813391
B   15.30497144698973   11.12666806773462   12.16986815639283
B   10.98707872754843   12.97279839378897   9.39201911321635
B   11.77087733577103   8.82107974185361   13.55583212754165
B   10.84020981690054   13.23607977892461   13.21556773568619
B   11.56318454011960   8.40934319967774   9.51869931426298
B   9.68185480218836   13.39156076620806   12.09611903967582
B   12.67083224333108   8.03028028614261   10.70208541037360
B   11.51387714769432   11.48210352268989   8.85843422519223
B   11.23529069647957   10.28995735621596   14.13927627890624
B   14.77999668403270   11.30166642436220   10.57911708836765
B   8.81556689406114   9.39820967464157   12.49894358065724
B   11.03193318398780   9.84700777396091   8.82267100936551
B   11.53012401386610   11.89839347541925   13.93874256507803
B   12.79108188719290   8.25427316925502   12.36436679628366
B   9.70776755061104   13.27582117533421   10.42765169821271
B   8.74838398051236   12.20996735595222   11.37847324266849
B   9.82726869740189   8.91881956219184   9.52649471064945
B   12.51093567744057   13.08142341729243   13.11831133009482
B   10.03676266915981   9.22628651211373   13.62123753122774
B   8.72590462417764   9.26151193830407   10.71548465897217
N   11.63802058723586   16.19541836046794   11.09590486433459
H   13.37128571293447   13.99175758900758   13.43758681876091
H   12.41414754518813   16.73136044273581   10.71766380679479
H   10.84074128808407   16.80637075598366   11.28828340379446
35
F:    ...  E:  -0.52901810000003
W   11.24897049032881   11.59784609790557   11.33308729499569
W   10.82737444309486   9.07754497732173   11.52406340737841
W   11.62542786540314   14.22728238218349   11.20952418392162
W   9.34348511655709   11.13260591043994   9.58843489030571
W   13.18350940297239   10.49253852325937   12.85364584340863
W   9.44291845932373   11.38557437300770   13.33471192602998
W   13.01420420525478   10.11717775774036   9.85961312540827
W   14.39016888323429   12.99280842650685   11.96887152329152
W   13.25471740540529   12.76044396927373   9.74742497941887
W   14.70523391702107   9.16413566620147   11.41495137917664
B   8.23501954263023   10.67285216124391   11.50701557706042
B   15.28733671655636   11.09620857044363   12.15848878766162
B   10.96744670748374   12.99675542985918   9.37923267492194
B   11.76011488635070   8.82542665525116   13.54231601896596
B   10.88695697169479   13.23439181397186   13.19465200212369
B   11.54562742931778   8.42994502876214   9.50437342916838
B   9.68540022751930   13.41873929077022   12.11131161179323
B   12.66227273298755   8.04239939248429   10.68817241973887
B   11.50705489052761   11.50951590952758   8.84253713633133
B   11.20911858837459   10.27572336706245   14.14265887656267
B   14.76658072683479   11.30447085646708   10.56683827230032
B   8.79673843795224   9.41046636640781   12.48078698159093
B   11.01379298732729   9.87479031447445   8.82142304522825
B   11.52400104686370   11.87581447202568   13.90597001441837
B   12.78552412293397   8.27895038379963   12.34872022221357
B   9.70481455225303   13.30824479356205   10.42868758768058
B   8.73703388402917   12.24032573851972   11.38569891949488
B   9.80844363273664   8.93605105201889   9.51651271785880
B   12.57893199034452   13.02621596076843   13.13052462718237
B   10.01236051040667   9.22773147971626   13.60640413346849
B   8.70808014575333   9.28638560611825   10.70220401653848
N   11.65438457986244   16.20128685257678   11.09513430249945
H   13.48737931319543   13.67095025710047   13.75947439766320
H   12.40076110228671   16.73370389240936   10.64472760743255
H   10.89307699671477   16.82895918235142   11.35606897829902
