37
F:    ...  E:  0
W   12.11961787094238   11.64295268742713   11.70557810715337
W   9.84406428230753   9.59592134248545   11.95981618590228
W   13.83225110769559   9.96417560814902   13.21725238402611
W   9.94525118758331   11.37233679959398   13.80703713277816
W   13.96034990210145   12.52093239399666   13.72072028421075
W   10.06736084171729   13.69813026687233   12.73654111929554
W   14.03413384106716   13.77089770935281   11.44176049425468
W   10.06317122545504   13.38909165557974   10.21682050630398
W   13.95271244635783   12.00859733208441   9.53054873029357
W   9.93732371252197   10.87415557283864   9.73776870836641
W   13.82798933017402   9.64888674610209   10.63599174468653
B   8.12721768570168   12.53427841699503   13.05337598440943
B   15.66594025768308   12.76242719847805   12.42451314704985
B   8.17386727461428   13.40123499740079   11.49793324056249
B   15.66266238733763   12.55514998138969   10.72414371322207
B   8.12236894972586   12.18625636820181   10.19646234318505
B   15.57491673798839   10.88123397172837   10.38974086474713
B   8.02213656678633   10.57673320570530   10.94076471308841
B   15.52844637121754   10.06169286626979   11.89253339633362
B   8.02612260807309   10.79192944345406   12.71680646147420
B   15.57967183546055   11.21880538611219   13.15360312695023
B   11.53880118184296   9.47729072027677   10.46808914651909
B   12.11177224195872   9.11177202216482   12.01460137321803
B   11.54403622086870   9.83915668654743   13.42954969935451
B   12.20269733153706   11.17696464333671   14.22748129439647
B   11.69404279851662   12.77022361897522   13.99115035643330
B   12.35291066673227   13.92762667520412   12.95289448297012
B   11.78738097839330   14.22768776527856   11.39000108005222
B   12.34786088679249   13.55858635238052   9.94377563223417
B   11.68545763475342   12.18614557133889   9.21633246416271
B   12.19399478619652   10.58271960887999   9.36899223472366
B   7.26780482666581   11.93671632163340   11.67801867599188
B   9.27489863501458   11.81852467555049   11.68863578343427
N   9.09887218522184   7.46677734884015   12.22604592657503
H   8.96958402582219   7.25552711167565   13.21901864105290
H   8.19081219424490   7.35480285447097   11.76581591226708
H   9.73949515341363   6.76824878753468   11.83802972942552
37
F:    ...  E:  0.0520174000000111
W   12.11998259948512   11.63840773832650   11.70519207554751
W   9.85908568252774   9.62323395800025   11.91673970914661
W   13.82836211883949   9.94764508371746   13.20518792598479
W   9.94529771979616   11.36295737677581   13.79549454536766
W   13.96280419295964   12.49512252336412   13.73022987331128
W   10.07066298173129   13.69533620527366   12.75264471756851
W   14.03820086048839   13.77827207699471   11.46705462197210
W   10.07072653646261   13.41940791301777   10.22570151241482
W   13.96342318314105   12.03148082199955   9.53888932808264
W   9.94497562185254   10.91625579333993   9.70956893255653
W   13.83189928418175   9.66158945514297   10.61091511298487
B   8.12560124005048   12.53026789698986   13.05209047025559
B   15.66766695178417   12.75535533137839   12.43855907391666
B   8.17937462760834   13.41495027868216   11.50672011567672
B   15.66841880956902   12.57196709684486   10.73861548027800
B   8.12401585166531   12.21478881604515   10.18992132975565
B   15.58047327235157   10.89726510842545   10.40661923319611
B   8.03054463734330   10.59697453680963   10.91686486648725
B   15.52502719580772   10.03317634433878   11.88501431447220
B   8.03010771567205   10.79241867634100   12.69335800181592
B   15.57972656523031   11.19750853145963   13.13899421175409
B   11.54605122896849   9.50265840041530   10.43177791493383
B   12.11733216313852   9.12542355738383   11.97818317316233
B   11.54632209565647   9.83551262303624   13.40120560230442
B   12.19967076439045   11.15512835222086   14.23150185857468
B   11.69500852784517   12.75187222506242   14.00276105612738
B   12.35755021865343   13.91425457367557   12.97355107434085
B   11.79186528746501   14.23589331200118   11.41449756230986
B   12.35826410785913   13.58468252032471   9.96290919554906
B   11.69641095671512   12.22518531925402   9.21611085483658
B   12.20216725324876   10.61765271557371   9.34702008115955
B   7.27269682294778   11.94671079431067   11.66873940904432
B   9.27345078200126   11.83907899985358   11.67675605999799
N   9.27341306023910   7.50470280418815   12.37600974360314
H   9.29486361436534   7.54226941137669   13.39303883704522
H   8.31975591552762   7.28398983716459   12.07470353788144
H   9.90286153614178   6.75495947940997   12.06987957212978
37
F:    ...  E:  0.425739850000014
W   12.12098872877581   11.66249454175990   11.70971175968880
W   9.87741689205833   9.63058274454492   11.88398686756750
W   13.82588578680951   9.93323690608995   13.19811793160696
W   9.94547251897630   11.34688002600260   13.79817482796715
W   13.96555530672836   12.47246231440341   13.74160574129336
W   10.07501930704420   13.67927323335016   12.77194188599562
W   14.03700382165114   13.77612304323240   11.48838013954366
W   10.07793955636194   13.42848122766816   10.23818437115303
W   13.96858996680301   12.04484940057589   9.54720014732944
W   9.94998733529305   10.94020792181343   9.69082028003913
W   13.83271142485801   9.66838748467030   10.59495445251482
B   8.12698205143800   12.51758394855681   13.05442014886373
B   15.66738239312817   12.74684739308404   12.45074183032023
B   8.19116924239067   13.41151815483733   11.51733000197236
B   15.67029513960392   12.58095093305129   10.75036336626870
B   8.13171269759861   12.22220714981455   10.19481948975152
B   15.58364769993213   10.90500590156839   10.41969067427699
B   8.04199360343306   10.59936649865953   10.91056402125660
B   15.52103062345302   10.00816565538313   11.87847033825569
B   8.03481117727187   10.78274698049352   12.68371589550760
B   15.57946016139699   11.17798031755412   13.12652749635990
B   11.55187001781496   9.52288696578388   10.41886807377408
B   12.12773140051241   9.13235689587047   11.95785263443799
B   11.55163272051806   9.83146871689915   13.38229859183577
B   12.19872621036138   11.13462836472116   14.23222159314923
B   11.69610271234112   12.73448394145561   14.02271418342088
B   12.35834058702818   13.90217949977718   12.99680414465274
B   11.79441119933382   14.23509949321839   11.43642044448069
B   12.36110438774915   13.60127834769356   9.97398766851768
B   11.70254223515651   12.24868489880694   9.21174532131761
B   12.20553545291251   10.64204123549951   9.34804402737107
B   7.28033539248712   11.94383117481739   11.66780775599543
B   9.28409230557348   11.83477608731350   11.67787047120021
N   9.42845165693371   7.54372665682968   12.45703522351750
H   9.62137430008505   7.98744168730431   13.38604253619795
H   8.45531150955409   7.33693987125330   12.27846328908539
H   9.99263119922668   6.66297439213998   12.40356201971431
37
F:    ...  E:  1.82662175000002
W   12.12402551807027   11.75511169615616   11.72814311635465
W   9.79933389062291   9.47433314121677   12.00155351941783
W   13.81859876074774   9.94882952570069   13.19538235241610
W   9.94554820970319   11.36018153980049   13.82921454235268
W   13.97842634033579   12.49663214718523   13.74931023481650
W   10.07542712122087   13.65410817782547   12.76724235271632
W   14.03041794699210   13.76654159158696   11.46971227927856
W   10.08022031933109   13.38505860673929   10.23191146798868
W   13.95313148678242   12.02208914569388   9.54613677277987
W   9.94069046183817   10.90307625306380   9.72799320864310
W   13.80778660939783   9.66742856286240   10.63395773114005
B   8.12768435298482   12.51409598577323   13.05806858652040
B   15.66728312373099   12.76012531683255   12.44649356742582
B   8.19368189072633   13.39064692752607   11.51198919591757
B   15.66073160395042   12.56988003504886   10.74151310666485
B   8.13844832122681   12.18739650702628   10.21003364424942
B   15.57858997809851   10.89145901730568   10.41198449909660
B   8.06218865623386   10.57602693222698   10.93619808738591
B   15.52507167465708   10.03244413605224   11.88329139161680
B   8.03807998885185   10.77253417941395   12.71176782313967
B   15.58000087181261   11.19636026640606   13.13667407660166
B   11.50303326803156   9.51890559184046   10.48958361662591
B   12.10374960330603   9.08053053868850   12.00025373114010
B   11.54339687477778   9.84154007897023   13.39277117896947
B   12.20562479361963   11.14838326071976   14.22219699378167
B   11.70933102158974   12.75228445476025   14.03008780287233
B   12.36993118994650   13.90177068079444   12.98202506134205
B   11.79361872822663   14.22710026940691   11.41974975455662
B   12.35142483995695   13.57796609719407   9.95217283282656
B   11.68612574508194   12.20737977635903   9.20156160401959
B   12.18188985998169   10.60838756788836   9.38507630094733
B   7.28764859743687   11.93114853370361   11.68083968884327
B   9.31429989335385   11.75485641970126   11.68974297763726
N   9.21793456551382   7.48275358745702   12.12481088575133
H   9.74972427319091   8.24785015166818   13.37220743980134
H   8.24633559985034   7.23448598545937   11.90365756319980
H   9.80961561783244   6.66085274910963   12.22816755491846
37
F:    ...  E:  1.03602678999999
W   12.11121819734938   11.77347546455353   11.71642622882766
W   9.75469392277588   9.34103587051984   12.07551702561362
W   13.81267920095467   9.96121545221425   13.19500747566034
W   9.94233939878129   11.37879669680441   13.85481189986578
W   13.97986778685007   12.50697731484120   13.74432790393465
W   10.07470571056999   13.64847863453146   12.77486747939360
W   14.02991083732749   13.76428653856559   11.46558617481148
W   10.07828926272937   13.36164431123393   10.21902247818195
W   13.94801947318138   12.01899682567099   9.54816294223384
W   9.93558498704124   10.89663927553950   9.74154842655625
W   13.79619906753372   9.65977420096227   10.64542035247164
B   8.13804218289352   12.50558923617331   13.05896948971758
B   15.67264746059769   12.76106121116492   12.44436861009737
B   8.20183739975661   13.37135676383993   11.51794387203246
B   15.66217905598320   12.56474622625671   10.73907782303995
B   8.14488670772805   12.17535742053631   10.22638667829776
B   15.57284542623049   10.88373166518246   10.40503083099139
B   8.08756630721124   10.55602710103977   10.94835252339669
B   15.52233495265919   10.03373572956784   11.88031443350012
B   8.07179555747905   10.77462829251490   12.74379451201897
B   15.58462867039666   11.20115267673695   13.13412849402139
B   11.47861324638125   9.52188720301287   10.53784443519688
B   12.10390918833999   9.07046660493560   12.02939062667852
B   11.54700961925109   9.90772164862419   13.37373471915720
B   12.21751181589569   11.18338353344750   14.23706612629640
B   11.70708707345189   12.78369174596753   14.05319971785819
B   12.36532066233169   13.91600031050199   12.98270842398836
B   11.78836493135667   14.21385193574316   11.41437076953252
B   12.34863608250216   13.57557455985356   9.93990334699915
B   11.68750439375805   12.20307930022490   9.17911981793476
B   12.17398942275114   10.60233525997761   9.42324464816391
B   7.30164693875978   11.90262301053010   11.68923794231762
B   9.36598164946976   11.70067382425191   11.72488107773632
N   9.09172978944430   7.46761852250418   11.89420428401001
H   10.06508038783305   8.39881814068209   13.54127866717251
H   8.16761139401657   7.20416182903223   11.52859795372446
H   9.55292499600030   6.65097446764018   12.28650567237323
37
F:    ...  E:  0.718570180000029
W   12.12194749595743   11.77742534792753   11.72716015844099
W   9.74787921928203   9.36290465336433   12.04038349875704
W   13.77989776482598   9.93349966699366   13.19349714467686
W   9.93017128004241   11.36298896075125   13.83994293591237
W   13.96296524223429   12.47474363560270   13.74170762196721
W   10.07135585174688   13.65634716635957   12.78161166870146
W   14.02349300988468   13.76200198947573   11.47032754443565
W   10.08758579831362   13.37698356500908   10.22191396450187
W   13.95100248434848   12.03409181307072   9.54774730375253
W   9.93428694930410   10.90396777297860   9.72814745368412
W   13.79452309148315   9.66897628609122   10.62971650426982
B   8.14240881757415   12.50887467675041   13.05822548019528
B   15.66133073375766   12.74893085824864   12.45340870051090
B   8.21218545417737   13.37226026818998   11.52050592354795
B   15.66319120671349   12.57357896137930   10.74554186981186
B   8.15395805465250   12.17838555619195   10.22439025212410
B   15.56864615161429   10.89333959466375   10.42023515357053
B   8.09563652103806   10.57043341976281   10.94020616635973
B   15.50045085411661   10.01469476187314   11.88370079272687
B   8.06473538519928   10.78114258710075   12.72729412064586
B   15.56496380295506   11.17795703100682   13.13173583508770
B   11.48102082251905   9.53829668960136   10.50897307960606
B   12.11486587091482   9.12122467100876   11.99370684578145
B   11.44395321545652   9.68664534298498   13.45780888785688
B   12.16248742799507   11.09779193416869   14.19691564572360
B   11.69698796501376   12.72609535338830   14.02595743810922
B   12.35735128924220   13.88862629292481   12.98904912118412
B   11.78919770701342   14.21165855224192   11.42101545975211
B   12.34113661142464   13.59695498220487   9.93043651616496
B   11.68908488657079   12.21687240612104   9.17421348010808
B   12.18043265675520   10.62201307028303   9.40792405963882
B   7.30097693101593   11.91177505935201   11.68439897653293
B   9.38872529285304   11.71306018451871   11.71290126410256
N   9.08244116334065   7.49678931302709   11.96315900595360
H   10.45066509058304   8.67156764794694   13.63239014468492
H   8.25132578804557   7.17495523653602   11.44089055005732
H   9.47936917131325   6.71528044049876   12.47045248041161
37
F:    ...  E:  0.562060510000038
W   12.12521442320426   11.76143839286447   11.69236911131560
W   9.74568836780067   9.43107673565534   11.91775172751103
W   13.76792892172213   9.90679860934718   13.19380139243439
W   9.91553659272391   11.30066146481584   13.76484494240524
W   13.93956072542913   12.43255247637588   13.72023206457557
W   10.07840308588646   13.64885213854029   12.77620667776679
W   14.03178053725360   13.77082141734452   11.46284931967724
W   10.09565147935555   13.39809096102859   10.22116089465914
W   13.96937920246574   12.04901479060265   9.53896342870937
W   9.91759927569710   10.92634505948851   9.70297538214325
W   13.79796829075707   9.67600622173479   10.62185408112305
B   8.13657351610250   12.52099374073032   13.05735075717271
B   15.64829437410602   12.73603428900548   12.45251179494976
B   8.21757073253999   13.39281963234544   11.52523632235941
B   15.67518295754041   12.58016794375187   10.74709720552791
B   8.13824202573294   12.21459517076675   10.21293383394972
B   15.56518772418077   10.89893397008596   10.42573574116408
B   8.02441656258833   10.59754316200269   10.89137252158915
B   15.49478552569023   10.00046550388575   11.88177986968843
B   8.01856300273429   10.78283943232817   12.68944571718723
B   15.56072744903862   11.15723890233824   13.12634093692575
B   11.49998499354854   9.58174751636929   10.47418399899940
B   12.07342086709805   9.19153827676264   11.99328953272713
B   11.35245398453710   9.49171317890979   13.56198627774400
B   12.11589773645422   11.01797104089768   14.13771056763176
B   11.68044157228076   12.65278212377594   13.99067247710979
B   12.35248181779247   13.84828029356273   12.98508470214096
B   11.79602379176973   14.21761590106017   11.41877200042842
B   12.35197980350853   13.63076382562371   9.91858257983625
B   11.70618309599341   12.24443061279263   9.18026320643206
B   12.19823278730392   10.65196923534157   9.38798487298932
B   7.28138837817429   11.94796208506559   11.67479608070757
B   9.33087198824867   11.76888031706739   11.68494197281178
N   9.12233997409300   7.54347534934879   11.98264759924602
H   10.65305496857870   8.54135985677730   14.01266041720998
H   8.33408063556759   7.18304120018246   11.45273132498935
H   9.53145688984933   6.82730495157464   12.55996754866013
37
F:    ...  E:  0.183914979999997
W   12.11583408038269   11.74784525650723   11.66977650937498
W   9.76321725437735   9.46800474234723   11.87453148987652
W   13.77598611127928   9.89712154615003   13.18157600929502
W   9.91994727322138   11.28106435867676   13.74266870624508
W   13.93309797303502   12.41165644851683   13.71680963296707
W   10.08435530475526   13.63869605691637   12.75579338401975
W   14.04307427997860   13.77822292724199   11.47348331632475
W   10.09433470072489   13.42230427081719   10.22938130954740
W   13.98140071000723   12.06444297708418   9.53745494051276
W   9.92588117136759   10.96217186253980   9.69395819259277
W   13.79953899506395   9.68754012680013   10.60528735862323
B   8.13119344625905   12.51690304402737   13.04412351842791
B   15.64600714816026   12.73104649389947   12.45501976426566
B   8.19190955105151   13.41924097956112   11.52455637381911
B   15.68404604295966   12.58695392938531   10.75127893773441
B   8.11764658500529   12.24630272724266   10.19550963239633
B   15.56919518454806   10.90712432524758   10.42679541161298
B   8.00466148290514   10.61470054412015   10.87171990525606
B   15.50783167996771   9.98847471865854   11.87100796638523
B   8.00395001046069   10.78291182165141   12.67548904977462
B   15.57363338384542   11.14613638321045   13.11511442499394
B   11.51041653214432   9.59863006198412   10.45666786980698
B   12.03917808776233   9.20505278926739   12.01013374886366
B   11.35535161066836   9.41629474085036   13.61345651881908
B   12.10148053293561   10.99439894413368   14.13571209511710
B   11.67772856922688   12.64497409754964   13.98612724029631
B   12.35777726997873   13.83626257392749   12.98237107002634
B   11.81115860513989   14.24530103967073   11.42305204241725
B   12.37477242168561   13.64383361524314   9.93414311607409
B   11.71763575028828   12.27606857906196   9.17759281671409
B   12.19979305043269   10.67779676135873   9.37031726726634
B   7.27218300114442   11.95824326581532   11.66251154865014
B   9.28735408984492   11.79455890593294   11.67282832753504
N   9.18605468023173   7.58163771280851   12.05241787284927
H   10.91174943312055   8.45803065018062   14.23345610025704
H   8.50780527531419   7.14492196583501   11.44087992256709
H   9.47790526822642   6.96194216475106   12.79743436785552
37
F:    ...  E:  0.0680468400000223
W   12.08618627047717   11.79505050464464   11.64289236628429
W   9.79695740073280   9.47713925928302   11.89295273212115
W   13.80607176262660   9.86453366736245   13.21301455775962
W   9.95191705552106   11.27833943566662   13.74246251476542
W   13.92168174082574   12.40773264955145   13.71232261132570
W   10.08606453059314   13.65152007510009   12.77687447861370
W   14.04258962237517   13.78816871883484   11.49271196568826
W   10.08162087741915   13.43791048161825   10.22650141055518
W   13.97450790040878   12.06023656726629   9.54325659236097
W   9.93147356825589   10.96024173651895   9.68901311540136
W   13.78592836826950   9.68678882813093   10.59191703360105
B   8.14312464330904   12.50150359188283   13.04570178334284
B   15.64439324292849   12.72569292032607   12.46042957055731
B   8.20394118472555   13.41563750482277   11.53058356238294
B   15.66866615171413   12.58185354486427   10.76020499715844
B   8.12665865109615   12.25280643724769   10.18819595661192
B   15.56395043198941   10.90085770774652   10.43460881337857
B   8.03010610275238   10.61929820568796   10.86030977593575
B   15.48402639889842   9.97194822760981   11.86663506923657
B   8.03694655486001   10.79120284945519   12.65090381683557
B   15.55717327258345   11.14284864363464   13.10978859060051
B   11.52028804419885   9.61511865152686   10.45888416653815
B   12.06641027906130   9.26628414385767   12.01158720331657
B   11.44307009954861   9.43832957091472   13.64053553158859
B   12.13385217320426   11.01619077592738   14.12811084647710
B   11.68979118951493   12.65607975848610   13.99638567316764
B   12.35077766307679   13.86846356267706   12.99909145407371
B   11.79857636539650   14.25858233664074   11.43650361922889
B   12.37510996418089   13.62967712920994   9.96513638710694
B   11.70540346334976   12.29156924148987   9.16744417503343
B   12.18916023868915   10.68655922822294   9.34513078428791
B   7.27566559520766   11.95721042285130   11.65430868222472
B   9.30826792569680   11.81605251741848   11.66600664594985
N   9.22688659054243   7.60950078375388   12.13197119925122
H   11.20260783829369   8.46637663102599   14.35988842493554
H   8.69908969244515   7.08065661677908   11.44893352937217
H   9.35216288191279   7.08281077323266   12.99359945567994
37
F:    ...  E:  -0.0425581299999749
W   12.07487871788026   11.82766051139420   11.62693541708900
W   9.81448884041394   9.47723086195052   11.92033069246015
W   13.82591507930266   9.85665082410199   13.23711904894703
W   9.96518932073396   11.27883860321543   13.74929548809469
W   13.93203290749121   12.41925225008401   13.71181294466934
W   10.08750391840558   13.65771262511668   12.78849664555108
W   14.04868965605012   13.79837559860617   11.50043882409394
W   10.08192235458607   13.44526256581753   10.22831279896673
W   13.97330140527343   12.06488232622345   9.54793307199938
W   9.94345460498593   10.96160144618809   9.70157608407006
W   13.78880356096191   9.69067229563391   10.59065579755482
B   8.14823031800128   12.49619905627526   13.05069885367109
B   15.65153105267902   12.72528586212162   12.45843248781386
B   8.20860715477059   13.41372661725618   11.53794222216545
B   15.66770387607164   12.58647048962368   10.76123423109367
B   8.13281716619522   12.25331075011118   10.18888081472399
B   15.56419799204781   10.90615123393325   10.44355157885448
B   8.05287086119169   10.61932544122483   10.86367281035176
B   15.48375730263775   9.96469958718769   11.86770414716058
B   8.05117599287080   10.78843700353778   12.65480499601431
B   15.56082701945199   11.14458563053443   13.10572099738877
B   11.52412832865650   9.62219039008758   10.46879464301360
B   12.08883318991909   9.29666647242787   12.01471493958233
B   11.51851470933128   9.46599054253286   13.67464063990224
B   12.16058836682062   11.05984182729147   14.11990121246999
B   11.69719086806382   12.67530222234545   14.00167703305262
B   12.35568460437958   13.88317130224637   13.00283040553517
B   11.79842830867102   14.27374765674343   11.44188820308081
B   12.37545991647187   13.64169209086246   9.97267582384212
B   11.70775600981397   12.30703824843338   9.16445953443135
B   12.18979823096087   10.69641135449303   9.34569012615470
B   7.28060883889838   11.94990109701088   11.65605565559422
B   9.31434413779392   11.82094982717080   11.67035644239063
N   9.24440424217441   7.62394048252215   12.20921598988063
H   11.55739317543677   8.52766680420091   14.46897683582188
H   8.86266933523995   7.00323278134584   11.49492079817676
H   9.21192588534378   7.18132900382532   13.12825986069340
