37
F:    ...  E:  0
W   12.19134172585323   11.76282971098520   11.73633354082456
W   10.15112179100975   9.52240419060422   12.09443056702325
W   14.15752120705510   10.21977771162805   13.18440052955348
W   10.14875380045730   11.25493029111384   13.94678060757090
W   14.01558820219988   12.80049352931091   13.64758578191257
W   9.97435112506673   13.55773775076124   12.87464498936182
W   13.84503738811438   14.06143818572794   11.37449975905240
W   9.87021987293372   13.24022702987049   10.35242311219721
W   13.84867288438443   12.27983507428725   9.47209824350025
W   9.97783010557209   10.74565418251844   9.86790100976268
W   14.01884234140059   9.92914745201307   10.57664913514317
B   8.17115590275499   12.21076430091363   13.28868769918786
B   15.61572702280425   13.21842019842008   12.26552673000614
B   8.04876186840362   13.07294706990687   11.72839181680114
B   15.54804676790623   13.01904967407934   10.56830336300952
B   8.04988733316946   11.85454552706497   10.42607612948266
B   15.61965690331164   11.33784199330784   10.25993005221556
B   8.17363702024161   10.24065626201329   11.18212708788145
B   15.73262879785065   10.50118363212618   11.74710386993107
B   8.24259305674639   10.46034902879990   12.95144356169193
B   15.73077272809108   11.67592773512338   12.99319212815939
B   11.76084359532830   9.52774247573453   10.52613242173829
B   12.44655058615434   9.22621548149338   12.04144768901986
B   11.88532470370021   9.89707667748633   13.48224406023501
B   12.44316381840987   11.29084259464679   14.24915758732597
B   11.75659626043057   12.82192208264704   14.04753834685538
B   12.23374931008663   14.03015647704729   12.97041463380109
B   11.55815060630850   14.26002238676663   11.44052779814619
B   12.11319232178026   13.65501999158745   9.96737444038929
B   11.56156922646095   12.22481261646181   9.26444929496430
B   12.23768088741907   10.68330640615399   9.39229192719088
B   7.31844130695118   11.52419320845190   11.95531427099765
B   9.28819036103588   11.62812990033947   11.86017864445980
N   14.84472936831077   8.64263270869103   14.66508384208300
H   15.81756862994465   8.81846370801513   14.92879784760209
H   14.28165947373919   8.63361046903973   15.51995511178578
H   14.79826721616422   7.70898308256388   14.24767953890380
37
F:    ...  E:  0.0328649100000007
W   12.18919832826464   11.77804644024572   11.73286159695667
W   10.15863355963581   9.52539692075276   12.09278058052354
W   14.15541225650316   10.23890681097074   13.18380378017820
W   10.14896096784796   11.25954614165162   13.94484763087807
W   14.01381345587239   12.81957450622199   13.63991775330672
W   9.96881560097004   13.55820580141105   12.87245696725756
W   13.83452454315140   14.08496108568369   11.37041595852783
W   9.86644176153517   13.23824428834751   10.34796593801960
W   13.85204274533598   12.29019774569570   9.47450187384604
W   9.98130045978511   10.74537360458383   9.86388872380403
W   14.02455624798631   9.94444802403373   10.57087109713754
B   8.16739701999410   12.20495019349887   13.28413171902904
B   15.60971421650516   13.24531177002321   12.25703734299207
B   8.04644792029676   13.06792324110790   11.72502336115953
B   15.54290005810012   13.05813919836252   10.55983398719141
B   8.04952896418172   11.84901282572267   10.42194207648780
B   15.62453918307923   11.36736887635218   10.29021660029180
B   8.17848924880573   10.23654529630130   11.17665873018737
B   15.73944092976310   10.49131244937023   11.75350658161886
B   8.24602303935925   10.45523077210902   12.94795817410383
B   15.73064282347282   11.69684772257853   12.97105651666500
B   11.76874934022289   9.53544358180813   10.52638963371023
B   12.45327911111960   9.24236263287670   12.04031725113999
B   11.88762080829599   9.90774039640481   13.48134505513691
B   12.44342672040273   11.30301726192081   14.24723515295486
B   11.75553117302039   12.83035832263070   14.04566717095998
B   12.22611976620480   14.03912523359041   12.96706420374928
B   11.54883600903648   14.26659775169616   11.43689325796613
B   12.10973306546423   13.66093007891600   9.96522865114301
B   11.56339017851075   12.22981815781117   9.26035670233648
B   12.23947513639663   10.68795245821945   9.38716105671088
B   7.31837724251730   11.51678949431159   11.95049376054452
B   9.28875252702618   11.62567203771289   11.85723699650402
N   14.89736335811791   8.63026386601843   14.58105793708254
H   15.78927541186149   8.90864194083991   15.01085339323084
H   14.25675723672150   8.36590864099584   15.34169278625132
H   15.10259460975817   7.78870314287386   13.99376549797462
37
F:    ...  E:  0.0669216800000072
W   12.18339107194273   11.79061143191464   11.73218179713244
W   10.15949691050239   9.52884944826431   12.08806601799856
W   14.14428426012570   10.25044395173420   13.18855275485041
W   10.14373909431590   11.26512916153856   13.94185421107376
W   14.01154325204730   12.82930608713743   13.63311647555123
W   9.96270522480444   13.55932395521277   12.87071598806815
W   13.82477049976188   14.10380535354362   11.37100860814386
W   9.86454807661353   13.23840359217008   10.34281205367211
W   13.85455421317534   12.29504100716599   9.47886878317807
W   9.98245562053073   10.74717088503387   9.85836622470456
W   14.02665582120155   9.95654787608691   10.56864470095330
B   8.16017807167339   12.20251748521034   13.27730762583553
B   15.60401444671800   13.25593157359676   12.24603712403741
B   8.04426280591738   13.06689145980578   11.71940360034965
B   15.53644252606227   13.09557563419881   10.54871058412998
B   8.04854360613109   11.84782579198799   10.41522777233600
B   15.62715556725515   11.39584642900753   10.33753143408570
B   8.17926810222760   10.23658318007043   11.16794562567426
B   15.73846442059443   10.46763387914150   11.76658610213415
B   8.24581718282445   10.45357170523147   12.94125745594656
B   15.72622791339558   11.70218938811027   12.95158281362119
B   11.77231148640174   9.54178112120295   10.52574628684695
B   12.45277306480355   9.25490554109074   12.03941506685448
B   11.88153304382851   9.91463741847144   13.48099263247543
B   12.43605003234331   11.31124963686863   14.24849785247564
B   11.75242456437745   12.83797977258152   14.04554436105667
B   12.21793067178049   14.04744740203209   12.96683061187801
B   11.54134690837128   14.27115461060964   11.43519203294283
B   12.10947686442198   13.66477903828685   9.96590185063648
B   11.56556206027375   12.23494739724493   9.25701738683110
B   12.23851112917173   10.69092150207367   9.38237077355718
B   7.31592184931609   11.51405976604330   11.94272998476086
B   9.28727713127898   11.62637054546976   11.85217075129107
N   14.97495872554579   8.60729887485439   14.49799035908829
H   15.72890389214191   8.95337285909345   15.09521682190887
H   14.31736327753337   8.10575877103046   15.10394189347864
H   15.40412518746639   7.97764251334161   13.78973508285645
37
F:    ...  E:  0.221577589999981
W   12.17417683511443   11.80374907041034   11.72976981422165
W   10.15771720323740   9.52749487567800   12.07881059595863
W   14.11495084015656   10.25794378423954   13.20062533076757
W   10.13642332334042   11.26830131100433   13.93959628586489
W   14.01366426733056   12.82943826215078   13.62467075328766
W   9.95951243082279   13.55612426498898   12.87154204437986
W   13.81735227054563   14.11871579966653   11.37784869953545
W   9.86658453473054   13.23823134043293   10.33844425779040
W   13.86226004211421   12.28820227362394   9.48857945125731
W   9.98412894889228   10.74951304877810   9.85110220239078
W   14.02752141185219   9.96215894000081   10.56351934675159
B   8.15370997182594   12.19776632534303   13.27063239371633
B   15.60168071026145   13.24119799176851   12.22401043771964
B   8.04620528313387   13.06521902846420   11.71563178109624
B   15.52937760720486   13.13582718042773   10.53029003898169
B   8.04965305937324   11.84588733840827   10.40902308815376
B   15.63213196104578   11.43240594919737   10.43933082075127
B   8.18002149263668   10.23626165949087   11.15707079946679
B   15.73114397513752   10.40943155788212   11.78998549373966
B   8.24774225973642   10.44999061477768   12.93391923141350
B   15.71942094814921   11.68479883030999   12.92280726984592
B   11.77405939107360   9.54431303108643   10.52236258580276
B   12.44847973174269   9.26550018337923   12.03518771382569
B   11.86616513015793   9.91562026802271   13.47900147968572
B   12.41880472411069   11.31331324309693   14.25307641969656
B   11.75138440522973   12.84243997077229   14.04696524932091
B   12.21300663579034   14.05156633834024   12.96975509367599
B   11.53783264444548   14.27265333619592   11.43587186179298
B   12.11690138383428   13.66401220795789   9.97003795246617
B   11.57237310305629   12.23932298415917   9.25358713597673
B   12.23584141028608   10.68922059542176   9.37426736672198
B   7.31557825339281   11.51108026491475   11.93441640507491
B   9.28764283614194   11.62475588222238   11.84596787951516
N   15.05418413595509   8.62865055178909   14.39312815269984
H   15.67214905590987   8.94005532412747   15.17313705725919
H   14.46332681689893   7.86591208191493   14.80142433731927
H   15.64267171160088   8.33745497068906   13.58869413232631
37
F:    ...  E:  0.99389893
W   12.16232017277528   11.82328428521698   11.71576227462539
W   10.14591920836416   9.50784169785080   12.07218726566373
W   14.05057821729828   10.26303319722542   13.25339272232155
W   10.12556985687708   11.26084447480417   13.95114925765350
W   14.02505417760133   12.81084839208000   13.63404385402740
W   9.97737570656461   13.53918440310047   12.87361288343059
W   13.83586506547080   14.09217376557076   11.39108440923620
W   9.88883285110214   13.22958898717949   10.33832697536773
W   13.89673129221489   12.22511359621744   9.52331443435506
W   9.99090592970482   10.74866130782832   9.85054772679345
W   14.01828473700452   9.91801439667541   10.56739267974566
B   8.16062056102965   12.19032523621025   13.27436273731548
B   15.61769082750853   13.17804621270332   12.22275353177401
B   8.06621698720662   13.06068132709376   11.72170312952710
B   15.54751110886783   13.09818423558389   10.54229063067070
B   8.05853447686364   11.84174158782882   10.41406528061920
B   15.65591343892133   11.40678584606693   10.63434779565342
B   8.18688783712129   10.23374268236989   11.15455887166588
B   15.69478052039473   10.26266913376855   11.86176950474096
B   8.25694746520946   10.44234266089087   12.93788709641603
B   15.70549965717582   11.61716627794673   12.88196756286830
B   11.76438202434496   9.53048357186764   10.51825251538442
B   12.42836306060231   9.26625460707870   12.03565812539346
B   11.82573410853490   9.90118657735369   13.48290066487155
B   12.36824054908821   11.30438103841815   14.27787237392262
B   11.75543247659444   12.84473311662314   14.05175184453418
B   12.22803659523192   14.03970485219576   12.97501262648148
B   11.56310093745238   14.26577666105644   11.43665641903361
B   12.14820503313656   13.64534321317263   9.97255836318704
B   11.60102501855111   12.22672430021449   9.25023802442028
B   12.23869754218254   10.66200250893522   9.36973891726917
B   7.32744460664227   11.51016021497660   11.93602274981908
B   9.29642718703999   11.61462103468442   11.84746539909347
N   15.03359851431192   8.75169680889661   14.37036932654673
H   15.76448334932300   8.93461312614389   15.10438462923087
H   14.51942549350731   7.90475520313942   14.62475653932087
H   15.51406336029247   8.88752789492182   13.34396756779595
37
F:    ...  E:  1.07560419999999
W   12.16909211672072   11.81951890886605   11.72194481293053
W   10.14708756079459   9.50572940247756   12.07969418465041
W   14.09822916981763   10.16483344121113   13.34316196236766
W   10.13174701071107   11.25537070857116   13.94980439541214
W   14.01763406150015   12.80160666353464   13.63967488643397
W   9.97985985788489   13.53996271377270   12.87472485436107
W   13.83294058017497   14.08365945815037   11.39351493615487
W   9.89202543292522   13.22221646888024   10.34535815819401
W   13.89607740709341   12.23050200637313   9.52253347529162
W   9.98816801802888   10.74789422820481   9.85358037025457
W   13.99348751670623   9.92111339031898   10.56433034964320
B   8.16730150445639   12.19053542773752   13.27652876699303
B   15.60991562412442   13.17897022002487   12.23966976187713
B   8.06477878977172   13.06003777659572   11.72220649298268
B   15.55224612191787   13.06641547087566   10.55626689278234
B   8.05491728524350   11.84242990411798   10.41510156229016
B   15.65195806170325   11.33754429348264   10.57206171421844
B   8.18846873321734   10.23106257931957   11.15800938984941
B   15.69330543338815   10.23819057361770   11.94220365707578
B   8.25418368891393   10.44265550373571   12.94163727728909
B   15.68574645201222   11.62967147868767   12.92135281422384
B   11.76193366219030   9.53020472273002   10.52325279433678
B   12.44034105840284   9.27460724297401   12.04461687344732
B   11.83622012564050   9.90416103689659   13.48498461563596
B   12.38090556593857   11.30424701212010   14.27582794426436
B   11.75312771569904   12.83860253520240   14.05462707875861
B   12.22946099624956   14.03630866128963   12.97771366327454
B   11.56841747128882   14.26701349144662   11.43832902343223
B   12.14121735370867   13.64809383360602   9.97105360208925
B   11.60027985711928   12.22743686760948   9.24934004368144
B   12.23564836444275   10.65944250358559   9.37380845630731
B   7.33068970796632   11.51108085777121   11.93976496595017
B   9.29700383843782   11.61341919284734   11.85134437874399
N   14.91446884103219   8.73952175807017   14.53221543754674
H   15.79420092311775   8.83134844468845   15.04802932887342
H   14.37307657378009   7.97175987048796   14.95862267917157
H   15.56782326382589   9.09498319632001   12.91957586691198
37
F:    ...  E:  0.0444987699999615
W   12.17045669285942   11.82484776293269   11.72820772266328
W   10.13762875271282   9.50740658624432   12.09350258396648
W   14.11400038734242   10.10721942215180   13.37370581168151
W   10.13251436434511   11.26022393226087   13.95428958366215
W   14.01608949471865   12.77826063337590   13.64593002898648
W   9.99320828373131   13.53923312212954   12.87319036797158
W   13.83454480518536   14.07379155050890   11.40082560468922
W   9.91047660009830   13.21593153923528   10.34451189138749
W   13.89536558137283   12.19360253587595   9.53438883804219
W   9.98776472991578   10.74317239699276   9.85483165408370
W   13.99243354438072   9.89767489983501   10.53461768026041
B   8.16386092489542   12.19325089909153   13.27719972891502
B   15.61061837125254   13.18002729143600   12.25928008614820
B   8.07598779906726   13.06248790705812   11.71930245942241
B   15.55198960265135   13.08738987415368   10.56872311321808
B   8.05864410688952   11.84598258193197   10.41700481346374
B   15.65491258043162   11.37980754335658   10.62676024057650
B   8.18974275625025   10.23340335363484   11.16024916439931
B   15.71942366158223   10.27895138027526   11.89460831341092
B   8.25273041259580   10.44689700139082   12.94697726784578
B   15.65996858295059   11.60815763960177   12.92739042576574
B   11.74657500968894   9.51628628150693   10.53538153571336
B   12.45444575344629   9.28496970809928   12.05181607522431
B   11.83881343997283   9.89839082237961   13.49050255890825
B   12.40745044424435   11.28294460113121   14.25241869640116
B   11.76689902672437   12.83061074423090   14.05669373254978
B   12.23842348103292   14.03673584303377   12.97766069449960
B   11.58216183566173   14.26614063231434   11.43144693964775
B   12.16489615573205   13.62913734810159   9.97360184654084
B   11.61202576157903   12.21281715613733   9.25032150650168
B   12.22344845704373   10.63322815790862   9.37451395979764
B   7.33288690289114   11.51639708304625   11.94003610921754
B   9.30254900671310   11.61663866939321   11.85082489083255
N   14.76413834966744   8.80473296345042   14.72554991824404
H   15.68195024430616   8.87261388853333   15.19281071261754
H   14.28059990192630   7.99409205258636   15.11721278697736
H   15.74557135409199   9.09378037697021   12.37028898980581
37
F:    ...  E:  -0.16104322000001
W   12.15695602250199   11.83201410092395   11.68530525882515
W   10.13454390655252   9.50796745429715   12.08005930489057
W   14.08662183312037   10.10108122291641   13.39532770215081
W   10.11556421708066   11.27093348572717   13.95940986677861
W   14.02411621750565   12.75941098443923   13.62289625632953
W   9.97624987978251   13.54442053429546   12.88329717561563
W   13.82092652725938   14.09674351731447   11.40879552081121
W   9.91112090657024   13.21690892305462   10.35286590171116
W   13.90053328480928   12.20472145867439   9.52942728274603
W   9.99349705557873   10.74733229720006   9.86363381197951
W   13.99568243235464   9.93667043301423   10.53994510366677
B   8.14668724752863   12.19472398804428   13.27670160816540
B   15.60282117339142   13.13138707482237   12.21863935577627
B   8.06794651294508   13.06297407254226   11.72281174861420
B   15.53882516725541   13.12801016691655   10.53517815684502
B   8.06031763160557   11.84606400627442   10.41595589255709
B   15.65360500520648   11.45611079094287   10.74525321999650
B   8.18196066962749   10.23592398043895   11.15684917776536
B   15.74861064158453   10.21790617704081   11.90655578877982
B   8.24776763849946   10.44676803889482   12.94467682255975
B   15.65524811126351   11.57558867682271   12.90173473546358
B   11.76038191166380   9.51121298746671   10.51732142439227
B   12.46508572224485   9.30620627916785   12.04369678212528
B   11.81630156528266   9.92430523009698   13.46320763949071
B   12.40060488639179   11.29011936506174   14.24079952891784
B   11.75767660062459   12.83208118506411   14.04993326862943
B   12.23036548114334   14.03759898787009   12.97769665707102
B   11.56930028402995   14.27320986590921   11.43296785947269
B   12.16171984126063   13.63754456448075   9.97385745711871
B   11.60830215712043   12.22297681032706   9.24224189815848
B   12.22415628532749   10.64025496425560   9.35913516344267
B   7.32371151476391   11.51681302511093   11.93397386150154
B   9.29461186166668   11.61885974542630   11.85853150307423
N   14.77114879493514   8.81025023815007   14.71186793429772
H   15.57282051351874   8.95868893403985   15.34303546868777
H   14.40304004899803   7.86930707485616   14.86483003589821
H   16.10404498378176   9.09692643778284   12.18926193042110
37
F:    ...  E:  -0.354112009999994
W   12.15059798004940   11.84506598892948   11.66605214473651
W   10.13942775088805   9.50268996519859   12.06095709382686
W   14.09433931602181   10.09135642959972   13.38012671123558
W   10.11046337266618   11.26596116190942   13.95839665643481
W   14.02331605358924   12.74669045870808   13.59741921581284
W   9.96513053924363   13.53667020606233   12.89161405755480
W   13.80728862376917   14.12238926044245   11.41877462370551
W   9.90472873335694   13.21944223180404   10.35989153760712
W   13.89248520037253   12.22970700462349   9.52071667695785
W   9.99651660691608   10.75270166386117   9.86128369239227
W   14.00992227981206   9.97980299423882   10.54649696093365
B   8.13661921615245   12.18571909452572   13.27491235429577
B   15.59539410031813   13.09823623983791   12.16285753404718
B   8.06012446529416   13.06027729844949   11.72455792108950
B   15.52415762799895   13.17998822974387   10.49871403137454
B   8.05905132802291   11.84462910838380   10.41235304714227
B   15.64920115044538   11.53595639533670   10.82232775580455
B   8.17889728840929   10.23519329073038   11.14577727430239
B   15.79558829361812   10.19529294957239   11.88733022665954
B   8.24867303926375   10.44004172458800   12.93737611130057
B   15.65951382787664   11.56406188090221   12.87285155867581
B   11.77512486004010   9.52320044580715   10.50115329046455
B   12.47535817199255   9.31576590079854   12.02875125627687
B   11.81042452643545   9.93342843240368   13.43837422463958
B   12.40301637794119   11.28727508403194   14.22887457543770
B   11.75603756174017   12.82520149166351   14.04847749203221
B   12.22013745376403   14.04631990242879   12.98853693526665
B   11.55366072494042   14.28295173824185   11.44298231446553
B   12.15608399255581   13.65309018998161   9.98171358395668
B   11.60225698191167   12.24201931589263   9.23575044395291
B   12.23044107092291   10.66159900082432   9.34406027605249
B   7.31800902393796   11.51037814959626   11.92801065091042
B   9.28884455095838   11.61213058157897   11.85964731474041
N   14.78671862260398   8.77943055162370   14.65722528149759
H   15.43548224141044   8.95599611377469   15.43250249598992
H   14.57027862758444   7.78344709438538   14.60907189793480
H   16.43913006572123   9.19184273989848   12.03069122200677
37
F:    ...  E:  -0.421520649999991
W   12.14615490259150   11.85260186769930   11.65581669805829
W   10.15293644736206   9.49588325599530   12.04484665638586
W   14.12417764837011   10.07830885794266   13.34239296440267
W   10.12042046494496   11.25266090034411   13.95304255191530
W   14.02766433745978   12.74445148651999   13.57903312681782
W   9.96322787119815   13.52468490695538   12.90172360565966
W   13.79203443332504   14.14928163880985   11.42686226626465
W   9.89955722606219   13.22136761293228   10.36450488357793
W   13.88020779895441   12.26275554480728   9.51093018273642
W   10.00100819609663   10.75633440102658   9.85428123918441
W   14.02882984098670   10.01488596040820   10.54576824406499
B   8.13929959906907   12.17257908569929   13.27504728922605
B   15.59152883479537   13.10529461486256   12.13038138250545
B   8.06046987114340   13.05445563342863   11.72556829381061
B   15.50570080719567   13.23762607049847   10.47033968830180
B   8.06201318260768   11.84061750766624   10.40974466583618
B   15.63840089241668   11.60101111478126   10.82778828113792
B   8.18359737789287   10.23130955406258   11.13672497222013
B   15.84723731544319   10.21597639516453   11.84195413586883
B   8.25731898789230   10.43126991170251   12.93095327652160
B   15.66625682717695   11.57483118145026   12.84138232665629
B   11.79054504759626   9.53258962535722   10.48557604071438
B   12.49290190899040   9.31543177961469   12.00727295230947
B   11.82561163705629   9.92947319492546   13.41622765292394
B   12.42734027613880   11.27596326635579   14.21208998143936
B   11.76437110265255   12.81024828228993   14.05000987338372
B   12.21390191875914   14.05143428650646   13.00166637705064
B   11.54042031622725   14.28867021807254   11.45633917966749
B   12.14851682904119   13.66798553733119   9.99147013725866
B   11.59549707369469   12.25932070170154   9.23059024753926
B   12.23890381151464   10.68213588241927   9.33230119373520
B   7.31980692058882   11.50031245640907   11.92549485859746
B   9.28974112414797   11.60384809565262   11.85747560362030
N   14.78302440990786   8.72134785947897   14.59246307081069
H   15.26331955566164   8.88666593688641   15.47663813156831
H   14.71834636045133   7.71872685547355   14.40575060012005
H   16.72500075130205   9.38232971094522   11.84493631004359
