37
F:    ...  E:  0
W   10.34524068065185   11.89101057434734   11.80964258362470
W   13.28430530102384   11.90945713776608   11.81141075301779
W   10.37519795002432   9.36800788990123   10.63647932552606
W   10.41974870843778   11.62296092444760   9.02976886240351
W   10.50255264158391   14.01329128110325   10.28536381124119
W   10.37699481534631   14.55369615786552   13.02130512637735
W   10.41631205826327   12.15157423690132   14.60074640416791
W   10.39289725669996   9.66940696521344   13.49798330735925
W   13.23909883396308   9.35188552673467   10.64949947125550
W   13.24197104559026   11.61617319787617   9.05482459349993
W   13.24665077166585   14.03979124768691   10.24524895856094
W   13.36007789508973   14.48778169530052   13.01544665286059
W   13.26249852267457   12.12892706827333   14.62227173892359
W   13.22899618785567   9.65391414048754   13.48580343042167
B   14.82931316323377   10.14567208761269   12.01626312357515
B   14.84838967409080   10.87253627689121   10.44015304894671
B   14.90420841392993   12.57117985289283   10.25938508732550
B   14.90300718317262   13.60514942686529   11.66418048050498
B   14.86390932745026   12.86256147567871   13.23683712953600
B   14.84457899377268   11.16993688089536   13.39091518374126
B   8.79393306876191   10.16607329102735   12.01413065719926
B   8.79239254246257   10.91035020235237   10.43305029672403
B   8.78237867188605   12.61551278079494   10.24508894332080
B   8.80929084472586   13.65216533519810   11.66138286726706
B   8.83344788700893   12.91778852641169   13.23423884447576
B   8.79385419322230   11.21349992154981   13.38657236979523
B   11.81867231622530   10.50170540727444   14.92531030387398
B   11.81119069403508   10.31663174489980   11.97374223253480
B   11.81935076183409   9.96091347290339   9.12459474306240
B   11.85255683045500   13.25643673466314   8.73701403026238
B   11.87488083254856   15.11282872097815   11.59302751127665
B   11.85260784252702   13.68837499016086   14.25155066569374
B   11.80077467891949   8.52408541617805   12.16804805077742
N   9.27892942992821   16.32046158147819   13.84295813925609
H   9.62645066225715   17.19204181551948   13.43306115257605
H   8.27911527412752   16.24269211730695   13.63025579218254
H   9.38306932779698   16.38908113623331   14.86008619398538
37
F:    ...  E:  0.0321694499999694
W   10.34783130819449   11.86684743826838   11.77947221483728
W   13.28627694291291   11.90482529000474   11.79871816522607
W   10.39540244002587   9.35473822086468   10.59385767619615
W   10.43912953409203   11.62300550685822   8.99757909486024
W   10.51942418113848   13.99827941782177   10.27518966166873
W   10.39153222244088   14.51172487488509   13.01077425616667
W   10.41237869741097   12.11720391751182   14.57204501070409
W   10.39563872699169   9.64261479687149   13.45807416116896
W   13.26257400920198   9.34872791450339   10.62461921059438
W   13.26718198840841   11.62972426985800   9.04665598774458
W   13.25924639308882   14.04755201850232   10.24462331548873
W   13.34807370126761   14.46659218016493   13.00858760751721
W   13.25560287641392   12.10799670801070   14.61419791576748
W   13.23581990611333   9.63746085244140   13.46063329696397
B   14.83931041669577   10.14529434530102   12.00413814056484
B   14.86585962792648   10.87813255173950   10.43299292365727
B   14.92067849818482   12.57930587369822   10.26232243832488
B   14.91307505971346   13.60321441474190   11.66898705639515
B   14.86153350593936   12.85508745754118   13.23964922531516
B   14.84423628454784   11.16098350093995   13.38289280364671
B   8.80112755344902   10.13497352556373   11.96565716560421
B   8.80778176677846   10.89026874947620   10.38712005157661
B   8.79687164117029   12.60022018911957   10.21529180490830
B   8.82176529981875   13.63723793166648   11.63980979258263
B   8.83115690841032   12.88726879394766   13.20453665013019
B   8.79029129650412   11.18033212223352   13.34635209727667
B   11.81664093531501   10.47251534767818   14.89415640966252
B   11.81902899554125   10.30323083390302   11.94567755008135
B   11.84889425688450   9.97327682894718   9.10074025840635
B   11.87547465525988   13.26150908392013   8.71913513593832
B   11.86954725285355   15.11939746114287   11.58614588615389
B   11.84883260336538   13.67344371707648   14.26770404207094
B   11.81633971852605   8.51211029442916   12.12989845341962
N   9.44049493729136   16.26115310147625   14.03171914613347
H   9.73738982734293   17.12349285431783   13.57587626474676
H   8.42732457128327   16.20703677881974   14.00369565614139
H   9.73486127952590   16.28741570022239   14.99924213697645
37
F:    ...  E:  0.146143230000007
W   10.34299541527540   11.84427100348600   11.75751862406645
W   13.28158205546051   11.90805967711049   11.79688512110557
W   10.41145140894712   9.34659853090250   10.55968895250497
W   10.45102519175100   11.63022705772781   8.97449133666185
W   10.52544502050233   13.98733666366468   10.26662941706677
W   10.39276368380640   14.47836969633654   12.99021917774233
W   10.40108120506501   12.08696095359891   14.55207146530080
W   10.39632181962539   9.61613366240194   13.42797572629811
W   13.28212395346294   9.35534551195464   10.60653913386631
W   13.28319445670776   11.65613439370999   9.04752464423051
W   13.26327178997941   14.06486454601442   10.24275355442841
W   13.32363522700275   14.44873105510595   13.00351051604845
W   13.24699964822365   12.09361949867461   14.61456355678219
W   13.24231042323195   9.62608777066500   13.44067560560254
B   14.84558119261412   10.15644584887442   11.99590698739803
B   14.87605141029488   10.89494611763699   10.42998598452831
B   14.93024304818418   12.59772971671552   10.27461747706416
B   14.91326143923792   13.61275365812145   11.67947044105716
B   14.85438725835920   12.85635523231747   13.24939194743797
B   14.84044343119212   11.16033503043615   13.38070868067470
B   8.80515152120739   10.10670754590935   11.92698816891247
B   8.81498498277329   10.87144465284279   10.35142979659840
B   8.79999433631989   12.58676402275665   10.19025484905625
B   8.81937604613528   13.61595817501450   11.62033503689561
B   8.82293223603634   12.85760021313421   13.18314629119303
B   8.78327106831525   11.14666294140746   13.31543304739823
B   11.81365487848599   10.45079987237723   14.86636376196831
B   11.82373664348050   10.29609289591274   11.92686140362333
B   11.87251878235129   9.99547315757716   9.08854130083939
B   11.88858531597211   13.27948769620107   8.70063009161193
B   11.85899019075358   15.13563922025454   11.57295130662043
B   11.83503095410887   13.65228554370045   14.28003818681326
B   11.83167897681010   8.50710442633051   12.09794162326047
N   9.62332802021611   16.16822615148801   14.14493418327416
H   9.84072827992244   17.11355396625070   13.72129798131841
H   8.58008916115446   16.14657943282576   14.34143702565103
H   10.13833077001797   16.08126538531578   15.04277715537963
37
F:    ...  E:  0.466989529999978
W   10.32260961847190   11.84163382969578   11.76500800470568
W   13.27016692739439   11.93143104205281   11.82876215553372
W   10.41864721848030   9.35823715411182   10.56845712084287
W   10.45029557869879   11.63401238712859   8.98981718199472
W   10.47872319194722   14.00050461975738   10.24749970564127
W   10.34179591560818   14.48313795662125   12.93757715806662
W   10.36410091822748   12.08006332489289   14.56772626706014
W   10.39530538242272   9.61429725649538   13.44411433877681
W   13.28056508218135   9.38472267929983   10.62367777418567
W   13.27185972999002   11.67461653540765   9.06618239146649
W   13.24046537068988   14.07481595688485   10.25342195979912
W   13.29841236207313   14.48611071236952   13.03305868877699
W   13.22886562418421   12.09899656725064   14.64015543928890
W   13.23323899287070   9.64285344306474   13.46220236518542
B   14.84042731101820   10.18471505667668   12.02229335777218
B   14.86696350306323   10.93249983753824   10.45850712524443
B   14.91403789026593   12.62904930255430   10.31076111821750
B   14.87866879017499   13.65012604590844   11.71257217866588
B   14.82923697885476   12.88283801359538   13.28129412736236
B   14.82736199238016   11.18524114876630   13.40778905925329
B   8.80582929642526   10.09989647732087   11.94004539749571
B   8.80560830100332   10.86922983184954   10.36040867600370
B   8.77281617598041   12.57738106361809   10.18412698558895
B   8.76478449731363   13.57838927657768   11.60454656654096
B   8.79820719806945   12.84662405129564   13.18901841474607
B   8.76981926859717   11.13593767144309   13.31795107556997
B   11.79762901532234   10.45492945953730   14.89646176573131
B   11.81928561136158   10.31180221427702   11.94661029794571
B   11.87497669052851   9.99969982009308   9.08867470914680
B   11.87034370680657   13.29845866863743   8.71936389099170
B   11.84355493990898   15.11738564103883   11.56866919889858
B   11.78710055824147   13.61171729444673   14.20907370491570
B   11.83475420632753   8.51989985947988   12.11036345117657
N   9.61807232651486   16.22357070451369   14.02111013224386
H   9.80308554933008   17.21250696694945   13.82879982601911
H   8.69939352981796   16.09982804346318   14.41960805697583
H   10.40909569491452   15.85014670524215   14.59287990699186
37
F:    ...  E:  1.40374739999999
W   10.32735018262868   11.88011671956663   11.79511458597921
W   13.26544232388161   11.94471125820390   11.84533776368957
W   10.40717515801253   9.37409176042940   10.60453241832398
W   10.43426021633039   11.63135545339975   9.01328122613723
W   10.44870803029665   14.01992491669061   10.25567150879928
W   10.27609108399196   14.57049370231822   13.00786513212588
W   10.35337325680168   12.10564923348455   14.60165044736110
W   10.39421948936078   9.64741900638028   13.47408625844773
W   13.26119601977569   9.38929024308955   10.64394123639387
W   13.25370035706996   11.66452880258051   9.07661559539140
W   13.21608537935410   14.06794717732579   10.28596414034687
W   13.31093938939270   14.51847763695611   13.03683989290520
W   13.24040815353922   12.12022923903314   14.66104668704537
W   13.22507171648862   9.65366980695061   13.48589908693508
B   14.82903924224727   10.18701988014204   12.04094214759746
B   14.85333615593732   10.92432011601484   10.47290318806296
B   14.89646773080488   12.62134052634991   10.32135280673257
B   14.87618643105523   13.65429899874522   11.71629807510874
B   14.82580609074317   12.89803977313322   13.28657235601998
B   14.81875055842224   11.19447810149661   13.41967997657516
B   8.80427833395326   10.13460109476970   11.98178583355824
B   8.79711036283776   10.89135195237670   10.39621663890954
B   8.76221579818208   12.58163491239431   10.20462382147539
B   8.75269591193533   13.59026617138025   11.61229327937281
B   8.80484717603965   12.87485557153590   13.20471222678677
B   8.77288294707768   11.17423217773937   13.34775951509420
B   11.79808402578694   10.49499914653286   14.91758296574244
B   11.81727740417781   10.32441132607411   11.96784076023852
B   11.85297092579844   9.98446833107123   9.10211111214914
B   11.84474169824031   13.28805360491958   8.74933919673654
B   11.81671921113499   15.09641808534443   11.59744685103140
B   11.77947386392623   13.59558859344497   14.15712667987576
B   11.82378911797619   8.52782297571285   12.14323418795691
N   9.37480926200990   16.28330990513909   13.73176020613772
H   9.72211463180008   17.23772602794665   13.78872762533523
H   8.41104602015639   16.21904227761186   14.08567942674533
H   10.51852809532131   15.74916074702808   14.42113188197488
37
F:    ...  E:  0.886817280000002
W   10.33375476934878   11.91817353453184   11.83475229958932
W   13.26658638189408   11.95453999118279   11.87737467326425
W   10.39714442838747   9.39856305676826   10.61797938363723
W   10.41770909464118   11.63573259160912   9.03150794220302
W   10.43046980471632   14.04474015971647   10.26761635107980
W   10.20815685285278   14.67399063632586   13.07742383555110
W   10.33977367362109   12.12853962281242   14.63683671781824
W   10.39274383740085   9.67093037194565   13.49381091819112
W   13.24493725960343   9.40678460490675   10.64494079932183
W   13.23412310046003   11.66855762195765   9.09916988294684
W   13.18902609482212   14.07936417137035   10.32404539214507
W   13.33840968463272   14.51121937992206   13.02097905813067
W   13.27989071444169   12.11694201545390   14.70650653374360
W   13.22265261063833   9.66092056011745   13.49503247585075
B   14.82437752276505   10.18311958071590   12.04935206353218
B   14.84768075870450   10.92757516539689   10.48651147636989
B   14.88386353079129   12.62640961717066   10.33652897008117
B   14.89034873962676   13.65359811089056   11.72180006417762
B   14.84299829527944   12.90013988198688   13.29918891172501
B   14.82478740081279   11.19079937526698   13.42955185921763
B   8.80599520192940   10.16287502890167   12.00871563748120
B   8.78884867746845   10.91236749264504   10.42383587387893
B   8.75746162951904   12.58682051437107   10.22082747188268
B   8.74110403363694   13.59529008889766   11.61620916754858
B   8.81075179576521   12.91349887607695   13.21608467871231
B   8.77632649968200   11.20394688765993   13.37343621826369
B   11.80136031957872   10.52846277096882   14.92720932874525
B   11.81461078037915   10.33807739409689   11.97804228345735
B   11.83505922170207   9.98010195778279   9.09359648712604
B   11.82416712314873   13.29623541610682   8.77383950608206
B   11.79140087524143   15.11351950362758   11.62727604735532
B   11.79305297355849   13.46901000903013   14.00080112547784
B   11.81681721643001   8.54776556966170   12.15565111013692
N   9.16148231673793   16.37219924914004   13.38803691206291
H   9.59620874660920   17.22457099136908   13.72054103093654
H   8.26388924182583   16.23381926487103   13.87212450808560
H   10.78082141367984   15.53570855068791   14.53193476815292
37
F:    ...  E:  0.0480089899999712
W   10.33517487010375   11.93359816228186   11.86222627988116
W   13.26912758147538   11.95811467489301   11.90270900793246
W   10.40252436013518   9.41741219356916   10.62811725592283
W   10.40757035492246   11.66474629023708   9.05648547109504
W   10.38585544830105   14.09158086379207   10.27416716595177
W   10.21123063639032   14.66246612003236   13.09502579350259
W   10.31981497369425   12.10185514659793   14.66762475192907
W   10.39123717919068   9.66655370138091   13.49754033747339
W   13.24042842752063   9.41534392002366   10.65075079041371
W   13.22846649548700   11.68778954646912   9.11817817101613
W   13.16860639135680   14.08540582667021   10.34929852093448
W   13.27066405818902   14.52546412616864   13.05811494011118
W   13.30056786233592   12.09252059741767   14.74318408070824
W   13.22519148974027   9.65106463874453   13.50286452081766
B   14.82115101863460   10.18866007190494   12.05585376512999
B   14.84096786376479   10.94417218999206   10.49181503547445
B   14.87724667780661   12.64438554676916   10.35832285848489
B   14.85793030087029   13.67580406961263   11.74340820958141
B   14.81854167041572   12.91338271446812   13.32424060014623
B   14.82211348262443   11.19617332504923   13.43615258747808
B   8.80851445742431   10.17706025530141   12.01951962513199
B   8.79197833580329   10.92566108575380   10.43442629996020
B   8.74767025650190   12.59687941031068   10.25299840803007
B   8.73631324654185   13.61268646350281   11.64500233860030
B   8.79794052648875   12.91003038940224   13.24706915999202
B   8.76637147126187   11.20840082074852   13.38503577828714
B   11.80335969335682   10.51934506007215   14.93093671323438
B   11.81441288810233   10.35310526777804   11.99226729412232
B   11.83029390625275   9.99933512488392   9.10338314750657
B   11.80550395045871   13.31388426328178   8.80630397245849
B   11.77257918196615   15.09747263487531   11.62290681787475
B   11.78495321380789   13.33531267330714   13.91362437487943
B   11.81508226592155   8.55355259429036   12.16235748140838
N   9.13205483505334   16.29927418618232   13.46169651121867
H   9.45875878971286   17.14446247843212   13.90766628467090
H   8.10417748342671   16.29407134037137   13.42339474686166
H   11.30882167167591   15.56776445584696   14.23619177421663
37
F:    ...  E:  -0.105720689999998
W   10.32829646431575   11.92295641322593   11.81044124050643
W   13.25719123096601   11.95306465403663   11.83948560645279
W   10.38841248312245   9.37267827946218   10.65053002837652
W   10.40235657327240   11.64279819376763   9.02878017126641
W   10.40529229795785   14.04088600023739   10.25067093781570
W   10.15576625901937   14.66943351901286   13.01225309436762
W   10.34442565165718   12.16326711184919   14.60686682092973
W   10.38617087114676   9.69420920260366   13.51244957455882
W   13.25690883433639   9.38889941533207   10.69025936570700
W   13.24885193388104   11.66311747964843   9.07254523730863
W   13.15386388432705   14.05117019546172   10.32029194281871
W   13.28108131007874   14.54962772600592   13.01610281067746
W   13.16870389412781   12.21385360093151   14.62273946997247
W   13.20578162756584   9.69587888991275   13.52894098748939
B   14.81307993629783   10.22359923522603   12.07675778188338
B   14.84015589200045   10.92793019474986   10.48766469932460
B   14.87705686464433   12.63622323003757   10.32401713771772
B   14.85720693406806   13.68269740941581   11.71447101639365
B   14.80199125052792   12.93866179390695   13.28835990649678
B   14.78711755385927   11.23440242169457   13.46356543796600
B   8.80393934309984   10.17145638198770   12.01410015076231
B   8.79385545527858   10.89700934898366   10.42588968315928
B   8.73250058850294   12.58806075742372   10.23005612068989
B   8.71983360327889   13.61940571017220   11.61605720702095
B   8.79165651102656   12.91070907806642   13.20346990800082
B   8.76436279826721   11.20940156968148   13.36176081463565
B   11.78175677230697   10.56001794417451   14.94521298126913
B   11.80688755793522   10.33799929345808   11.99087849078353
B   11.83238003169796   10.01698286658954   9.17149237301761
B   11.81550558462059   13.26747025978943   8.76097191228733
B   11.76938950388856   15.13663608575196   11.61111641946011
B   11.69486236176865   13.79954293443558   14.28260517665148
B   11.81258693137076   8.54319089704813   12.19011412811609
N   9.10763683321998   16.30529490098790   13.43594342113106
H   9.46193375751583   17.13898076508538   13.89989050472860
H   8.08697464041576   16.35683945161666   13.37176372606921
H   11.44666814270905   15.08257326256493   14.47695577321609
37
F:    ...  E:  -0.317275550000033
W   10.33739518716575   11.90076000828399   11.78386451474292
W   13.26322520663551   11.94075737092644   11.82544928886636
W   10.40895288751380   9.36433867609782   10.60799537493379
W   10.40946183002743   11.68267971121821   9.00896408812068
W   10.40429226914589   14.04567828730649   10.24082838868164
W   10.19923526643029   14.61170001494935   13.05286777026867
W   10.32701515108853   12.09466578227645   14.62667130127921
W   10.39977712986418   9.64616913015576   13.46619570565918
W   13.28258949735811   9.39257551510281   10.66038321724239
W   13.27755896024996   11.70647979523512   9.04910094814205
W   13.15609196074765   14.06250623390372   10.33314237517276
W   13.22506887286004   14.50539315046987   13.07047453001007
W   13.17719164518867   12.14087509986726   14.63327916280818
W   13.21462313306269   9.66087002583241   13.49589628889873
B   14.82730640101670   10.21947468126011   12.04758787729917
B   14.85701956668702   10.94612729819270   10.46386242780075
B   14.88745624582868   12.65660308312104   10.32946545369638
B   14.83510451944287   13.69055111073501   11.72814229002053
B   14.77863950730663   12.91493849152245   13.29100981854734
B   14.79705749992908   11.21164739958648   13.43756459302658
B   8.82036094484969   10.14652436997738   11.96870772702978
B   8.80812351854437   10.88987290732353   10.39043544648026
B   8.72968195204605   12.59286797855819   10.23871089281376
B   8.75675839678605   13.62018978804081   11.63383434529839
B   8.81363324553131   12.86134824356899   13.19673103682110
B   8.78060428454564   11.16118134994987   13.33517393362600
B   11.77375564574429   10.49342117154146   14.92542156062356
B   11.81716905550423   10.31890765636243   11.96202793582421
B   11.85824608550838   10.08227670609773   9.17665046639044
B   11.83020002945389   13.30074756388980   8.73457336324898
B   11.75224279911096   15.11026368996592   11.62556560562923
B   11.71178670330646   13.72112838400067   14.35554389613370
B   11.83052242411556   8.51672303131662   12.13690758813285
N   9.23441699748759   16.21960539230534   13.64942571384788
H   9.67288669258992   17.07405903919712   13.99092645674566
H   8.21962644720595   16.31520353690767   13.64675669752147
H   11.80721484862944   15.09884862368891   14.39485536210231
37
F:    ...  E:  -0.340251090000038
W   10.38285259150944   11.89617491953836   11.78278323168911
W   13.30427900083420   11.90228824179935   11.80530632389768
W   10.41572375371838   9.38568101198938   10.55451877109129
W   10.42069433980628   11.75494124756336   9.00916094165986
W   10.42681443570741   14.09368892303227   10.28115191763467
W   10.25866198613156   14.57050791164720   13.12474765787593
W   10.39477649110721   12.01082176360481   14.63115655911612
W   10.43331973774147   9.60028150685068   13.41697634298832
W   13.29115239845461   9.39083091687099   10.57842764092020
W   13.28990148116544   11.74764435038370   9.01643848752710
W   13.18750111359736   14.06094750576554   10.37269900430185
W   13.29481544583079   14.43746084467248   13.10211699831700
W   13.22427403293491   12.03049854198089   14.60976416037811
W   13.24867437811921   9.58672023538982   13.42974583354698
B   14.85150751750003   10.16441703238875   11.97312983831889
B   14.87195434219744   10.93635552836325   10.40782248800494
B   14.91426089192168   12.65017619418074   10.31381617674521
B   14.88760579419230   13.64484512556484   11.73406422837268
B   14.82959141445836   12.83627746877112   13.28612330280155
B   14.84126644152683   11.12981900722857   13.38266647886566
B   8.84815398839888   10.15317507722805   11.94178983113621
B   8.82869192788899   10.93200189134626   10.38350897035546
B   8.75661352343406   12.63934929473849   10.28166678228229
B   8.80982229821010   13.63171690599322   11.69544123727183
B   8.87422919931200   12.82760809363765   13.23496177658489
B   8.83038680076558   11.12812289962848   13.33336844119872
B   11.82097526972185   10.37584764027216   14.90057711004395
B   11.84637274324712   10.29298124206031   11.92172792762733
B   11.85752272361062   10.14100900362705   9.13411209117511
B   11.84933632760521   13.36350978465308   8.75642062202412
B   11.79599402380407   15.08368126576742   11.69610520536305
B   11.78974451121451   13.62902089357277   14.38166461549646
B   11.84355331977254   8.49286005695773   12.04712628281866
N   9.33205278211635   16.14566981803785   13.84330879037858
H   9.78568871206535   16.99537076701425   14.17623361638491
H   8.31804526925011   16.25495255518013   13.84354207289804
H   11.93407843905913   14.99305103738363   14.43725910733677
