37
F:    ...  E:  0
W   10.48635122914824   11.29082206554630   12.01243503899715
W   13.42571789717974   11.30444506030133   12.02445774503061
W   10.54203332583565   8.77675540902314   10.79707995955112
W   10.57012601704943   10.98897193044232   9.22477167627163
W   10.51472594097643   13.66568663773955   10.29541420556247
W   10.62502623922480   13.67473615230032   13.09223244744555
W   10.54111127069472   11.57151740593500   14.79099641268973
W   10.50770494352892   9.04624756755491   13.66134359922571
W   13.37668847177385   8.76594857534300   10.82717972421990
W   13.41573740606983   10.96634051311951   9.22884495057104
W   13.50616386360394   13.59851589721187   10.33624845203423
W   13.37028699574174   13.69982269844081   13.13528338787840
W   13.36382933086937   11.56042946619294   14.78788457888409
W   13.36980311211529   9.02979297638225   13.66937448429717
B   14.96984121088996   9.53709314179539   12.18146856152280
B   14.99380378190318   10.27193102147113   10.63140501228368
B   15.01136897759433   11.96201921700107   10.44755542955420
B   15.03989087722833   12.99814893533983   11.84416272999943
B   15.03103113095736   12.26367218269475   13.42700725402106
B   14.97944337570309   10.56264854696116   13.58278174245872
B   8.93563095401282   9.55582530447006   12.14393664611200
B   8.94362017719074   10.31187554759551   10.59373622373662
B   8.98190758787520   12.01227830336100   10.40423674108912
B   8.94698813312143   13.04202192021208   11.80056807788052
B   8.91098794971817   12.30454799130617   13.39378754304070
B   8.92261148797446   10.59732139102988   13.54549856194604
B   11.94113546888922   9.92393139465487   15.03876363541309
B   11.95160994893726   9.71252173311242   12.17157002881293
B   11.97441825292739   9.30768288489299   9.23829662389143
B   12.00104393172278   12.56570872536870   9.28701964538695
B   12.00629441661000   14.48498390108056   11.59648173584049
B   11.97039021439497   13.22883996639109   14.75989727589842
B   11.94127303762594   7.91669536551485   12.33494174018251
N   9.43035088392423   15.24241996272676   9.12536468288451
H   9.84880710534115   16.16635160539227   9.26762646949933
H   9.44449655237492   15.04514666149253   8.12006994407689
H   8.44994163960169   15.28849508093290   9.42247017214032
37
F:    ...  E:  0.0416352700000289
W   10.49732729899392   11.29640180261294   12.00474727636824
W   13.43378150221277   11.33292243738446   12.01548118608871
W   10.56351804103491   8.78678793386209   10.79939542973773
W   10.59471691582373   10.99928312081198   9.21944654305101
W   10.55106902482136   13.64910897425015   10.29327505077573
W   10.65947367369398   13.67664442110492   13.06887536531345
W   10.55200998798055   11.60113503037996   14.78749149047360
W   10.52434228079981   9.06977502282770   13.67055585216924
W   13.40268198857756   8.78445208373035   10.83793656421501
W   13.44756414150237   10.97649298046722   9.20876058230156
W   13.51757586950234   13.60923295347219   10.32832901918209
W   13.38726188050102   13.73937987367325   13.13241888850027
W   13.37754820240921   11.60548154208161   14.77089015582130
W   13.38949747891949   9.06403365684161   13.67789667606680
B   14.98763918941020   9.56862274856447   12.18595763808710
B   15.01157359311308   10.29266103568215   10.63133131306504
B   15.02800427432230   11.98076642298903   10.44009244336433
B   15.05099749383069   13.02782206047238   11.83340377328033
B   15.04782734951771   12.29916496408930   13.41165019011869
B   14.99416070677044   10.59911576276885   13.57979919658373
B   8.95235820688700   9.56126450642221   12.14624996832275
B   8.95564856671971   10.31487373965397   10.58899356078816
B   8.99246582427245   12.01046128445152   10.39343186964846
B   8.96425217994809   13.04632388728478   11.78981339862547
B   8.92921592338959   12.32074021360692   13.38184871034898
B   8.93656797877848   10.60987898467457   13.54370198060893
B   11.95921131556761   9.96689705922887   15.03829678179251
B   11.97050279776199   9.73356880756998   12.17460981675878
B   12.00346207459407   9.32606626075165   9.25026670922628
B   12.03382162152745   12.57583226999694   9.23645220505325
B   12.03153357571529   14.53265827236812   11.58423442857630
B   11.98609394151883   13.27166882895334   14.77034568617993
B   11.96678256287097   7.94591920780339   12.34699258702435
N   9.29812540403666   15.08637589229572   9.16353622431181
H   9.43215197304733   16.07765852341426   9.48958800973696
H   9.50602709270629   15.07760798883634   8.14511188033025
H   8.30540120725161   14.82511258495204   9.30098468843440
37
F:    ...  E:  0.176705040000002
W   10.50280074704692   11.31727800192800   12.00209767372965
W   13.44085034071700   11.35872422580470   12.00548447004847
W   10.56787485342116   8.79293399622508   10.80921322860429
W   10.61093009919661   11.03275469819534   9.21336851880779
W   10.60923403799223   13.64299179669039   10.29606049445825
W   10.64890783417871   13.71433347349921   13.06840552913833
W   10.57510660523856   11.61630458368453   14.76841564592368
W   10.53916105682839   9.09671131639449   13.67459819376364
W   13.42350859865391   8.80254873331510   10.84930714031691
W   13.46401345719105   11.00017507757730   9.18768003693667
W   13.51541801727920   13.61810427159367   10.31079274215404
W   13.41891274222314   13.79135529828674   13.15612701176114
W   13.36809863262786   11.63434092491052   14.74860669397455
W   13.40224115438424   9.10737143214403   13.67642293431817
B   15.00436271545026   9.61524525221973   12.18359085357143
B   15.01744151280983   10.31886309306422   10.61395895702704
B   15.03307801674240   12.00805693417070   10.44124618856680
B   15.04902021153289   13.06678978144514   11.81946375841888
B   15.05582154140318   12.33451730870644   13.40082859520759
B   15.01011925735098   10.64408905670981   13.57622149991670
B   8.96161827015301   9.58293636143597   12.14784900138225
B   8.97384054833946   10.32828672148789   10.57974219452830
B   8.99799415234921   12.02284792783627   10.39746355958065
B   8.96409994442912   13.05922210176423   11.77928955292212
B   8.93063707861270   12.33921244003492   13.37838631282070
B   8.94025677743369   10.62852102272904   13.54360401454719
B   11.97277492045993   9.96721258392087   15.07344077445627
B   11.97938476224117   9.75795302791853   12.16743487607567
B   12.01220570527502   9.37052317520696   9.29159002606157
B   12.05396873429427   12.61269223839251   9.13771277774605
B   12.05797896279980   14.50593403677823   11.61182309214634
B   11.98847777076864   13.31607683547185   14.75009285938061
B   11.98700683310569   7.97112518738418   12.35200144144499
N   9.21862097677866   14.96465576987455   9.15750330505930
H   9.03467592709134   15.87979977833120   9.60090177944745
H   9.48616449580878   15.11570966575109   8.21128549792025
H   8.42558584812203   14.30599500944697   9.26018190816859
37
F:    ...  E:  0.95633423999999
W   10.48889201183354   11.34105018045159   11.96580806126760
W   13.42057487255624   11.33020883504725   11.98985744646399
W   10.48728674724846   8.77671258486954   10.82991612141494
W   10.60787622498199   11.11452005782875   9.25893075721495
W   10.70856566096047   13.66754893194229   10.26213530450736
W   10.47330689970392   13.95623131018684   13.15793069422974
W   10.61298193651700   11.55083850062634   14.64852053011626
W   10.52205444712187   9.09676425049440   13.64974088590153
W   13.40946784047632   8.75471040674051   10.85722840657332
W   13.38569439872768   11.07127942641631   9.24841559180769
W   13.46526234823414   13.58079740936774   10.30851124172609
W   13.53604849082440   13.95383172181753   13.24307692607087
W   13.31927806074323   11.56276139009541   14.69404890360203
W   13.33755844685097   9.10154281103332   13.66285024601714
B   14.97445853796638   9.62619899598246   12.18744487668178
B   14.99864507136897   10.29764171080314   10.58553870223123
B   15.02257209331976   12.01716361607322   10.46632410406577
B   15.01273110431393   13.04308121986939   11.82806449543289
B   14.98102742633130   12.32936304407225   13.39523322329260
B   14.98274696939805   10.62490194890026   13.56582657883414
B   8.91987585082509   9.66013856788577   12.11976744979065
B   8.92267969857230   10.37368150372499   10.52871591908909
B   8.98743498203299   12.13734599518777   10.39852571482373
B   8.99606743883186   13.08066625831638   11.78001368135573
B   8.97336869893704   12.38279958440715   13.37539632939487
B   8.91476231917844   10.65701227494926   13.50024756294974
B   11.94973691404518   9.87612720364351   15.18980325747444
B   11.94197304474025   9.73290954324701   12.13049335795954
B   11.95757293167094   9.44590025854729   9.39901834182571
B   12.04214616644689   12.71898915838101   8.86600318969350
B   12.05587046088438   14.12195888265489   11.79819935236542
B   11.94861731397760   13.25764830288285   14.53933580452699
B   11.94671789262545   7.93249084775415   12.32822295272472
N   9.46981858104577   15.00401738228882   9.18074815732220
H   9.20668965119271   15.93593112436089   9.57544524704098
H   9.37924543141072   14.95570062712116   8.15550699646016
H   8.88258617443408   14.17172727236025   9.57134672808092
37
F:    ...  E:  1.25493369000003
W   10.46380267018452   11.37333742129391   11.90606079089178
W   13.42862428378450   11.32735882821549   11.98058117008385
W   10.52757385460940   8.75386909116909   10.82904615793239
W   10.58652174270913   11.05608271891638   9.22871840781762
W   10.65324176694450   13.83234055357866   10.15523927959833
W   10.49837005868671   13.91867502588901   13.14680795921681
W   10.60567560524929   11.56459291086843   14.68331815093207
W   10.52621184240941   9.10645974072464   13.63994815244822
W   13.40215777767918   8.75516098567216   10.84692763625302
W   13.39734700794533   11.03461265808560   9.25068253411166
W   13.48328772580205   13.60124893122864   10.31087983143678
W   13.46195670413812   13.87457394328776   13.19727899369010
W   13.32476741684755   11.58554129738295   14.72427342363875
W   13.35156742014119   9.09848179003350   13.65892708880785
B   14.97629843023243   9.61699798578573   12.18644587675974
B   15.00158373958232   10.30109842185754   10.59676784620828
B   15.01314481986166   12.01099120323646   10.44882351889899
B   15.01835857089624   13.04662509252935   11.82627813200538
B   14.99827523253909   12.32008431748999   13.40005360213873
B   14.98029629264281   10.62588382631263   13.57203590449208
B   8.94136337218020   9.65188256175056   12.11306700196075
B   8.95101952087902   10.37015398379080   10.53348195131817
B   8.98763865663575   12.23591724409660   10.33854123221025
B   8.99038187188475   13.08024301688088   11.80403398766402
B   8.96193995197064   12.35744206444833   13.38386849370102
B   8.92949075824264   10.65033024288384   13.50199195344604
B   11.94803861566537   9.88989636655938   15.15022775354336
B   11.94798449424199   9.75477879070085   12.14370422191812
B   11.94670412649303   9.40742518180784   9.34898392348970
B   12.02750160395065   12.66992438966215   9.02672325198986
B   12.02468737217021   14.26127770901647   11.70907762775389
B   11.93597535020146   13.26326607261816   14.60810533117694
B   11.97392166805571   7.93273132734130   12.34676684811707
N   9.58790513112601   15.19059993956532   9.11148726214258
H   9.24123010909036   16.06323112097484   9.50038183438745
H   9.32974250766227   15.05126292971254   8.12601618234028
H   8.81760506699403   13.60781345496386   9.90663982580961
37
F:    ...  E:  0.341170140000031
W   10.47894855490537   11.37760143678292   11.95138887440248
W   13.42749284890541   11.33135228201669   11.99180008285820
W   10.48527971796796   8.80183983965772   10.80272022871768
W   10.59649101236558   11.07552996104026   9.20167963251602
W   10.52086683621094   13.83118393728683   10.19112408707413
W   10.53198191306769   13.95764072159617   13.21008178458779
W   10.61301987041074   11.57472750972760   14.71158467050623
W   10.50053159059973   9.10672730854655   13.63229492601089
W   13.36619768692576   8.75952381991287   10.82392725607122
W   13.36933267010986   11.08806859875913   9.25679311749481
W   13.48346900383572   13.61905583378244   10.32687867211637
W   13.46412006174956   13.84890536291525   13.19258060005986
W   13.32876524082308   11.56237128486900   14.73671682657117
W   13.32633532550136   9.06900948927441   13.63774013110137
B   14.94266755899814   9.60063656322352   12.16868535190523
B   14.97219118428238   10.29359297557380   10.58468780153296
B   15.01126448115815   12.01298539194399   10.45680151544140
B   15.03607650196698   13.03465330073757   11.82862009169641
B   15.00731150128540   12.29494386487809   13.40244326951083
B   14.96030523496717   10.59189128280214   13.56637878799973
B   8.91412557298686   9.67407028231310   12.13274808420484
B   8.93998668164453   10.35776056393769   10.54928705686124
B   8.92849930705541   12.13255442093671   10.44315367852380
B   9.05017760451042   13.09967701864173   11.87521046761179
B   8.98948335076627   12.39412272350591   13.42322848003182
B   8.92604117557132   10.67717073630434   13.51375855874501
B   11.92730617756881   9.88171188556501   15.12281143773035
B   11.93011859726223   9.75172278342260   12.13093389246468
B   11.94072213342135   9.44833554130668   9.34203839031747
B   11.98478451799421   12.73383551684132   9.06721868534293
B   11.97977827227134   14.22896915751793   11.68389835091070
B   11.97094236505628   13.26460684843169   14.65320804677888
B   11.91715514567402   7.94978629148171   12.31337486196053
N   9.77698838198982   15.31600695753064   9.05547494691109
H   9.56054797784655   16.25669352570114   9.41043866514748
H   9.44253639426026   15.14640480211205   8.11772943954900
H   8.64035068841313   13.09652331945382   9.73275238906507
37
F:    ...  E:  0.0886599600000295
W   10.46807704182311   11.37044741589649   11.93411644978356
W   13.41751930434464   11.35659927253326   11.98771015710088
W   10.49683146300088   8.78730236548541   10.80756066561390
W   10.60544585006441   11.09858262289334   9.20795883786318
W   10.53854486770604   13.81041357849666   10.18136967118558
W   10.53708495662821   13.95816744892177   13.20727072928709
W   10.62758590845008   11.60259890608443   14.69131498761911
W   10.51872778070839   9.12956912299848   13.64180084481089
W   13.38920973034048   8.77328914409328   10.83575334799333
W   13.37686171751630   11.11212030382720   9.25241399758364
W   13.49091758883027   13.62929823340158   10.29312512771583
W   13.49394222660863   13.88057692817779   13.21145104156162
W   13.34109588454651   11.58494807214189   14.73240154431400
W   13.34022082431076   9.08406771819195   13.64113263590359
B   14.95320932240698   9.63488812111965   12.17007951202055
B   14.97782890275927   10.31377119541746   10.58320964655616
B   15.01851960508901   12.02552499020697   10.45751773664721
B   15.03388019364968   13.05571904013471   11.81777317635945
B   15.00985697662620   12.31261268457210   13.39505107327842
B   14.97041888885195   10.61472599651354   13.56339986953749
B   8.92585634518784   9.67246320194439   12.14538454449924
B   8.95736906585784   10.34844611611132   10.56264559364624
B   8.90885544744444   12.13809475502128   10.42175900434814
B   9.06632998792071   13.11763406851838   11.86169891401984
B   8.99275237016059   12.40028147228908   13.41334625699727
B   8.93335171843624   10.68682459857173   13.52955425742430
B   11.95168385835259   9.91311107769134   15.12338779770907
B   11.93301824746782   9.76840712315004   12.13019487873632
B   11.95901339188056   9.47169194674885   9.36415245039832
B   11.98822712148371   12.74736124714894   9.01502088336244
B   12.00874338510301   14.04891529397698   11.70362389237510
B   11.98974451971749   13.29482532172740   14.65617700471807
B   11.93947890092692   7.96368535019853   12.31653650903146
N   9.77854550091964   15.30015765290190   9.09071911356444
H   9.37988302292755   16.15188583000122   9.49640611299839
H   9.67985566900813   15.23183127476882   8.08075285681771
H   8.24370555327386   12.85135364845287   9.71842201694980
37
F:    ...  E:  -0.139931310000009
W   10.45850942717450   11.37219782608823   11.92236728051226
W   13.41953983201251   11.39075660641218   11.97788059348980
W   10.52928213237135   8.76621217564256   10.82376934792123
W   10.60587483013773   11.09230102909194   9.20310892242295
W   10.53600024284182   13.79048646290153   10.17161107801294
W   10.53732444397208   13.95703794609652   13.17894797478746
W   10.63502067949110   11.63751406128066   14.68428479934861
W   10.54879577922111   9.14062844461364   13.64306011943792
W   13.41788406235877   8.79196925372065   10.85198757127770
W   13.38699922446566   11.11898298795555   9.24895698546078
W   13.48654491333766   13.64258014071856   10.25962659936117
W   13.50751426884635   13.92941789222579   13.22107318697358
W   13.34610235447389   11.62762854239682   14.72694482635959
W   13.36865693445196   9.10817499815589   13.64275958814131
B   14.97442792509503   9.67967054932114   12.17314441041231
B   14.99303128152812   10.34344963808864   10.58842137981330
B   15.01944864268863   12.05497377811730   10.44864528866782
B   15.02457029918843   13.09399857346222   11.80346316843000
B   15.00642188621037   12.35426419566535   13.37930768155179
B   14.97763268221928   10.66093065334078   13.56180214787481
B   8.94689775718957   9.66722135216760   12.14733651623002
B   8.98177975226576   10.32371507955878   10.56028556458721
B   8.90825844850827   12.14779898908497   10.37587669429031
B   9.06535771674674   13.11963682877020   11.83302728951961
B   8.99321125680380   12.40537776784704   13.38468402469788
B   8.95392772289274   10.68577724496602   13.53355230990120
B   11.97827454667924   9.95852221913205   15.10271599875114
B   11.95120117654815   9.78647109679413   12.13142300521295
B   11.97800540847247   9.47001332614114   9.37522837326585
B   11.98302561967121   12.73577404807585   8.99611338430591
B   12.03329796041038   13.83181026880837   11.72273070255602
B   11.99607722228527   13.33361619067254   14.65474768786312
B   11.97821843188784   7.96593126371172   12.33252682335391
N   9.76481186739829   15.28865889891526   9.11753234674881
H   9.14425245011257   15.99473593944413   9.52195593613702
H   9.86543176539151   15.36601147360811   8.10823731580967
H   7.94058219498059   12.60794539733730   9.83305621684417
37
F:    ...  E:  -0.379185210000003
W   10.47187849964286   11.38689379248312   11.92330060876932
W   13.42338459058986   11.42712679835955   11.96267909938951
W   10.57522418851409   8.75387762953723   10.84887495789993
W   10.60579642782823   11.07502932881659   9.18900568364859
W   10.50745528353168   13.76687485261019   10.15976592980281
W   10.53777390900686   13.96718308769049   13.13172222747370
W   10.62396051983453   11.67229745807190   14.69991829331085
W   10.58029711247930   9.14368953041845   13.64368148048755
W   13.44591292273229   8.82364494689094   10.86564099060707
W   13.38652167897085   11.12012455077430   9.23888421062371
W   13.45369116845824   13.65453704713535   10.24225142573766
W   13.48069807237085   13.99316166938531   13.20045524507504
W   13.35355894486570   11.68058997020608   14.72461041843799
W   13.40058513281760   9.14412820841894   13.64235768719227
B   15.00223541520534   9.72759095008041   12.17687017951873
B   15.01006982516160   10.38876355902501   10.59182766320693
B   15.00606255131247   12.09962599410987   10.42158798341047
B   15.00035896346659   13.13849675967647   11.78855305142637
B   14.98474806389677   12.42101149767036   13.36245585706910
B   14.98482709044952   10.72551644827296   13.55612669743248
B   8.97899495411607   9.66093937756641   12.15604876065698
B   9.02947033238300   10.29031986401291   10.56439602439554
B   8.91615745960306   12.11756483358158   10.35530310248627
B   9.04433619457880   13.10752846510708   11.80466436967238
B   8.99564219736467   12.41334948087791   13.36236871393715
B   8.97832107670204   10.68870891871789   13.53553062424591
B   12.00057859526584   10.01201946613316   15.07395523421323
B   11.97354628686516   9.80076462772368   12.13742326036014
B   11.99619702351262   9.45028238277742   9.36105360065959
B   11.96812149618785   12.72324246189523   8.97593087341520
B   12.03228248332338   13.51154730910046   11.74540063672302
B   11.98291277006008   13.35800207808601   14.62657556255450
B   12.01601981332142   7.96168260620205   12.35445616949825
N   9.75600706504929   15.29644612067962   9.14936887475302
H   8.97141444644927   15.86054868033069   9.49000228329411
H   9.98997974560691   15.51985827770450   8.18416876612572
H   7.77717083880617   12.35922411020140   9.99497659282327
37
F:    ...  E:  -0.238429600000018
W   10.45892415472668   11.33863546749445   11.92755101623580
W   13.42281817947941   11.45482960131880   11.98068338012127
W   10.60512423522132   8.72956109229372   10.83805876168943
W   10.60732899484623   11.06449133905555   9.21771741783032
W   10.46628293524773   13.74186841483140   10.18275892358873
W   10.50585469675656   13.96541018010645   13.11511854279400
W   10.62813132509856   11.68141367407658   14.65449415124064
W   10.59712383458570   9.15408795910586   13.64425995231729
W   13.48981675531516   8.84205496775784   10.86934502187476
W   13.37266689115604   11.14276406043273   9.25873710778195
W   13.47610670937267   13.63503970060285   10.21093732618034
W   13.49510801218585   14.01319206059979   13.16048919022357
W   13.36413779287921   11.74042801458641   14.69773697809428
W   13.42537161414691   9.17022843264490   13.65125734197939
B   15.02004979209413   9.77131416316055   12.17285925003952
B   15.03195105196802   10.42498494348056   10.58436323975656
B   15.05058070481347   12.10204893383758   10.43870588643933
B   15.03382428640247   13.18364842043611   11.75333840977050
B   15.01365932461670   12.45270926298662   13.32699353301168
B   15.00403675469384   10.75743659047951   13.55754198736462
B   8.98651821207010   9.62198274557975   12.15422620954607
B   9.03088778851476   10.23511270927829   10.56160884612068
B   8.88714230065248   12.06142606163077   10.36359835568282
B   9.02657481394637   13.07646458543237   11.77648587951323
B   8.96325904157447   12.38305840040452   13.33044181954321
B   8.95702525057354   10.66766506262501   13.53422994891109
B   12.02374931703516   10.04554783371039   15.07757579820604
B   11.99717069621951   9.78573105002462   12.12650363146751
B   12.01761323322096   9.45121455421704   9.37047345712993
B   11.94378766691032   12.73956933932348   8.96980443475836
B   12.02195805756469   13.76899156198567   11.69265929893934
B   11.96971744328797   13.40407564982559   14.58965452781441
B   12.03660206067485   7.97364765472530   12.36757429180049
N   9.72239918003519   15.26905156578119   9.20891531748624
H   8.82534582955196   15.73848429320996   9.39248553612616
H   10.08889732272317   15.62363145374411   8.30732549355092
H   7.67464688016838   12.03039133954391   10.17568287539995
