37
F:    ...  E:  0
W   9.27337243031898   10.82785126006143   10.75696032461063
W   12.20457920749009   10.90174877621787   10.78268085593746
W   9.35118183859733   8.32062486150957   9.55737616743467
W   9.35208517433745   10.54337593538524   7.97812557252846
W   9.29667460375505   13.18953415364395   9.12767798584489
W   9.50978714233599   13.13645573541719   11.87090182938998
W   9.36470252757641   11.09232793017769   13.64218764546207
W   9.35617432172072   8.60334880145137   12.43322147517651
W   12.19555419125798   8.33093163744769   9.58467949223587
W   12.20325593344880   10.55276779248084   7.98965064137690
W   12.30060390005232   13.19743834471796   9.10697850574816
W   12.21426158541194   13.30536984183727   11.94978631779350
W   12.20837839819397   11.12280314362695   13.54864914348091
W   12.20232487442578   8.59616080898898   12.41706296284872
B   13.77836612916756   9.13197733597050   10.92351812435267
B   13.77842885008217   9.86382805945341   9.38453794367856
B   13.78887674085106   11.55070006228031   9.21761138451572
B   13.83047521509262   12.59288720662623   10.60777015726192
B   13.85064994862185   11.83929178892944   12.17556560992985
B   13.80099396421702   10.14458873272551   12.32090930566805
B   7.75147483639037   9.07983845484713   10.92449295865771
B   7.73515253388053   9.84733710080078   9.36278864080060
B   7.75642876512805   11.55070440879610   9.19160915922485
B   7.75093951722292   12.57441435171175   10.61659061774255
B   7.75702443863703   11.82170012561400   12.19680564100251
B   7.76441070665483   10.12185730568112   12.33288195602139
B   10.79318315477367   9.47770800633794   13.81494330719384
B   10.76473459154616   9.27022794442487   10.91713682620335
B   10.77898758328596   8.88920282360004   8.01023690063073
B   10.78243630239017   12.12520733676768   8.09960282138927
B   10.82642666556180   14.05057060432730   10.38931003868436
B   10.81361293375346   12.77415155974450   13.58701419455432
B   10.77182081055380   7.48042758513122   11.08809530935333
N   8.29775495527782   11.33013906427070   15.59997763010045
H   8.74364610189356   12.03968362442750   16.18788102545381
H   7.32490976231982   11.60884226047952   15.44326095351629
H   8.29838158351380   10.44448784494594   16.11314007353095
37
F:    ...  E:  0.0249817299999791
W   9.33259232700726   10.81447414428634   10.67875837500115
W   12.25661539061936   10.90165333020068   10.70947692060625
W   9.41200573928815   8.31575673627514   9.47367020702452
W   9.40970541237799   10.54737360232484   7.89727683539387
W   9.35500613330112   13.18369590190594   9.05808037481725
W   9.57947349479788   13.11904038979005   11.79740702295491
W   9.43507672892643   11.07414187945387   13.55375756461989
W   9.41963589822318   8.58578843713997   12.35275574899720
W   12.25804829611939   8.33025606943308   9.50020126157880
W   12.25685191042127   10.56328067259514   7.91522145802653
W   12.35211833922761   13.19574959921290   9.03332686157530
W   12.27779327852006   13.30612505454421   11.88207684470403
W   12.26960463905546   11.11436644447305   13.47051336735216
W   12.26946614429813   8.58509519290642   12.33107013135661
B   13.84079428218202   9.13385688529594   10.83917909169880
B   13.83538816740947   9.86754986511763   9.30228546445522
B   13.84413712988588   11.55429073172742   9.14426400822292
B   13.88698842034884   12.59443630671383   10.53300850263205
B   13.90983789220228   11.83510755067147   12.09891278461919
B   13.86201252955712   10.13913694641138   12.24035256600351
B   7.81333293275182   9.06663405819804   10.84338951494511
B   7.79436647568832   9.84069484162455   9.28225061189924
B   7.81368095023814   11.54562260615247   9.11532773492786
B   7.81378567546643   12.56284230564547   10.54642712563937
B   7.82085271775348   11.80603796009276   12.11896981685853
B   7.82761672363549   10.10401119084245   12.25146709637888
B   10.86237850316307   9.45696777831701   13.73369812503105
B   10.82581208882156   9.25982320813474   10.83753589809851
B   10.83799852841361   8.89653050565316   7.93140540301882
B   10.83538614883572   12.13675446031886   8.00395756338679
B   10.88510514837328   14.04989456501894   10.32140021707105
B   10.87764576583720   12.76803453506921   13.52149003243012
B   10.83623714634177   7.47138650129921   11.00107507690386
N   8.24473994790123   11.28835788452061   15.43688854711902
H   8.52285709829729   12.09375712685049   15.97559267802718
H   7.26584422175718   11.37293217110027   15.15627550501027
H   8.36417805584142   10.47141346697829   16.02064434853019
37
F:    ...  E:  0.06624161000002
W   9.39348872885675   10.80182607655232   10.59425817337057
W   12.30508253133847   10.90797300354795   10.63423413385452
W   9.47288100014158   8.30946527711584   9.38622898143876
W   9.47282989938499   10.55074045719751   7.81550984030783
W   9.41818413726627   13.17610693069684   8.97795271887284
W   9.66057474048737   13.10605863895883   11.71238809716621
W   9.51295931872935   11.06864688340584   13.46215073099440
W   9.48387425002912   8.57113190018243   12.26974358702750
W   12.32045740253249   8.32851942920016   9.41479697300792
W   12.30906369608969   10.57243369077589   7.83672270653306
W   12.40876198316882   13.19603076469782   8.94610754349842
W   12.35024518718589   13.31532566524772   11.80879569575231
W   12.34052838377092   11.11417268964974   13.39137189709883
W   12.34062859957069   8.57609594576141   12.24193247257625
B   13.89824132061221   9.14028774405984   10.75282215889968
B   13.88832284298543   9.87204697113285   9.21883666212165
B   13.89771058696483   11.55785134196484   9.06910972210053
B   13.94400268068440   12.59987827445052   10.45209794436217
B   13.97345575528146   11.83459334299082   12.01448070029670
B   13.92303762686981   10.13789655866111   12.15488533388010
B   7.87458674632583   9.05672575152921   10.75954869650427
B   7.85355095075273   9.83322268008405   9.19679971041877
B   7.87307810103241   11.54120020703246   9.03451537885552
B   7.88295770703517   12.55500839767214   10.46915435139250
B   7.89123256842855   11.79702012843042   12.03084271391782
B   7.89538341145058   10.09122641644565   12.16567870242733
B   10.93937630771997   9.44045153601685   13.64313191772167
B   10.88745535841601   9.24912465843170   10.75411135856797
B   10.89856693340593   8.89940706204067   7.85047199869611
B   10.89249314408905   12.15337758059341   7.89173548046378
B   10.95402499411193   14.04814556697569   10.24011629311381
B   10.95336303670070   12.77566636621641   13.45075774214913
B   10.90113935461610   7.46396452531233   10.91398643524911
N   8.21135841906297   11.21717650611794   15.23354510615475
H   8.26636507891202   12.10838382896999   15.74873883081925
H   7.27727691841225   11.09443616905822   14.82530964142161
H   8.41461358686127   10.48238959087834   15.92798050220873
37
F:    ...  E:  0.317061599999988
W   9.44164698961317   10.79858897290404   10.52604168596547
W   12.33429615611902   10.91540145771188   10.57616807015005
W   9.51151818482642   8.30068199714951   9.31835069447090
W   9.52793596197995   10.55336371669500   7.76262158744654
W   9.46905620422458   13.16709168467186   8.91390077507500
W   9.72152959080338   13.12150905349690   11.64548896964014
W   9.65298568725014   11.08551093234470   13.34462372981825
W   9.53019160057204   8.56345549153466   12.20638887064910
W   12.36277981312149   8.32599490765011   9.34319305321907
W   12.34282122660380   10.57289668654090   7.77278823766243
W   12.45983741333457   13.20171840247452   8.86605466673374
W   12.41511964900232   13.32510443893756   11.74673251001171
W   12.41260950691424   11.12153538585683   13.33398281152308
W   12.40723557183995   8.56383208737163   12.16477921929844
B   13.93803013359502   9.14742626471555   10.67909426953372
B   13.91993735739546   9.87802088377854   9.15508995865544
B   13.93110214662056   11.55892364117093   9.01125815622897
B   13.98911266866986   12.60893472567012   10.38528160432402
B   14.02640495251581   11.83475821872393   11.93924140261217
B   13.96980323228101   10.13802728963251   12.08194737668340
B   7.91725319939057   9.05671373550906   10.69691590435256
B   7.89372977763708   9.82721062745591   9.13762417130942
B   7.91641884217910   11.53915532370092   8.97523320065573
B   7.93513441799548   12.55567133379413   10.40720449275346
B   7.94544982807424   11.79660172225970   11.95488234557615
B   7.95053972538331   10.09357194218345   12.09840260163661
B   11.01964315568052   9.42757571901086   13.55214533033076
B   10.92982548003800   9.24033216968591   10.68780755127846
B   10.94149931145428   8.88727429661698   7.78238205403822
B   10.94414720299718   12.17653343690748   7.78984058891293
B   11.01656509863405   14.04257169262163   10.16872371043064
B   11.04441255173854   12.81077408563116   13.38628845962307
B   10.94308113866234   7.46467881373024   10.84959571648110
N   8.27780666474386   11.16388912969931   15.03020442506645
H   7.93808743149039   12.02929487060960   15.43055710286125
H   7.56349893103440   10.80712372352523   14.42208154362003
H   8.39904301421897   10.45894798430227   15.75552421098197
37
F:    ...  E:  1.53662591
W   9.34843502735201   10.81033249597103   10.68275090389191
W   12.30420219696273   10.90688670650557   10.63889698884089
W   9.46449971713076   8.30682529059539   9.41241348047334
W   9.46848004932223   10.55534444371884   7.91469391025283
W   9.40777155765058   13.17766779913005   8.99813675433912
W   9.63224468305967   13.12944629360141   11.74139377754557
W   9.57990476508132   11.12753380101400   13.62533524859859
W   9.47267876114387   8.57339303868986   12.27682493843650
W   12.29087025018818   8.33196541105977   9.42930567406873
W   12.28260043885436   10.55412244846197   7.85826375012649
W   12.40845019642994   13.22499388204328   8.94246016923128
W   12.34611344619834   13.33119024994056   11.83546725595145
W   12.38373442153329   11.12222615478069   13.44241540218381
W   12.33555534889637   8.56071681562307   12.23149849838340
B   13.87901693654590   9.14846246587678   10.76227369424564
B   13.87159377168833   9.86768962044927   9.23073859619649
B   13.86831732773199   11.55543165890836   9.07701925936933
B   13.91999467344243   12.60227596595493   10.46452367553010
B   13.94979738875350   11.83416157021214   12.01841015456521
B   13.90752354032114   10.14623795972967   12.16096278205583
B   7.84088184383334   9.06962638764823   10.81753602617723
B   7.82794255112867   9.83041515100380   9.26275678515914
B   7.85059201805614   11.54280936198467   9.08896557218056
B   7.85479875034205   12.58122828949005   10.49006616622802
B   7.87259646821335   11.83516057721710   12.07120807370904
B   7.87634598044086   10.15257111380068   12.31110376532250
B   10.95107520818832   9.47939195124380   13.58677427930140
B   10.86692239568945   9.26500441643626   10.76767257582737
B   10.87736271350383   8.85858431126721   7.83322057588461
B   10.89593545314256   12.18058796209124   7.88592655278774
B   10.94524189287570   14.00084627065362   10.25815351319934
B   10.98858560509958   12.78043569240884   13.42739208787115
B   10.87045033492367   7.45845398189058   10.94322556198986
N   8.46086850312647   11.24596367842151   15.29464797629146
H   8.11569215193530   12.10974023368043   15.72961418371950
H   7.75312028445768   10.82954705541377   13.71995035820873
H   8.29404178278771   10.43863193457684   15.89860805209967
37
F:    ...  E:  0.639158669999972
W   9.34619546834915   10.80405794654882   10.65377732689329
W   12.31016374572494   10.92152358650963   10.62929855492114
W   9.46971026755838   8.30211268731241   9.38375324972924
W   9.49032405817482   10.55305237407572   7.88139515897623
W   9.44282639581962   13.19054253452126   8.97012180330968
W   9.68663606732147   13.12814732261243   11.71168901015939
W   9.51489960462225   11.12895009756845   13.63064304131352
W   9.49979138999099   8.54631386303382   12.25818258632386
W   12.29820586917237   8.32733932017804   9.40925633139200
W   12.27487187488878   10.54178040661498   7.85284922524920
W   12.43145363564679   13.21625236657547   8.90667796670809
W   12.36978931638840   13.33082848863281   11.80980148193610
W   12.40893477084909   11.13500528865833   13.44528555679505
W   12.34309396798735   8.58805606138904   12.21501751493401
B   13.88261705217858   9.14693589247285   10.73651073998182
B   13.87428472563352   9.86317863506537   9.21401836589653
B   13.87955824936097   11.54646300912364   9.05614790552364
B   13.94553378562898   12.59846339591517   10.43946734194078
B   13.97034836526032   11.83230374430752   11.99841230136532
B   13.92455775710938   10.15382666038894   12.13706766635360
B   7.88077896718457   9.04052463950816   10.74351275908380
B   7.84150566602147   9.84027667703748   9.20852832249954
B   7.86905266064914   11.55879934000628   9.05961898014108
B   7.89105394388637   12.59792907231604   10.47552251285485
B   7.93909371405353   11.83112082633764   12.01685409327243
B   7.91368164305470   10.08060121271958   12.13997052925644
B   10.93779266077842   9.54754051150998   13.52915665692796
B   10.87454074381119   9.26615723799318   10.75173002791031
B   10.88054686022221   8.83582662033836   7.80793817948640
B   10.91124401826723   12.19471914342527   7.82710133782752
B   10.98530574944757   14.02645657203639   10.22189755313909
B   10.99660210498688   12.74483509035569   13.42280369596948
B   10.88959603602806   7.46320524104045   10.91685166390067
N   8.62419877640255   11.26884478538999   15.37503667317263
H   8.16163249511744   12.09513959263545   15.77811541627229
H   7.35663720994051   10.60390394153326   13.10498923037999
H   8.64130352520942   10.52362291730723   16.07286806679955
37
F:    ...  E:  0.337242849999996
W   9.36997497036949   10.76923640396309   10.57407406771713
W   12.33341907146624   10.92945272565677   10.57657611871896
W   9.52099546381074   8.29341311700755   9.30050922558266
W   9.54309275040015   10.56269940171398   7.80083776975218
W   9.50670139716158   13.17227538712744   8.91404284335186
W   9.80890846160055   13.09036251077755   11.62178503652833
W   9.55589096511071   11.12578307745758   13.55213028598254
W   9.53946657238304   8.52748684222846   12.19816286712392
W   12.36368319430850   8.32183590579170   9.33992160311261
W   12.32111184777564   10.55801048754334   7.78921801497223
W   12.47767297367939   13.20434550803978   8.84529634186913
W   12.43271065110222   13.36390560296968   11.75071223761196
W   12.43498011482074   11.15250270654569   13.34974146619127
W   12.38771004741507   8.58160001092107   12.14888568153232
B   13.93028487704331   9.15000440432155   10.67576704186170
B   13.92137816785212   9.86468873468688   9.15411472165547
B   13.93012596652120   11.54306746621478   8.99686539260412
B   13.99327692578052   12.58749473310964   10.37526923142079
B   14.01863217966630   11.83719492485648   11.92701701807126
B   13.96840795788970   10.15247320970217   12.07561773775449
B   7.94198072725678   9.01962910571554   10.66476637262100
B   7.88933483610349   9.82786427999826   9.12005128110040
B   7.92299933878176   11.55841143119951   8.99086155922170
B   7.97866756101198   12.58753910796206   10.41102953416383
B   8.04533963288163   11.84049703503272   11.96773748395845
B   7.93440747080555   10.08483089085964   12.10738618471606
B   10.97577859809572   9.54580047032323   13.45942289841563
B   10.92208674652603   9.25440539856602   10.67647201587351
B   10.93913941431018   8.85081052452285   7.75266502631283
B   10.95947331672795   12.20223227683152   7.72925963524693
B   11.04827401039821   14.07429216083836   10.14788262955314
B   11.06447582340700   12.78457475736121   13.38554756597411
B   10.94190413690249   7.46520907547150   10.84807450108930
N   8.64941744490705   11.24810959599116   15.28432897668072
H   8.02031233302228   11.99695091339006   15.59614140815941
H   6.99372124745371   10.32810891751677   12.83352628654654
H   8.81818810946695   10.60251759079930   16.06215694711177
37
F:    ...  E:  0.128648059999989
W   9.42001262015248   10.74538400449747   10.48220528135904
W   12.37092457012067   10.92892732521848   10.51223012375132
W   9.57980587422888   8.27917884250794   9.21959840835442
W   9.59742026715798   10.56805472600359   7.71832834911277
W   9.56777513260047   13.15625045645527   8.85752762575987
W   9.91734431695756   13.04308568848991   11.53827308420713
W   9.57640515091610   11.10398297390782   13.47792287780144
W   9.58232201460871   8.50576653825898   12.11850257307267
W   12.42459857587087   8.31999032619224   9.26688855767230
W   12.38429562504835   10.57577457430063   7.71410020419581
W   12.52201405059378   13.19483210622815   8.79025953306637
W   12.48784760289533   13.39669986789731   11.69162539219486
W   12.44550374458746   11.16828939482677   13.24368003708466
W   12.43248956668335   8.56941895361705   12.07668929170949
B   13.97884930624634   9.15935900819091   10.61364637301152
B   13.97497984171317   9.87200889380027   9.09216556764460
B   13.98871131050126   11.54461209556817   8.93625425732211
B   14.03874632354241   12.58352423304645   10.31064162097975
B   14.05729486213031   11.84191130591118   11.85400748873555
B   14.00560211827089   10.15329267921351   12.01805523333149
B   7.99036491790738   8.99790370926729   10.58805883015425
B   7.94044108389153   9.80883925501278   9.04023548589748
B   7.97854673425000   11.54495623717216   8.92329596917901
B   8.05427922427494   12.56854046555954   10.35115027348345
B   8.12349045335308   11.83669278514156   11.92290438184105
B   7.92505451417713   10.08540294550115   12.07808537670392
B   11.01248087828493   9.53503773573140   13.37584369100492
B   10.97621862285339   9.24209982436719   10.59381689719102
B   11.00212183021758   8.87693211548148   7.69394506693977
B   11.01139370296771   12.20184994492635   7.64599941898801
B   11.10422573165869   14.10574406096839   10.07957240990792
B   11.11436535097140   12.81639190434498   13.34623442855340
B   10.99632483389479   7.45872493222532   10.77427408829472
N   8.65723339244047   11.22479581204318   15.20248594428996
H   7.89572494402111   11.87029146929375   15.42965973069884
H   6.82080001337943   10.16527808193437   12.53879860639792
H   8.92502450510338   10.68789639803792   16.03803658113577
37
F:    ...  E:  0.0359658400000171
W   9.46681896276914   10.71773072413927   10.40489413494716
W   12.41999852532153   10.92627067462352   10.44179079791876
W   9.64554302701396   8.26921652381561   9.13728338317000
W   9.65655954142815   10.56683020746092   7.63236277457215
W   9.61965407161569   13.14789892629688   8.79054305169875
W   9.98930261680439   13.00727428486871   11.46072651956985
W   9.58625820829356   11.07497725145104   13.40193943696028
W   9.62136234525502   8.49552069912432   12.03029697594158
W   12.48691676743458   8.31947716680870   9.19161550537042
W   12.44814551137025   10.58433207605034   7.64381561776624
W   12.57085214488120   13.19241252269206   8.72852252358950
W   12.53344167142546   13.40878974395768   11.62672265673980
W   12.46410050401669   11.17280257677158   13.15307817182984
W   12.47957244864078   8.56379330077710   12.00583420890920
B   14.02896637805194   9.16551983288318   10.54900854134489
B   14.03434100196591   9.88020698109351   9.02743816853550
B   14.04894612439417   11.55009642151326   8.87264923782043
B   14.08621553287062   12.58891021493192   10.24587839933429
B   14.09797693260542   11.84376784692430   11.78408565534614
B   14.04441124896577   10.15626702128491   11.95771918549869
B   8.04058671424624   8.97620271838301   10.50083087378532
B   7.99955885832076   9.79431880970290   8.95324096836120
B   8.03592345847147   11.52812593258799   8.84837620444370
B   8.11554789648119   12.54872679227991   10.28537997726512
B   8.17548598755445   11.81411566827041   11.85338830339596
B   7.95189353425218   10.06187680804389   11.98408854989546
B   11.04912098616670   9.52469065642422   13.29522696841114
B   11.03606146805438   9.23105466208810   10.51458309257117
B   11.06513144864513   8.88912005580984   7.62273969058838
B   11.06623837889700   12.20206573578332   7.57291731305460
B   11.14994772482615   14.11415531230561   10.01060248192526
B   11.14710925554615   12.82122298275132   13.29652957960561
B   11.05371541134042   7.45016850959879   10.69803496390329
N   8.66285289868527   11.20115413169339   15.12445718326536
H   7.80705637450715   11.73344460844546   15.28954381851985
H   6.74736603307578   10.08914378254966   12.22094640048044
H   9.00181265257145   10.78744057133409   16.00121774775939
37
F:    ...  E:  0.00096051999997826
W   9.52534145771897   10.69973450427359   10.31463702124820
W   12.47211440028053   10.92170749753771   10.36995506379347
W   9.71500717504990   8.26004808704934   9.04988607637651
W   9.71842400839363   10.56437990324682   7.54735045217379
W   9.66582465465551   13.14298972307514   8.71594732894757
W   10.03822492766761   12.98589429275557   11.38354563224081
W   9.59939922715623   11.04784983804513   13.32517973318727
W   9.66993595496109   8.48130657332093   11.94072586354539
W   12.55104576923688   8.31861431528573   9.11239162819208
W   12.50670053174657   10.58957075894734   7.57628880297447
W   12.62036302831492   13.19457361082919   8.66625813355471
W   12.57026927095914   13.40855141720181   11.55856310238141
W   12.48456900176029   11.17149478144011   13.07056229373448
W   12.52696279071338   8.55925365603708   11.93657985088933
B   14.08083125929172   9.16898714160097   10.48285763042060
B   14.09314474603796   9.88840958128784   8.96226206137591
B   14.10583498220671   11.55775697193689   8.80645675339223
B   14.13584798836497   12.59458008526909   10.18228158254982
B   14.13915298683430   11.84403915014546   11.71805286071169
B   14.08591367920088   10.15791749762528   11.89531629115115
B   8.09761687170907   8.95677989287787   10.40713366176668
B   8.06403569278318   9.78127049244176   8.86268012457455
B   8.09162843344999   11.51363676945714   8.76657166546668
B   8.16520476154483   12.52884089299214   10.20839490326646
B   8.21408127161115   11.78447184838577   11.76846309768444
B   7.98299778994592   10.03388543606840   11.88046571128404
B   11.08598687375294   9.51134573391374   13.21784728081004
B   11.09734852833308   9.21904636250383   10.43586239546813
B   11.12973617473776   8.89083124085496   7.54053031722096
B   11.12131648648700   12.20439444657143   7.50234284245020
B   11.18818778140400   14.11099897874403   9.94362298927478
B   11.17003986330456   12.81679412784916   13.23563093366856
B   11.11634330124862   7.43944295155307   10.61488736026296
N   8.66461714689256   11.17441952746618   15.03977465226361
H   7.75003503408775   11.61104635052465   15.16166596734958
H   6.76005436386847   10.03446006204596   11.90722188808906
H   9.04350763941371   10.87832135396520   15.93945190138405
