37
F:    ...  E:  0
W   10.48635122914824   11.29082206554630   12.01243503899715
W   13.42571789717974   11.30444506030133   12.02445774503061
W   10.54203332583565   8.77675540902314   10.79707995955112
W   10.57012601704943   10.98897193044232   9.22477167627163
W   10.51472594097643   13.66568663773955   10.29541420556247
W   10.62502623922480   13.67473615230032   13.09223244744555
W   10.54111127069472   11.57151740593500   14.79099641268973
W   10.50770494352892   9.04624756755491   13.66134359922571
W   13.37668847177385   8.76594857534300   10.82717972421990
W   13.41573740606983   10.96634051311951   9.22884495057104
W   13.50616386360394   13.59851589721187   10.33624845203423
W   13.37028699574174   13.69982269844081   13.13528338787840
W   13.36382933086937   11.56042946619294   14.78788457888409
W   13.36980311211529   9.02979297638225   13.66937448429717
B   14.96984121088996   9.53709314179539   12.18146856152280
B   14.99380378190318   10.27193102147113   10.63140501228368
B   15.01136897759433   11.96201921700107   10.44755542955420
B   15.03989087722833   12.99814893533983   11.84416272999943
B   15.03103113095736   12.26367218269475   13.42700725402106
B   14.97944337570309   10.56264854696116   13.58278174245872
B   8.93563095401282   9.55582530447006   12.14393664611200
B   8.94362017719074   10.31187554759551   10.59373622373662
B   8.98190758787520   12.01227830336100   10.40423674108912
B   8.94698813312143   13.04202192021208   11.80056807788052
B   8.91098794971817   12.30454799130617   13.39378754304070
B   8.92261148797446   10.59732139102988   13.54549856194604
B   11.94113546888922   9.92393139465487   15.03876363541309
B   11.95160994893726   9.71252173311242   12.17157002881293
B   11.97441825292739   9.30768288489299   9.23829662389143
B   12.00104393172278   12.56570872536870   9.28701964538695
B   12.00629441661000   14.48498390108056   11.59648173584049
B   11.97039021439497   13.22883996639109   14.75989727589842
B   11.94127303762594   7.91669536551485   12.33494174018251
N   9.43035088392423   15.24241996272676   9.12536468288451
H   9.84880710534115   16.16635160539227   9.26762646949933
H   9.44449655237492   15.04514666149253   8.12006994407689
H   8.44994163960169   15.28849508093290   9.42247017214032
37
F:    ...  E:  0.0669701300000156
W   10.49643391209052   11.29866125417020   11.96127892189305
W   13.47254538345155   11.33539098468629   11.93896061493380
W   10.57679831795876   8.78965285963376   10.78104479166555
W   10.54371192493774   10.95953271676332   9.17948517589543
W   10.55663481442659   13.66386035428748   10.30137306607719
W   10.62801767112415   13.75191221885379   13.06934983678771
W   10.59485809717733   11.56902253446674   14.75112124538662
W   10.56285944839280   9.10435275471001   13.64915509273763
W   13.41402715551155   8.79034943782703   10.79517577346370
W   13.50628281507710   10.92031421841948   9.13058804283082
W   13.51787069023168   13.65747898933045   10.31198974910950
W   13.40444881924364   13.78689915648246   13.10263619236665
W   13.37136486746087   11.56044542853916   14.72334978870406
W   13.39350845480371   9.09560173994455   13.65235104978518
B   15.00647815400293   9.57218527567954   12.14264750867163
B   15.03984863829140   10.31306299921030   10.59676979083307
B   15.03871382506830   12.00735888983374   10.38286192045338
B   15.04662312635654   13.02934561957378   11.78284091950296
B   15.03681615543972   12.32145800585615   13.36885456095062
B   15.01690256237607   10.62458776284780   13.50787090646342
B   8.95635298434351   9.56969490513570   12.13480616018164
B   8.94647147222963   10.31815313348962   10.58128490195032
B   8.97954877626669   12.01666101693814   10.38713121551724
B   8.96867037109368   13.04165873516074   11.77138399401990
B   8.95414792816184   12.33566856724620   13.37058123452297
B   8.94532359355618   10.63190982294834   13.51673171426962
B   11.98158080714377   9.90313416851146   15.10214531719234
B   11.98857042075391   9.76296731333963   12.13189613867545
B   12.00315569096075   9.31839057994874   9.20393820829007
B   12.06037022247096   12.32663847415290   9.65533277117832
B   12.02990438717383   14.52915401739659   11.59874149814147
B   11.99554529953695   13.23952576331361   14.65887467916128
B   11.98893507886812   7.96819719176438   12.31047411254714
N   9.22722250595080   15.11524177461886   9.26179575720198
H   9.40000698588434   16.09301239559179   9.55381921106135
H   9.29851202589766   15.09536695557027   8.25646095300930
H   8.29312975661504   14.82534512408800   9.61709032489847
37
F:    ...  E:  -0.0594646299999795
W   10.54075005254454   11.31868742252310   11.88295252129083
W   13.47437987394962   11.33306738220410   11.88147190649093
W   10.57386394412663   8.78200899659514   10.77103286543336
W   10.57139948860832   10.99837763617083   9.10898117328414
W   10.68081843296734   13.65636465780572   10.30050847939321
W   10.61807846705738   13.82739980600264   13.02406137781907
W   10.56990345955981   11.55978355774244   14.71565641193530
W   10.56571647402947   9.13861986869665   13.65377761792110
W   13.42718492393099   8.78592709670568   10.78406051491469
W   13.47992784457687   10.94812625117579   9.07649342993541
W   13.42046432690498   13.65879709361896   10.31121397733043
W   13.40243196362150   13.85039604794449   13.07203819275722
W   13.38676752883532   11.55204932932747   14.70718278156714
W   13.39969137816314   9.14029998466318   13.66414593745426
B   15.00551200200478   9.61619239280665   12.10209867960259
B   15.01323830929631   10.33407743545082   10.52067240270294
B   15.03238684178553   12.04427659824134   10.33060797980192
B   14.99976697229670   13.06751492201553   11.72712097859586
B   15.00778059062190   12.35719634907329   13.31419383106899
B   15.03669999943854   10.66205069086854   13.46093800509088
B   8.96358830252051   9.60226589778173   12.09207135179480
B   8.98912694874696   10.33192410944459   10.51586783725834
B   8.99307245158248   12.03333686972574   10.34694435701490
B   9.01011473810555   13.04513092630960   11.71958134295096
B   8.97600819487870   12.35529071591795   13.31587027292418
B   8.91992348754901   10.65224315024032   13.46202032420356
B   11.97568548374979   9.91797429001370   15.13771329085535
B   11.99429300996494   9.73583932810789   12.12267636036094
B   12.00518196892685   9.37172706953338   9.24650785635623
B   12.07320057312775   11.92471351934732   10.38732309439457
B   12.04784345962846   14.68062477334191   11.62930678243767
B   11.98754328293281   13.16955242349004   14.54268774061410
B   11.99163686543390   7.99509265485227   12.32101069354968
N   9.26250758901797   15.06442707650904   9.29354772222704
H   9.23063242289679   16.08340854534415   9.59877553620426
H   9.10229646484806   15.07540019843456   8.28851920268830
H   8.51277502210197   14.57202807230569   9.81256031010692
37
F:    ...  E:  0.904999190000012
W   10.47328062365608   11.36156119491057   11.90461060090155
W   13.43533821919586   11.34398902573452   11.90945667681944
W   10.55376051155537   8.79718725726213   10.78880273485060
W   10.51800451541899   10.95818950952895   9.10859859722533
W   10.72405929129521   13.71072230571845   10.19184014318644
W   10.56048283755181   13.79948822868152   13.01611174328388
W   10.52646464299737   11.55758604266107   14.73950275904153
W   10.52150035772043   9.14115115887448   13.64617202654332
W   13.37736080368185   8.78608730509367   10.82158714852026
W   13.53480439014939   10.89439104986666   9.08603746880619
W   13.49502064640313   13.65302265498996   10.31317438874527
W   13.37255366568395   13.80316741733548   13.07604990319501
W   13.33421052250909   11.55577151514450   14.72609126082842
W   13.34676213961639   9.11358190419321   13.66557271505016
B   14.97643867472470   9.59056133143941   12.15269807933274
B   15.00531416518413   10.30596819461175   10.59106449396639
B   15.02334142484371   12.00551106861277   10.38665207464136
B   15.02021947326073   13.02690888141391   11.78875489759281
B   14.99100341634008   12.33034033394003   13.37368104056270
B   14.98331993277833   10.63577925276343   13.51431770299141
B   8.93473884100288   9.61699681377210   12.10389727593817
B   8.95629949939966   10.32643312865595   10.52564008198375
B   8.97426420271555   12.02333685010926   10.32388118664245
B   8.98544047529036   13.12494552664129   11.60728530966362
B   8.91082905560438   12.38030003057257   13.30632298293414
B   8.89194370643573   10.68102078543003   13.46165328331779
B   11.93630696252817   9.90529090419176   15.13253225323529
B   11.94246239451489   9.78671781198434   12.14170530153853
B   11.97381480281489   9.35351042278539   9.22814630836915
B   12.10102129069152   12.11707686915031   9.92037614864859
B   12.02251503145227   14.58013445417977   11.61166430578126
B   11.92318037911713   13.18311211639571   14.54955303349603
B   11.94936869346881   7.97680205708575   12.32601316273882
N   9.47935979199039   15.14032788032187   9.23971980179053
H   9.45955346905764   16.15618980984343   9.45447984822345
H   9.07044252093801   14.98165088217893   8.31580957598198
H   8.95741176874162   14.53738116425586   10.19273682396214
37
F:    ...  E:  0.606576990000008
W   10.45259124901381   11.42056227280380   11.90496440312983
W   13.42803637418386   11.34154891335338   11.92912848103057
W   10.55525206306455   8.81801262126761   10.78800228333466
W   10.50938910201881   10.96694037253941   9.11209599254687
W   10.67315492019021   13.82313523682904   10.07748201601734
W   10.55217155524070   13.79606326003734   13.03065164819433
W   10.53198023453646   11.54660131666248   14.77164102566521
W   10.50711733331246   9.14177956936877   13.64070752465748
W   13.35737796118035   8.79154220189654   10.82448934605276
W   13.53037517196711   10.89040835959378   9.10780854337541
W   13.52310246527703   13.63695088048161   10.31010231215939
W   13.36928358881821   13.79512502756278   13.07071909038575
W   13.32120781748965   11.56328929964200   14.73366852899900
W   13.34051754859368   9.09901229287147   13.66667714796423
B   14.96558760817560   9.57933293213151   12.17002197770541
B   15.00519310072598   10.29671566562202   10.61596291492844
B   15.01986405890902   11.99540468524190   10.39953956191435
B   15.02867064139893   13.01596104228342   11.80400137456025
B   14.98924539348856   12.31866497332909   13.38506013519357
B   14.97141043642023   10.62220497633984   13.53787870324002
B   8.93186794289583   9.62902302615532   12.11130474158892
B   8.95292729075934   10.32594013744929   10.52911635139733
B   8.95538189628304   12.00080769978060   10.31171918390152
B   8.95838365438087   13.15189230347173   11.54134836186617
B   8.91563824374670   12.38033987518110   13.33559128463917
B   8.89284338689932   10.68878191657089   13.46959471598453
B   11.93284510224388   9.89399578452363   15.12123891725814
B   11.92664759561907   9.79405385972411   12.15559163125664
B   11.95961766850253   9.35311222424548   9.20588361619119
B   12.08878135016334   12.20991614311773   9.78032675919617
B   12.00786605958163   14.52279510250839   11.58370640536005
B   11.90570425633829   13.20247686333071   14.55005197107301
B   11.94302037596024   7.96686740323362   12.32583315164517
N   9.71587002361240   15.26277213459097   9.00121696820549
H   9.57079636649875   16.22421364558642   9.33800174475688
H   9.03390597942645   15.01711125429137   8.27542036583828
H   8.91856732341518   14.15883786671085   10.72564395911647
37
F:    ...  E:  -0.026941910000005
W   10.46777432126858   11.37401885937281   11.91700163398750
W   13.44097627202583   11.33169576722748   11.92417826631449
W   10.56025771766213   8.80133623617757   10.77906999180787
W   10.52615100712398   10.95287452517751   9.07580085214445
W   10.49650561119873   13.77495051270738   10.13951065365694
W   10.56048760519984   13.82767541379636   13.01909236737747
W   10.48471842051168   11.58563878166671   14.72676334855018
W   10.49137586448908   9.14892040521234   13.63195307937365
W   13.36940711884096   8.77834236628246   10.83223150363377
W   13.50469652306098   10.91673580007038   9.13932970663797
W   13.52100200925879   13.62035538641450   10.29119058699172
W   13.35109172065611   13.82263969006222   13.02979081320152
W   13.30585590740646   11.58085153389466   14.73037842994049
W   13.32123259125477   9.10565294441423   13.68856023679083
B   14.95670043736172   9.57812750958288   12.19079746809786
B   15.01313165221484   10.28549820050176   10.62039419431416
B   15.03845150551289   11.99822375144154   10.40283946843291
B   15.02966246622632   13.01282768121315   11.79286475202017
B   14.97487072105875   12.33363003450139   13.38582633948353
B   14.94635620624402   10.62525179266442   13.55484440476481
B   8.92192158604439   9.63250276782675   12.08214896653870
B   8.97366500535819   10.31026690798093   10.49064880653187
B   8.99196515745315   11.99168575779874   10.29903597443782
B   8.82727646405214   12.99001058510287   11.66893667333613
B   8.91045806433291   12.36396311308100   13.32638049849380
B   8.86504191386498   10.65934169615301   13.44984706025935
B   11.89365887683292   9.95057006023692   15.10993953886035
B   11.94555558299288   9.77025814946285   12.15316914551462
B   11.98076019438741   9.34456908039836   9.21320260460910
B   12.00431476644146   12.31013271634057   9.68513582180968
B   11.97332204397771   14.52915199264444   11.53212637715773
B   11.91575175184857   13.18692256929199   14.49354039560035
B   11.91778464678964   7.97290031708397   12.33680667403966
N   9.86023111346350   15.26111453543227   8.94149681971301
H   9.61487037830684   16.19751647526703   9.28832154316511
H   9.43395407715529   15.10000131704206   8.03345851132750
H   8.85095583845232   14.21603790680542   11.26557963141355
37
F:    ...  E:  -0.112093889999983
W   10.48890338358147   11.36516306001413   11.91132817126208
W   13.44470860862540   11.33485165318566   11.90194922079166
W   10.57307517484186   8.79091053296146   10.77223351881071
W   10.54047428471434   10.93918030052665   9.08110501283041
W   10.52357393328451   13.77636023941004   10.16407671873231
W   10.56848873187273   13.85964937367245   13.00291740546924
W   10.49154567249717   11.58378587902187   14.74321664022553
W   10.52260629318643   9.15134935913998   13.61678399603817
W   13.38989515120373   8.77787184217478   10.82165273210829
W   13.49371668843185   10.93470531168154   9.14468910460840
W   13.49169456043251   13.63826361006311   10.28742260761827
W   13.35509654543624   13.84333475586330   13.00921722255107
W   13.34338998461090   11.58754512729669   14.71322095065828
W   13.34057566472235   9.11912214859848   13.66495550818745
B   14.97602121187673   9.59943867591920   12.16342588487049
B   15.01970932663853   10.30280199172006   10.58947874606684
B   15.03713251379391   12.02304395618044   10.37415688925328
B   15.02323000903006   13.03422020952207   11.76437626009954
B   14.98113614623243   12.35661872967123   13.35060949177910
B   14.97162956203431   10.64663133292064   13.52171638921440
B   8.94361446268487   9.61619267337684   12.07499417485574
B   8.98710304649966   10.30198221320523   10.48945881032808
B   9.01783525064183   11.97927710252609   10.28757834222224
B   8.85311225337785   13.03319120809802   11.67124906682660
B   8.94169435390031   12.34548944533589   13.33446571703938
B   8.89039085560878   10.65400130223868   13.44854712395016
B   11.92628977474074   9.96586032496889   15.09247446833746
B   11.95213506590858   9.77528157860898   12.13204276583521
B   12.00003545356772   9.33851572814142   9.21688126813404
B   11.99452895697361   12.23306133338467   9.88527677148443
B   11.97488734473218   14.58038635513960   11.53888331157618
B   11.92392112069785   13.16823807862689   14.45732430018068
B   11.94793103778786   7.96809184577753   12.32681214266792
N   9.82859968258576   15.22747266421582   8.98174600750088
H   9.46455281135483   16.10340860594389   9.36883557034304
H   9.64548801570830   15.16171683828018   7.98160630419691
H   8.37347020651249   14.12517775291893   11.35548452367633
37
F:    ...  E:  -0.319222400000001
W   10.47383823839349   11.37101357570569   11.89218424094409
W   13.45061516222305   11.34554633814603   11.89935589704232
W   10.58003547916378   8.80158032178650   10.75107643386105
W   10.55690705854940   10.95494250217118   9.08236794407778
W   10.55476225820524   13.77471183624051   10.16003863312864
W   10.58618723245746   13.87455745197151   12.99760695834476
W   10.50878474895999   11.57977156471856   14.76620518208350
W   10.54834106427870   9.16104659046325   13.61721756061448
W   13.40246348977423   8.78865273293390   10.79613755198762
W   13.47968570343771   10.96962743386225   9.11937529024947
W   13.44992996098655   13.63794170088067   10.27616597900184
W   13.34192993299097   13.83011252324889   13.00111464700566
W   13.37993643438704   11.60066836170144   14.70316711027617
W   13.36477199572236   9.13843627319013   13.64099691189855
B   14.99159937552055   9.62213227023873   12.12667506980951
B   15.00858756249684   10.32427201669579   10.55246559730283
B   15.02309754851414   12.03998618827035   10.35404151308563
B   15.00931202945993   13.05941710743117   11.74111864039706
B   15.00215619577197   12.36938366088152   13.32346716786368
B   15.00466609322917   10.66271863379326   13.49477432961230
B   8.96138910094173   9.61321601387080   12.07665494955328
B   8.98373276585030   10.31560922603927   10.48676423064321
B   9.03736751641647   11.98979595391697   10.27308399248682
B   8.89895877709103   13.09190914822433   11.63969817971719
B   8.98560317209809   12.35071339239667   13.34390097765641
B   8.91420843728665   10.66005457832320   13.45043224784115
B   11.96137471981750   9.97789153177458   15.08429723231204
B   11.96109728472514   9.77877286381111   12.11555345353801
B   12.00947470870161   9.35239880775983   9.20777255570504
B   11.99921086258230   12.11454125442379   10.11645585268364
B   11.97942341846831   14.61582588421868   11.53813349320391
B   11.92662105910232   13.16515704183546   14.47987338330600
B   11.97436947315812   7.98603307909006   12.31022941585961
N   9.80588693388123   15.20036282111318   8.99655350586409
H   9.34024499400704   16.01454640912930   9.40948875947386
H   9.77412860653365   15.22223408538600   7.97986266790001
H   8.01149374514704   13.88661196468640   11.43788558399935
37
F:    ...  E:  -0.428610960000015
W   10.46791655739014   11.37216802194793   11.89904080032729
W   13.46006459795447   11.36290150430326   11.88908827758918
W   10.58996878394357   8.81026464172685   10.73816565986841
W   10.56031339453356   10.97469968912861   9.09232791956650
W   10.52470701970153   13.76222156599876   10.17065639805216
W   10.58442058174791   13.87443676696471   13.00619441158375
W   10.54857252587076   11.58086107220463   14.77919635680695
W   10.58689830597416   9.15214937756024   13.61957553275755
W   13.41940998503919   8.80844442398717   10.76116267462340
W   13.44539232798386   11.01046976649015   9.09472670153764
W   13.40335572548822   13.64687493062845   10.26754807826560
W   13.32344163416448   13.83375382101814   12.99071756397648
W   13.41456168107267   11.62592196024020   14.69061270589204
W   13.40782460879217   9.15771432667687   13.61162970498506
B   15.01303690610758   9.65165895967437   12.08199231680890
B   14.99681126121431   10.35535281599548   10.50533241901415
B   14.99931071406795   12.06926952864366   10.32364082250265
B   14.98771438375662   13.09655245782455   11.70846439743872
B   15.01746617926727   12.39552694316720   13.28848857495589
B   15.03651107642087   10.68929287272737   13.45849717576900
B   8.98674481761517   9.60403063600818   12.09185251446042
B   8.98425010631146   10.31891153196272   10.50039936251413
B   9.03587435824797   11.99068192740111   10.28713956040684
B   8.90024189818254   13.09192088783990   11.65997905009261
B   9.02057009289316   12.34192783479844   13.37390883967895
B   8.95077067213026   10.64783442642280   13.47266073376037
B   12.00702606836445   9.99142226938044   15.06219402849719
B   11.97927325685913   9.78010179093270   12.10309998873023
B   12.00874093993977   9.36984467183543   9.19333559442828
B   11.98272146369778   12.06763880933616   10.22385843777967
B   11.96563490049688   14.64177587199458   11.53718719981443
B   11.93882703888814   13.18905070177128   14.51519835116344
B   12.01083718691799   7.99939132071553   12.29144562720270
N   9.78663217848073   15.17250540970232   8.99466419550070
H   9.15971911497848   15.88337659409867   9.38706489676584
H   9.94577315648809   15.34004929454585   8.00788698499580
H   7.79085763934898   13.58119371467702   11.56325928221803
37
F:    ...  E:  -0.452983869999969
W   10.48274187226846   11.35858978163737   11.90442103942112
W   13.46035688526350   11.38069101043949   11.85683719557999
W   10.60312436399222   8.81109432852385   10.74831157285463
W   10.55053508217299   10.97333269589904   9.09337369011063
W   10.46460109872391   13.75002570544394   10.16720571198738
W   10.57593639887713   13.87845702837350   13.01136040178655
W   10.59586101563570   11.58051713111043   14.77871370513686
W   10.62402562170124   9.15810630103440   13.63563564215659
W   13.43692909842288   8.83101191005965   10.74265269620693
W   13.42720627050055   11.02336986171198   9.07228338338814
W   13.38624019849760   13.66216679402367   10.24119925092675
W   13.30961513202348   13.84897141557505   12.96577170785109
W   13.42056051004470   11.64417378288795   14.65565002763477
W   13.44410629523808   9.18530007995932   13.60273188746367
B   15.02985399365860   9.67864019032333   12.05124675735258
B   15.00183507185538   10.38089456583455   10.47232224314036
B   14.98558093895485   12.09112808296021   10.28369818519233
B   14.97611990672756   13.12344029887914   11.66679481285261
B   15.01576040906874   12.42708563940900   13.24836921787548
B   15.05607823887785   10.72492084589586   13.41806938529880
B   9.00416660120034   9.59166398499462   12.11639805851097
B   8.98838853166485   10.30637982858790   10.52507689057360
B   9.02531429811454   11.97428054418218   10.31280601951295
B   8.89883403452440   13.06134479242086   11.69544651206464
B   9.04626675110643   12.32920603408622   13.38869396921962
B   8.98170012658464   10.64049801899476   13.49172789872732
B   12.04528015601581   9.98138942409842   15.07886375686573
B   11.99911284138556   9.78165735577335   12.10018896238538
B   12.00512135970958   9.37107909514542   9.19043808078305
B   11.96039967395867   12.09259834392526   10.19836100018638
B   11.93965700600473   14.63253610700072   11.51920948598721
B   11.94905203164725   13.23517020931680   14.53251120191056
B   12.04219023858794   8.01113283738726   12.29283539624154
N   9.74496721729152   15.17399776370838   9.01407629289741
H   8.98506660942147   15.77191594818858   9.34973536877116
H   10.08661910733327   15.52869057390364   8.12130124052136
H   7.69298815327398   13.24673482863398   11.69787449095409
