39
F:    ...  E:  0
W   11.98460294593974   13.09662052225992   13.75109409114492
W   12.18667353907991   11.05119629917326   11.92379705042754
W   12.12977117117969   10.47629798235020   14.63747801865896
W   12.08813674825606   12.52354122774264   16.44878193917962
W   12.08360500145886   15.14759869972888   15.58489912749463
W   12.09778475865560   15.76560106170923   12.90056768356308
W   12.14208408839215   13.65955139062762   10.94065901515283
W   14.87068311390292   10.48146862060440   14.70405631821350
W   9.08414238055919   13.08728622924329   13.67664524397571
W   14.98152969405145   13.10831885670469   13.84680555987104
W   14.79684148424454   15.18413698283759   15.66348243422925
W   14.89535992166822   15.79881347421614   12.98002868532399
W   14.96953244988008   13.66005908669857   11.07427016447427
W   14.94108164729440   11.04300320922812   11.97799100904043
W   14.79995245358331   12.54698199871850   16.53723791717859
W   17.90424891089987   13.14532738871215   13.90695013436533
B   10.35505910382695   13.61836144627328   15.37485604723501
B   10.38346433591263   14.80036268230438   14.05569233940205
B   10.46133448463187   14.26725380461884   12.39132624127117
B   10.44293747979310   12.55138090179785   12.05052763410816
B   10.42277002453517   11.37442837530243   13.37167495972072
B   10.39058246209058   11.90853175940177   15.02990096537303
B   13.54069822988758   9.86907920772556   13.11682029792069
B   13.46128600762163   10.84788442115961   16.31337883365594
B   13.58473698284787   12.06741480003024   10.61056491001960
B   16.62732210244355   12.59637137095249   12.22129812349460
B   16.61336713687518   11.41773612770532   13.53838417039262
B   16.54344664239213   11.94794084137196   15.19469294320805
B   16.54299708183951   13.65667604228878   15.53420218617378
B   16.55977177034310   14.83834233009750   14.21170060737628
B   16.56501521577790   14.30655966186221   12.55315805065724
B   13.45379058500669   16.43955230461926   14.47560567731213
B   13.54656473870765   15.37240838920312   11.24342054463372
B   13.41494230984359   14.16300746514422   16.97951068806797
B   13.52581275578286   14.15405064515598   12.63308336069038
N   11.11117687728314   14.04746904341793   8.96596649262298
H   11.61561988106411   14.78184988274172   8.46144575710772
H   11.10186359844879   13.20893484496733   8.37948759242247
H   10.14463096965522   14.35382170695963   9.10377827049697
39
F:    ...  E:  0.0528787800000146
W   11.96002468001782   13.08462713381776   13.76957427892821
W   12.15775330070500   11.03714202667664   11.91709868893411
W   12.12768346083554   10.46417190090497   14.63252017204179
W   12.08522152075126   12.50532486507164   16.44680369365737
W   12.06447666513352   15.14152254783238   15.59992902693431
W   12.06018833063605   15.75684703183772   12.91469328017943
W   12.11781042630617   13.63270953889630   10.97172362088281
W   14.86303535761485   10.46968699728487   14.68201695595686
W   9.06395739976793   13.06634522490299   13.70529500690045
W   14.96191229269391   13.10245782977788   13.83679959362092
W   14.78197398692877   15.17708210093026   15.65767032172221
W   14.86485061080880   15.80050731449804   12.97653791327956
W   14.92733075040690   13.65758812252369   11.07412840288142
W   14.93111519473689   11.03168267398963   11.96206423069037
W   14.79600964205731   12.53695097461670   16.52174279449034
W   17.88561493340103   13.15202315728068   13.87767116460659
B   10.33803636516719   13.60309450469255   15.39476273392275
B   10.36086141585275   14.78550815272989   14.08075302190452
B   10.42762048824581   14.25083516522503   12.41510193877307
B   10.41227234190165   12.53087154480798   12.07301339548549
B   10.41382652740278   11.35289839308721   13.38120722893584
B   10.37160237375873   11.88474973809905   15.03976943018455
B   13.52679416045560   9.86221784422960   13.09662565215151
B   13.46253017768549   10.83302435728957   16.30249898030711
B   13.56239060803733   12.04689908273570   10.60787936850385
B   16.60104787394772   12.60322381218827   12.19972147076282
B   16.59977995369822   11.41855194945627   13.51348192149088
B   16.53282863365209   11.94228583927393   15.16944282712181
B   16.53284624644190   13.65243424664129   15.51344815493517
B   16.53446610156516   14.83923381049317   14.19541197470490
B   16.53551684553606   14.31441390089627   12.53529911543855
B   13.42800110237122   16.43177609529265   14.48074748872003
B   13.50563129537459   15.36894579251720   11.25694461642821
B   13.40815204246042   14.14751318826207   16.97439542755706
B   13.49458145099194   14.15363588839120   12.64888027819246
N   11.24135110482067   14.11389930527435   8.96349230282345
H   11.87298831565763   14.83271330126008   8.65413031135719
H   11.27317863709757   13.32485059777849   8.31783910306547
H   10.27995847073347   14.45497513419243   9.00410519718470
39
F:    ...  E:  0.190808180000033
W   11.94274059312143   13.07403714918419   13.78107076004575
W   12.13176445149030   11.02118886688774   11.90864964803024
W   12.12073912350661   10.45464329317911   14.62539201326467
W   12.08231058444390   12.49175223472772   16.44537665165237
W   12.05328698118411   15.13297209019957   15.60389913783401
W   12.03147002975595   15.75239450415867   12.92012343835546
W   12.08759619261035   13.59888192489346   11.00212666433952
W   14.85867505138141   10.46355118657574   14.66142365585071
W   9.04544111726607   13.05466109557338   13.72570679568295
W   14.94432170001497   13.10121228905948   13.82196574528494
W   14.76608794915076   15.16862485594628   15.64911128326305
W   14.83770504997982   15.80259798299481   12.96534177509565
W   14.89502792143974   13.66346824821093   11.06138081851923
W   14.91686831523849   11.02541172417242   11.94594414409182
W   14.78936210030314   12.53128270020163   16.50453769139010
W   17.86686125394719   13.16027225323526   13.84647871890880
B   10.32719522439614   13.59123575062036   15.40425118889552
B   10.34494560621564   14.77474193645993   14.09363563854412
B   10.40009264164395   14.23813028876744   12.43067673969067
B   10.38144540563215   12.51455319671749   12.09051162713897
B   10.40119974143555   11.33781859014369   13.38748925290668
B   10.35797231295163   11.86799941287663   15.04391345615648
B   13.51523735998930   9.86064270517664   13.08228983041573
B   13.46260317984478   10.82239879741090   16.28625022687030
B   13.54418315327904   12.03682039623727   10.60708413482269
B   16.57380995247054   12.61112474703603   12.17312337509535
B   16.58555074564041   11.42414958533836   13.48562283500877
B   16.52174087607295   11.94220080312024   15.14196038705317
B   16.52248153250738   13.65119241412215   15.49093759361044
B   16.51051713520198   14.84148460596394   14.17637075374069
B   16.50893042031188   14.32176773955973   12.51475504080069
B   13.40895975147057   16.42808578803332   14.47943505427879
B   13.46607776172407   15.36535415882427   11.25520611576586
B   13.40071293839526   14.13808430864301   16.97662427649812
B   13.47085487906444   14.15355740140074   12.64940068298296
N   11.34116577674470   14.12821930222773   8.99815776959817
H   12.10707466676165   14.81249824117724   8.94432877432175
H   11.43567836105905   13.43732937284758   8.24818777925244
H   10.40653324801071   14.56887914375177   8.93647961060161
39
F:    ...  E:  0.854248510000048
W   11.96029652124252   13.08558818880736   13.75613576786855
W   12.12965134869742   11.02479327622211   11.89402785948920
W   12.12040482888155   10.47290385227432   14.61120353712695
W   12.08787968273984   12.50748385478494   16.44059931521443
W   12.07440502527071   15.13148122559333   15.57376588216501
W   12.05032976727196   15.76060228699161   12.90159874877017
W   12.05521959480229   13.57983517706602   10.99373109010632
W   14.85833862317693   10.47894186663154   14.65316939668250
W   9.04763540204540   13.07367595205455   13.71210174600452
W   14.93908495292674   13.11836748860753   13.80577781236408
W   14.77021040440340   15.16469949108656   15.64624872167681
W   14.84199163162664   15.79939290581990   12.93085256130028
W   14.92190416446875   13.69582205105638   11.02204735443863
W   14.91061535477797   11.04193842942840   11.93730690782394
W   14.78186284543408   12.54943784465599   16.49136015518570
W   17.86417623902257   13.16506914269420   13.83995876963520
B   10.34471465861124   13.60249732434482   15.37715446548594
B   10.35231867012262   14.78793676093452   14.06683605624066
B   10.41054867219689   14.25349381664303   12.41377731800407
B   10.36499905714380   12.52136337490457   12.08586474892389
B   10.40102323832280   11.35335918941485   13.37817213750459
B   10.37488506237239   11.88603231632150   15.02855121764278
B   13.52013159125616   9.87124102915985   13.07603946158878
B   13.46120028555687   10.83038486719794   16.27954896595649
B   13.54898208115549   12.08492963547347   10.62751149067065
B   16.56817932700401   12.61964078873031   12.15865086464406
B   16.57505606509153   11.43958035745208   13.47347789444258
B   16.51603438806871   11.95355594913195   15.13109513869493
B   16.52632284445866   13.66130756491954   15.47891541593033
B   16.50399458780639   14.85408880130425   14.16792691968842
B   16.52128588942193   14.32622666381374   12.50954728106998
B   13.43784123016278   16.42643901414497   14.45952263107958
B   13.44367588804846   15.36425797133005   11.20472988085017
B   13.39864038402695   14.16133580336415   17.00044132375267
B   13.47881204186092   14.15887860015168   12.59588622404772
N   11.24939311064266   14.00735142488341   9.07121864766887
H   12.20315933619458   14.60288824320101   9.32001139032416
H   11.40416998829883   13.46802056456706   8.22603660129547
H   10.34584630104306   14.48037799049522   9.02441938430039
39
F:    ...  E:  1.31385693000004
W   11.96321161947660   13.08543097392285   13.74646683510507
W   12.12395806793550   11.03316939968114   11.90032106895946
W   12.12441135507257   10.47462237505993   14.60890113362278
W   12.08507745996581   12.50824607190853   16.43737288478764
W   12.07395916856647   15.13153788454143   15.57528777391028
W   12.04903322209632   15.75627276131645   12.90562164998778
W   12.01818995027333   13.61889134374224   10.89156422054823
W   14.85811876792464   10.47769959964356   14.65486182542513
W   9.05129057727818   13.07307398613532   13.70848525213410
W   14.93633967474249   13.11753309929126   13.80530022077553
W   14.77224793322014   15.16441917313214   15.65488625667549
W   14.84288658207369   15.79556231141754   12.93175990471675
W   14.93345880484259   13.69484883781580   11.02073823205588
W   14.90859234049706   11.04438243911313   11.93781565369039
W   14.78192191670511   12.54950881094522   16.49058294490649
W   17.86479745591672   13.16273771428196   13.84246415172406
B   10.34432302988720   13.59906064216447   15.37868670550553
B   10.34905799714994   14.78656615016298   14.06648607819146
B   10.41906409472341   14.25133916212045   12.40972973014822
B   10.37445415585217   12.52451053732552   12.08630938498259
B   10.39856305574695   11.35260870808435   13.37732671041359
B   10.37307639808872   11.88602729513375   15.02972588306418
B   13.51936166172047   9.86947082555112   13.07236863450376
B   13.45978904679792   10.83014728847765   16.28281156353135
B   13.53946030773593   12.09265675894960   10.64009800918352
B   16.56716074596116   12.61507458211873   12.16108748602671
B   16.57470910228775   11.43853464791190   13.47501069723327
B   16.51844786175515   11.95088223609521   15.13371799795005
B   16.52664370396252   13.65978314876408   15.48091556530687
B   16.50409922667028   14.85531074214687   14.17477202151088
B   16.52430157723386   14.32276503203705   12.51729230179569
B   13.43774187730677   16.42453896018730   14.46400106845261
B   13.43133086553969   15.36475512645262   11.20174232693902
B   13.39683899955219   14.15797099056279   17.00001592598604
B   13.47598404621425   14.15655130809395   12.58569656878309
N   11.10314987186938   13.91458678322458   9.06989459840006
H   12.52276861561500   14.67733603598435   9.49080243322602
H   11.36993216079648   13.48013957628145   8.19493722817742
H   10.24746778660288   14.46666776587839   8.95936215732211
39
F:    ...  E:  0.683587870000053
W   11.96964208762526   13.08691892490342   13.73033392856455
W   12.11845673685662   11.04146894820201   11.90032529610139
W   12.12972232365983   10.48625156177631   14.60359233518563
W   12.08476544264370   12.51495373135552   16.43493992391051
W   12.07972594950157   15.13707210408953   15.56548974221580
W   12.05251454690613   15.75577257078283   12.89945097716189
W   11.98605592438062   13.64505928921759   10.82128977990537
W   14.86121126379251   10.48035380065708   14.65823404938302
W   9.05542331768963   13.07856631931097   13.69777786727570
W   14.93571468347539   13.12076873624688   13.80255901334246
W   14.77479626529754   15.16401965572542   15.66303516168746
W   14.85830299466410   15.79547364542823   12.92868955851181
W   14.94970111103125   13.70666818992551   11.01354023017375
W   14.90898736065122   11.05284962216751   11.93807165298004
W   14.78250259118109   12.55575492270642   16.48799670169188
W   17.86730357448254   13.16215244809817   13.84289076290323
B   10.35451265270246   13.60425934747983   15.37011523181605
B   10.34913014159801   14.78725270088628   14.05293772252734
B   10.43124088861097   14.25123771624014   12.39338838129115
B   10.37907004760012   12.52766269137939   12.07884846738864
B   10.39353126208423   11.35770234414425   13.37478267660536
B   10.37577403827130   11.89638336361756   15.02788241368002
B   13.52362766142350   9.87536266481457   13.06921931063067
B   13.45995674531428   10.83531030757292   16.28469823561061
B   13.53529082498260   12.11482498474983   10.66126029010581
B   16.56778010059311   12.61148289208264   12.16114529010200
B   16.57209057564581   11.44033507498240   13.47509353918252
B   16.52234077551498   11.95254471913431   15.13459102935748
B   16.53089563822733   13.66417171075190   15.47984866661154
B   16.50424158778823   14.85872644683069   14.17999828379480
B   16.53489546979299   14.32176252679191   12.52259535377181
B   13.45026494099139   16.41953984126129   14.45471963177222
B   13.43305062062800   15.37129088114672   11.20141720143624
B   13.39253873401375   14.16309600329633   17.00309042922757
B   13.48089674961487   14.15989487802289   12.57084298090087
N   10.94183901623829   13.78680211512458   9.09814281351641
H   12.82952320066487   14.72307162594736   9.62921415983232
H   11.29008048766252   13.49616224825507   8.18635473025781
H   10.09782275185475   14.36223953055147   8.96681726524515
39
F:    ...  E:  0.00957376000002341
W   11.98122942357038   13.08581091984531   13.72569892770207
W   12.13742777001268   11.02573732204654   11.90590722271799
W   12.13314529488091   10.48725135193643   14.62015962472698
W   12.07826310469190   12.52554105820279   16.43700935218588
W   12.09090623819677   15.14087683059570   15.54185592923275
W   12.07118296592120   15.74662195173467   12.87083556005367
W   11.92861944712834   13.58729464724719   10.80916330902295
W   14.86013938597210   10.48619448086572   14.67342308130563
W   9.06584038571792   13.08904028326235   13.68186984135895
W   14.92808446471011   13.12571665341798   13.79112608718420
W   14.77525118046290   15.16939861117013   15.63782173611485
W   14.83515744932240   15.77988296534141   12.87901670026234
W   14.98598956313418   13.65453392663884   11.01066375270148
W   14.90177074296434   11.04708016060067   11.94313246229094
W   14.79809786744091   12.57301310759999   16.49921673188824
W   17.86878701163197   13.17186145148196   13.84959030369497
B   10.36418810374754   13.61795330426015   15.35655511682798
B   10.36582222239326   14.79268769918117   14.04094470620031
B   10.43232922275556   14.24373478181445   12.38629647054426
B   10.39558093628008   12.51189342697397   12.07639593338081
B   10.40454135897335   11.35713445151696   13.37884750200538
B   10.37558448946199   11.90815646228476   15.02573722222854
B   13.52897323080096   9.86866495937023   13.08926547978716
B   13.46441427717910   10.86788279547014   16.29255796151767
B   13.53377741515938   12.10915327026690   10.63554890488845
B   16.59301301825198   12.59727190356563   12.17404447449280
B   16.56842380097592   11.43529259248169   13.49153632285021
B   16.51957488396820   11.96095499781521   15.13752184472155
B   16.53892166567985   13.67804696938004   15.46925393447558
B   16.48866887564131   14.87237483291191   14.15417316189191
B   16.53842821589135   14.31770957128788   12.51188970756015
B   13.46003164315346   16.41866920601227   14.41903464529953
B   13.42700551989510   15.32666788083749   11.12254567389477
B   13.39637086440894   14.16745667346330   16.98635494576933
B   13.46987116178122   14.14003949034565   12.50418658469253
N   10.89910827237938   13.75945566882867   9.10435395131194
H   12.92570092933962   14.99837111614882   9.95300555942248
H   11.19871408894111   13.41422013634357   8.19200167189204
H   10.03628459283952   14.30557317310956   8.98667868755957
39
F:    ...  E:  -0.260456819999945
W   11.95982119073328   13.07684585071303   13.73253751089809
W   12.11616971715212   11.02989082288322   11.89269413605857
W   12.12071209515166   10.47572373819886   14.60805637833801
W   12.08030855809834   12.50669229933881   16.42703241924517
W   12.07790487334370   15.12657202668863   15.55739943032598
W   12.02700570998513   15.74472659936107   12.89726956528479
W   11.93396601398599   13.63253763436629   10.82371145892850
W   14.85253501967819   10.47696627266236   14.64665054865969
W   9.05152468355476   13.06551887938428   13.68531067658716
W   14.91769587169989   13.12423868445460   13.77484863707652
W   14.75659654828089   15.17041538266874   15.62819044606082
W   14.83284884401299   15.79136454475556   12.92489553133110
W   14.92464010410232   13.67200841856996   11.00698224634953
W   14.87560649742741   11.05895331424004   11.92426459644661
W   14.78889506726986   12.55339887869247   16.48100540961845
W   17.85418562930381   13.16783253801423   13.82201330119920
B   10.34363255895503   13.59877795604872   15.36594477928455
B   10.33879730077412   14.77656541715077   14.06118913208722
B   10.40613920231390   14.24021481798894   12.39783674903533
B   10.39615207220765   12.51958591744956   12.06606435590047
B   10.39665725791902   11.35092586538423   13.36727099853291
B   10.36313721642721   11.88952111561114   15.02202406807083
B   13.50849944183085   9.86386993279930   13.07089405470580
B   13.46360631979919   10.84308718236039   16.27434786418683
B   13.49674030038319   12.10594772946598   10.61293355406731
B   16.56237745567683   12.61123381952231   12.14157397035110
B   16.55221770263352   11.44174845031441   13.45701742169551
B   16.50650046703969   11.96089716778959   15.11235821197059
B   16.51208122416036   13.66851819651335   15.45637525157584
B   16.49680719350943   14.85915601466624   14.14991428026515
B   16.51091330220840   14.32120808454168   12.49281553999201
B   13.42132676136296   16.42980447802926   14.43038255732322
B   13.43189642685854   15.39939366545385   11.22139733485194
B   13.39826174267513   14.15331805247224   16.98264214793050
B   13.45252348379894   14.15402475281174   12.54217868066398
N   10.98572241007796   13.84175370717720   9.09121859649917
H   13.28141754678719   14.92371351647634   10.04581263592863
H   11.29135644340157   13.43685482474354   8.20437247642995
H   10.07804083107633   14.30141453589494   8.96579413190192
39
F:    ...  E:  -0.422078969999973
W   11.93967183859493   13.07242530477730   13.74130781309329
W   12.09799114954831   11.02969314064726   11.88122168311921
W   12.10947372034490   10.46289980024608   14.59303747237847
W   12.08025126278109   12.48528935478737   16.41877219834390
W   12.05226255778785   15.10454740122313   15.58532514468910
W   11.99731539744652   15.74606500151048   12.90260665522259
W   11.91985079735583   13.65591568827171   10.83424719997671
W   14.85083461541873   10.46032117879516   14.62075182450758
W   9.03529022136974   13.04540564446253   13.69117139525978
W   14.90029558029508   13.12036494480991   13.76690264883043
W   14.74774263262653   15.16584830919611   15.63771702358409
W   14.81344901200017   15.80443495220495   12.96836393487016
W   14.88863497624512   13.69881083533184   11.00995353230584
W   14.86040535262974   11.06871523609514   11.91130772526102
W   14.77764586216265   12.52693560391840   16.46384178205739
W   17.84035381415297   13.16217363628823   13.79858931260943
B   10.31859845678921   13.57834688211403   15.37347009717169
B   10.32312323792965   14.76845642853916   14.08162807400668
B   10.37684046984623   14.24153118094228   12.41760170974297
B   10.38969486238094   12.52623013096519   12.06389376773511
B   10.38512442275796   11.34208571016535   13.35936345144923
B   10.35175539346572   11.86498552729159   15.01913631218799
B   13.49382399562066   9.86307897655678   13.04986733434541
B   13.45938532176481   10.81220787446703   16.25519819327539
B   13.46978162154840   12.12444232204739   10.62061087980869
B   16.53303085298607   12.62519329031602   12.12037506505369
B   16.54514622786316   11.44416014671825   13.42649583560667
B   16.50219280334051   11.95428744647388   15.09435358544373
B   16.48591426786778   13.65214052431935   15.45491971266461
B   16.49824841110139   14.84479930972432   14.15931935888030
B   16.48316155346512   14.32901371833504   12.49196050474754
B   13.37740625612520   16.42097645990468   14.46504302982125
B   13.43686366581970   15.42615664803427   11.25718162593504
B   13.39750636605119   14.13093360850163   16.98807659563156
B   13.43278583328063   14.16959467020360   12.56854001694323
N   11.04231365693922   13.89638563045747   9.08109253839876
H   13.64610962921510   14.94292631014886   10.04920518414228
H   11.38681000146217   13.48958968497446   8.20992369684652
H   10.11813498727808   14.30785257189243   8.93284716971567
39
F:    ...  E:  -0.451953369999956
W   11.92985674920151   13.06867802424961   13.74530586656190
W   12.08885528163990   11.02641758768756   11.87601216056369
W   12.09715456585783   10.44872500792399   14.58939012693992
W   12.07511929781851   12.46722499657852   16.41137225418201
W   12.02913013753765   15.08765918923994   15.60583516665984
W   11.99197137241272   15.74155609228621   12.91312193863392
W   11.90410936117174   13.66036434207455   10.83324567899340
W   14.84759204934150   10.44352870080198   14.61190645366389
W   9.02474904462574   13.03714081727385   13.69089567123745
W   14.88738442681929   13.11119780144980   13.76881282181558
W   14.73955198999498   15.15258692537062   15.64804921174286
W   14.79075793047552   15.80666590922062   12.99995278229292
W   14.88092484933064   13.71516756654676   11.00191739828606
W   14.84778490301502   11.05976198515682   11.90465151838216
W   14.76395075691527   12.50760967318619   16.45016015019779
W   17.82566344544905   13.15520343785966   13.78133977730474
B   10.29622298966744   13.56660499640742   15.37210608414061
B   10.31913233919482   14.76507023627361   14.08901991468995
B   10.36614895464037   14.24395764528048   12.42777812728995
B   10.38057995174255   12.52148587654956   12.07189391400093
B   10.38140025029459   11.33070597608727   13.35836869084082
B   10.33881281956599   11.84725539329187   15.01398608098543
B   13.48115805507470   9.85698353114632   13.04564466206504
B   13.45129094550921   10.79020121786881   16.24745226221015
B   13.45873367967661   12.14110628180247   10.63195347092413
B   16.50467200540345   12.62092609768950   12.11408465607931
B   16.53335230961135   11.43607890195393   13.41240976367803
B   16.50106298404491   11.94480272447512   15.08511612312125
B   16.47090426457417   13.64091113560407   15.45315260397302
B   16.48681870913085   14.83325035132075   14.16728679830042
B   16.46185222033387   14.32918212158580   12.49805296001473
B   13.34907788902593   16.40607831757984   14.49495211517748
B   13.42760446538794   15.41628088969726   11.24803448649946
B   13.38937145643647   14.11239326997466   16.99277455532586
B   13.42505773393835   14.16486840425056   12.56476720647616
N   11.06540135752411   13.90617882616824   9.06904273648360
H   13.95980223619342   15.18286611606606   10.07129790185216
H   11.44644243801572   13.50808963194891   8.21017115427847
H   10.14576486906307   14.31045508572717   8.89390583979187
