39
F:    ...  E:  0
W   10.38402459976395   11.88438701152039   11.92878852380313
W   10.60595829433734   9.77312908749230   10.02289102615239
W   10.59858409098880   9.31105051048411   12.74956638799237
W   10.47973594675862   11.29311887365174   14.62473341769058
W   10.46002622603179   13.93361769449280   13.76746271254737
W   10.48524718258306   14.55431016698071   11.05431636415536
W   10.58610532805316   12.38396933839491   9.16981834353065
W   13.28082997596850   9.24960797024897   12.85047809800396
W   7.49481594639994   11.83301591461747   11.81939904817336
W   13.37564215675843   11.87167921564999   11.99883116573706
W   13.23232828349871   13.97035049965596   13.83385239326840
W   13.31813845012985   14.57586614350368   11.12552281430054
W   13.36236612490096   12.43559754153432   9.22998854898725
W   13.35353336260015   9.83479292652552   10.14046029064728
W   13.22738421138054   11.30654635694905   14.70379277475952
W   16.31104901438185   11.91641473558129   12.05769102452554
B   8.75828825072213   12.38468637340339   13.53277961918197
B   8.77392481005887   13.55796106359742   12.21648255835582
B   8.86340609464323   13.02724559167229   10.54013756341742
B   8.87378569028010   11.31448211455795   10.20390618898538
B   8.84112491039204   10.14143853510021   11.52309215097507
B   8.80488750679036   10.67692234312151   13.18892735393307
B   11.97355707047646   8.58327362932442   11.22680416626803
B   11.87948184879382   9.62961723522929   14.47763580178676
B   12.01197422351674   10.79693284934586   8.70426278522028
B   15.03031732694421   11.37828657133130   10.36974661348475
B   15.03168502789944   10.19811219412335   11.68519662990070
B   14.95813563951836   10.72810451191896   13.35291128471920
B   14.93620269322306   12.42995639669739   13.68861052917672
B   14.96732984757949   13.60201610718992   12.37391928117397
B   14.97055569413117   13.07827824356512   10.70390823931388
B   11.85790950785268   15.13383305024159   12.62469793227963
B   11.94801860837570   14.15193155506579   9.41837897348823
B   11.82952434244856   12.91593658219685   15.07561973392474
B   11.91820040150240   12.92760975471923   10.79946834982496
N   9.57484078668599   8.27453779853491   8.71848019004998
H   9.82885239034602   8.43219259882849   7.74045236660271
H   9.86659655864297   7.32929198296168   8.97833234528037
H   8.55823146224420   8.33974493135233   8.80832074385942
39
F:    ...  E:  0.0334339899999918
W   10.38559826005397   11.92472899093129   11.93601939190937
W   10.61266627691203   9.78872104366942   10.05124914364447
W   10.59141169583239   9.35225577921927   12.77298204170908
W   10.48182896615517   11.33077638676124   14.63794181722521
W   10.48063584146760   13.96896068919681   13.76156057860774
W   10.50415130026250   14.57729960735822   11.04049339402159
W   10.58363132551252   12.40221319578046   9.17171480220187
W   13.28718283452420   9.24595467047828   12.87878813928837
W   7.49811236889518   11.87939159814027   11.82765394308572
W   13.37931470971716   11.87753667010767   11.99649264485548
W   13.24969626240650   13.98481335263558   13.81664082117657
W   13.33786914137538   14.58024152007432   11.10777814709002
W   13.37103931930290   12.43371360694380   9.22647234410904
W   13.33076985301293   9.84921651368462   10.16301461262178
W   13.23476367514970   11.32701615101483   14.70729713788154
W   16.31846136100351   11.90202153221724   12.05571869220224
B   8.76145335037891   12.43228085694577   13.53989202785586
B   8.78460100904354   13.60324154832288   12.21643094783247
B   8.86804187743464   13.05959199875951   10.54405785935653
B   8.87453139867981   11.34109567399790   10.21415707862865
B   8.84152908475541   10.18005627688892   11.54334047369700
B   8.80283482233491   10.72354714313060   13.20204249975926
B   11.96842449470471   8.59641076158258   11.27165345319162
B   11.87936826620128   9.66020045376746   14.49079855289494
B   12.00098883094903   10.81070163104010   8.70300930854192
B   15.03633639981786   11.36950094963141   10.37173525560823
B   15.02424674625461   10.19046630683198   11.69576508041142
B   14.95760556236347   10.73027491380254   13.35705802731708
B   14.94805773053587   12.43416801541732   13.68298803373318
B   14.98360984368090   13.60099937791401   12.36048855999103
B   14.98215034564051   13.07128905585129   10.69743246821918
B   11.88166834980177   15.15411423889991   12.60577927181087
B   11.96087344779061   14.15653347308132   9.40178089644892
B   11.84578776767234   12.94293220912196   15.06494028594184
B   11.92806963744604   12.94121498781260   10.79296132248811
N   9.75297500233518   8.10584726571630   8.84048356222292
H   9.95673628284233   8.27518421572729   7.85637946627434
H   10.20031479757645   7.23303714718529   9.12167026918547
H   8.75633340658542   8.00004942849508   8.97028289008596
39
F:    ...  E:  0.120558580000022
W   10.38274162210137   11.95224567362044   11.94317257016472
W   10.59452864174734   9.82036286316164   10.05485178553377
W   10.56139784716895   9.35144992120587   12.79376239164927
W   10.48491165606378   11.35123305022815   14.63096445263942
W   10.51155526422614   13.98900811733505   13.74591954223017
W   10.53356600435718   14.58313517961848   11.03160853836543
W   10.55794736018251   12.42566459758712   9.16399588975526
W   13.27656350423865   9.22820515455960   12.88714649584142
W   7.49467181478452   11.91810050390842   11.85085075220660
W   13.37982061291087   11.87628739857085   11.98678797578943
W   13.24674036602156   13.97002674647275   13.79376217333653
W   13.33991032185963   14.57004653251304   11.08637442199399
W   13.39617491984413   12.43738449336911   9.21283228923070
W   13.32202977443955   9.83424453468520   10.15484041086792
W   13.23115036509733   11.34034377272051   14.68691191798026
W   16.31903977848852   11.87559100962839   12.04720472970713
B   8.75669572314408   12.46867065980717   13.54726569623576
B   8.79765941868005   13.64217031927875   12.21775459272075
B   8.86453560467149   13.09135796690978   10.55554549234843
B   8.84777199588174   11.36729070969048   10.23053452268556
B   8.84769009977872   10.20630385864585   11.55592789328688
B   8.79376259126059   10.74623183856872   13.20599121983776
B   11.94432568702737   8.63138206602506   11.29141322680461
B   11.87187044182251   9.67627270357669   14.49100536573253
B   11.99388343185004   10.85036529521990   8.73594594297016
B   15.04745641792210   11.33764268607756   10.37334004285560
B   14.99409583580587   10.15878729806993   11.69481495686843
B   14.94705085153304   10.70316691898185   13.33723289233742
B   14.97571046678119   12.42777189807180   13.66036138562770
B   14.97458301348758   13.59759211761561   12.33728613925474
B   14.99688382166486   13.05897878732127   10.69465624536937
B   11.90789093025499   15.20410766350018   12.59396980159869
B   11.97122941945284   14.14192012285396   9.37383471813096
B   11.85093393349450   12.95959325806013   15.08933532255092
B   11.93232233695727   12.92704849917422   10.76878592673046
N   9.90045582506201   8.03689852275769   8.95263036768282
H   10.10037122742701   8.07905392746980   7.93460585836863
H   10.55288209930738   7.37956142098158   9.39129640989730
H   8.95688627072557   7.72535085749984   9.12053394575062
39
F:    ...  E:  0.734130530000016
W   10.37428854394543   11.92710498248155   11.94387865614481
W   10.54150596655082   9.93670955777544   9.97206328721835
W   10.51080717187586   9.24841619787109   12.73715739528428
W   10.48415285871471   11.29876538359500   14.57362069261489
W   10.53195103604478   13.92465096736925   13.75560170507807
W   10.54257693344271   14.56051479236265   11.06519584507565
W   10.50029845202047   12.47091009357540   9.12899533976553
W   13.18125827833527   9.22710353016192   12.76123107006679
W   7.47608965194266   11.89762425337805   11.88591867141741
W   13.37231850558368   11.85451064657134   11.96364942893589
W   13.19228014297366   13.91332709315666   13.80567551798494
W   13.31304617925360   14.53818530105667   11.10776409437658
W   13.43573258551572   12.49163481062451   9.17881695135568
W   13.32184048397184   9.78209252092032   10.07072015625749
W   13.17674636609527   11.28175907570955   14.59958780600598
W   16.29530609987206   11.84246343785264   12.03498023321314
B   8.75092499122853   12.42336231975021   13.54595008800245
B   8.81179557081215   13.61532650072646   12.23442453363752
B   8.84405286752331   13.09434049770143   10.57795317708347
B   8.77426756931760   11.38378738501545   10.23047552733542
B   8.85159699286280   10.19270179312941   11.49630921181516
B   8.77067453024698   10.67928634958671   13.16307498567257
B   11.85154141538425   8.62851140920961   11.14761981311390
B   11.82941363558857   9.59120429372632   14.44329349780147
B   12.02614377166901   10.95021332357041   8.79371049971181
B   15.01046407621552   11.29257246443433   10.34705659680845
B   14.95021317578560   10.11667967277444   11.62028924634653
B   14.94401582877456   10.65223719076254   13.27019109459516
B   14.94799436866326   12.40780007610547   13.63370341161061
B   14.92903424422427   13.58543015476882   12.35249310541503
B   15.02367584699990   13.03497020308450   10.71232520619117
B   11.90208619091824   15.23603447775071   12.62905691394671
B   11.95830212462292   14.11473579132523   9.38233696109255
B   11.83138086362850   12.91212239271468   15.19899594247296
B   11.91942200641265   12.87295213191452   10.73386324909422
N   9.78495616969610   8.28361212965368   8.82455145208162
H   10.13356907561235   7.93788606032528   7.93231839756194
H   10.44928816796318   7.93279901658181   9.61517654781773
H   8.86002294962382   7.93155430821615   9.07248039255689
39
F:    ...  E:  0.238486220000027
W   10.39352154672592   11.92960403015483   11.95028620794575
W   10.41424451240812   9.78065252576260   9.88377669731629
W   10.53007260232212   9.29561061319006   12.76089591584628
W   10.47105698729265   11.33167132804380   14.61494079522353
W   10.52074940088708   13.94148479156484   13.74400047920134
W   10.54672240247290   14.56724675473662   11.03069838167487
W   10.50848515887765   12.46279370821071   9.14262503701357
W   13.14061353971107   9.22856055701814   12.74091307111958
W   7.48341019358001   11.88962623887741   11.87217966304490
W   13.37602301453990   11.85291949678455   11.96223963488118
W   13.22194663487919   13.93369752385364   13.79369758935552
W   13.31635977621654   14.54286845441975   11.09204232377362
W   13.39671995949674   12.44808034958001   9.18407134213264
W   13.33723995444629   9.79763565092362   10.10588573606586
W   13.19378936314084   11.31129003577708   14.62502860588769
W   16.29879338244098   11.84387322520133   12.03444298218944
B   8.75253563885552   12.45666291906663   13.54148356246862
B   8.81974210157733   13.63161950483458   12.23051855032201
B   8.83834401275225   13.09341385910865   10.57747802140019
B   8.82406583076002   11.37872997886191   10.23690444846637
B   8.87008282884485   10.20209851625504   11.51745032532144
B   8.77480591577174   10.70830200059653   13.18481036257017
B   11.80471550428507   8.52475353471816   11.10198208801490
B   11.84089679698532   9.63534339605493   14.45606526079317
B   11.96938626140950   10.87880624003049   8.82066497934828
B   15.02250526364955   11.29114428108584   10.35183026787979
B   14.96441236086315   10.12562890536118   11.65514173175931
B   14.92350362420577   10.65345703814573   13.30609232814429
B   14.95871359112673   12.40490158451456   13.63191312068217
B   14.95095501797274   13.58208219904897   12.33420599400631
B   15.00191015312912   13.03055440391622   10.69324255317630
B   11.89962646768329   15.21855096246129   12.61584798677459
B   11.96682509347728   14.11909787016426   9.36214277925531
B   11.84009268951180   12.94287599742195   15.15010510590024
B   11.91903180004614   12.87852986428444   10.74000795289631
N   9.63976324765101   8.38229293238108   8.69705660570801
H   10.16872649408596   7.91267964250967   7.95208958321434
H   11.16892304601691   8.04172932376745   10.15496063247540
H   8.94922064172357   7.74228440697752   9.08982623923230
39
F:    ...  E:  0.000158230000010917
W   10.40255197334226   11.86587327042513   11.92886516996473
W   10.37387483928883   9.72933704008065   9.78938426316802
W   10.49694604219906   9.23139255588337   12.69812289329515
W   10.45195754105148   11.24488164621713   14.58372479634707
W   10.46375144243096   13.88861551219911   13.76932502662531
W   10.51078766401837   14.56847012971795   11.06790022883293
W   10.51845421971085   12.49987987083251   9.16412114472558
W   13.14867494154390   9.25600008601921   12.69723990063961
W   7.48114941373233   11.82706819203430   11.82586527716744
W   13.38226360599313   11.87025145112237   11.95218108875443
W   13.22229995525999   13.89508500179567   13.83363134541316
W   13.30446672969094   14.56863937808410   11.14470177422058
W   13.34266548596011   12.47800407703988   9.20776045803233
W   13.31661253835142   9.85740909320651   10.03650662611330
W   13.17259608564022   11.24096656456107   14.62196547674803
W   16.28739097089441   11.84656889074034   12.03958684312052
B   8.74017543067870   12.36146287183480   13.51137771940271
B   8.80561359876001   13.56448020733865   12.23655000139177
B   8.83357516641223   13.08231000040690   10.57700785589040
B   8.84480420576186   11.37452689688759   10.19393233138850
B   8.86690520712079   10.16138862813808   11.44887117491692
B   8.76819085400646   10.63140102321727   13.13249526100568
B   11.85997450803439   8.55366573235367   11.03310533607972
B   11.82695954548343   9.57385929916936   14.36899478383146
B   11.91637833861776   10.89243008754123   8.76918834083025
B   15.02940599847507   11.34354025361355   10.33069220374720
B   14.95605751027135   10.14242445943766   11.60872573663879
B   14.89502099967440   10.62769727378898   13.27487842700154
B   14.94517116320341   12.36380801938363   13.65061800625886
B   14.95666466321448   13.57744323597161   12.36918815518416
B   14.98274633602755   13.06763544039499   10.70520004767139
B   11.86551186172346   15.13784512155668   12.67594977095837
B   11.94897241104226   14.19727600281792   9.41215068939870
B   11.81221762880059   12.86038332417565   15.09257735417982
B   11.90423478851281   12.92246500349265   10.78021790669053
N   9.36219353749045   8.65975425933369   8.42766997989889
H   9.78807467081911   8.11276956403618   7.67387876149506
H   10.97143097159295   7.88391896900310   10.46116880346641
H   8.45454230090906   8.24650094155138   8.67461071473421
39
F:    ...  E:  -0.155839930000013
W   10.39986515612861   11.86366576179581   11.93178865545589
W   10.39301052586236   9.69768233442243   9.87030642351607
W   10.48207617834557   9.25711855858606   12.80326861374388
W   10.46478806162174   11.27401674364384   14.59946956418151
W   10.49570868009798   13.89615496788692   13.74001800042899
W   10.51466691979224   14.54237675381021   11.04113850312821
W   10.52951964687079   12.43071567855040   9.16403785910263
W   13.20983343566161   9.25444090335947   12.78813061908634
W   7.48117252598494   11.83241054439964   11.82504078047871
W   13.38892248061045   11.84808684756822   11.95649006702014
W   13.21199362759732   13.90048805109971   13.79449661174676
W   13.31003572299395   14.54856371524203   11.11275251932956
W   13.34907467244347   12.43643851970671   9.19880769868625
W   13.34232615315901   9.80184780402932   10.10402600198516
W   13.20071051748094   11.27641128076967   14.64281029125032
W   16.30215893801070   11.87282729431626   12.01495299976132
B   8.74895614990048   12.39477741763045   13.51298842167547
B   8.81850153333664   13.56697752192420   12.22234005277845
B   8.83540533657198   13.05060349793023   10.56898165294539
B   8.83693559061229   11.32433551350605   10.21599505330514
B   8.87880927022938   10.13394612214372   11.49511186300039
B   8.73942777642436   10.65329411328229   13.15283314412840
B   11.82907364416323   8.61950860061142   11.18507566850031
B   11.85231484372730   9.60286301261461   14.44485042219407
B   11.95195946788811   10.82597153592936   8.81115794248019
B   15.02075657200387   11.32401817180421   10.33075089653160
B   14.99640940884383   10.14679869430261   11.64921280126146
B   14.94924356928362   10.66307285450029   13.30425685463970
B   14.95793419869881   12.39090586701701   13.64075404764043
B   14.95820658886196   13.58076419691755   12.34544646258182
B   14.98479695072866   13.04940620893530   10.68469987945157
B   11.87704055432031   15.17584862633772   12.62952618956992
B   11.94746999952150   14.14791888989445   9.39003934050051
B   11.82016546764034   12.89935277791654   15.12340033769679
B   11.91533672007557   12.89541784562721   10.77129037325210
N   9.38545125375089   8.59649751076823   8.55767933206211
H   9.81592379013134   7.99534930661159   7.85307626942986
H   11.44077007173331   7.98400080736067   10.15927443043409
H   8.38970634196266   8.35590292791470   8.66122534918965
39
F:    ...  E:  -0.407860959999994
W   10.39604492194826   11.87147228496283   11.94196607117943
W   10.41978497901372   9.68497046437385   9.94207938597989
W   10.46509678612609   9.26449959010774   12.83688768434568
W   10.47820580370552   11.31018970178200   14.60894694848250
W   10.52571131768068   13.92173557105933   13.72259348079637
W   10.51980443608321   14.52217720910089   11.01295209167721
W   10.52308857361827   12.39369939057921   9.15334097406751
W   13.23844615904568   9.24880902831952   12.85218139699149
W   7.48422763565388   11.85381502868972   11.83830306197990
W   13.37798097803937   11.83304122418760   11.96451700879507
W   13.21280443999660   13.92244181767530   13.76846056342430
W   13.32177083933196   14.52349518538017   11.07088169495457
W   13.35640993961861   12.38127318770458   9.19557403490071
W   13.30114998853187   9.75699070832377   10.14993859072066
W   13.21110981358089   11.30263806290889   14.66039034585413
W   16.29824497038617   11.85238664981724   12.00884534833773
B   8.75842288805946   12.42933757024036   13.52024309435447
B   8.82427587039136   13.58111060804049   12.21020295625521
B   8.84295358669609   13.02732599752618   10.56140501652569
B   8.84584898840667   11.30016798341615   10.23831640410961
B   8.86185229501022   10.14286115092369   11.54144083302507
B   8.74052867595792   10.68822790051399   13.18869166310883
B   11.85305672301757   8.60586565712579   11.32237884209352
B   11.84401430790852   9.63407622459002   14.46718692697090
B   11.94049003369963   10.79285690511980   8.82554245365255
B   14.99906927692227   11.26402389902396   10.34211086097768
B   14.98026271833799   10.12269933803722   11.66599890945125
B   14.97422031936542   10.68084229531782   13.31540641739449
B   14.94604865488675   12.41299153326753   13.63420212051065
B   14.94750413951154   13.56820331984029   12.32708337967827
B   14.99146152408315   12.99861645788925   10.67175658331310
B   11.89252214827591   15.19447892377154   12.57045531884393
B   11.95082795007235   14.09380702062780   9.36705249260743
B   11.83990029783742   12.93021372745083   15.13698296326362
B   11.91686695857901   12.86659278388306   10.75699043136791
N   9.46142383117518   8.48817555397731   8.69656142169515
H   9.90506527794490   7.94585531264631   7.95361647761986
H   11.90182534460068   8.34790067606634   10.00661868973012
H   8.46204673843240   8.25796905334276   8.75672491798923
39
F:    ...  E:  -0.492732579999995
W   10.39082581827733   11.88999071881381   11.94187656198908
W   10.43141894574432   9.67100168229563   9.98575914484573
W   10.51350505507386   9.31137459808464   12.83033374641263
W   10.48037495365227   11.36864940264486   14.62801133345639
W   10.54361563989787   13.95601750471854   13.70843671967252
W   10.53271229807054   14.52611357106399   10.99743456922888
W   10.52744309853674   12.38291765013108   9.14183530551587
W   13.23782030455786   9.27138975246488   12.91488410046494
W   7.49561716753550   11.88033690980625   11.84041336429922
W   13.37124390482949   11.83123668547464   11.96935740446667
W   13.22344025330148   13.94648433174208   13.75190283149131
W   13.33210577590089   14.51845577898938   11.04425664016179
W   13.37103409702780   12.36173790076706   9.19314326193709
W   13.33179637054890   9.74606333952243   10.15682140727770
W   13.22382549527192   11.34254680741599   14.69045324109777
W   16.30406984450565   11.84437428231826   12.01693656439716
B   8.76149707937934   12.46397869016507   13.52294194265892
B   8.82324680900373   13.60694534632838   12.19956076312889
B   8.85498117774231   13.03315049997904   10.54845036030746
B   8.87166529310365   11.30187658410312   10.24732227413342
B   8.84196600757854   10.16416274451520   11.57063275145878
B   8.76342006830887   10.72469428582328   13.21874842419172
B   11.91564834594287   8.60795245323061   11.32706920834531
B   11.83552654936188   9.68433771471313   14.51296580090538
B   11.93545917850931   10.77087672473411   8.85937439550169
B   15.00517646626729   11.25199883455826   10.35801142497077
B   14.96696208919508   10.12150243172862   11.68715158722039
B   14.98914231282207   10.70277349462803   13.33432431186657
B   14.94156262193701   12.43794564905932   13.63473197328762
B   14.95318049523814   13.56729009492619   12.31636012442836
B   14.99543922899040   12.98209871428033   10.66414432694426
B   11.91057228559801   15.21302872266095   12.54046937063824
B   11.95978388030129   14.07300482610844   9.35061338610509
B   11.85580332982651   12.97589870279447   15.14122952506264
B   11.92060284871879   12.85656663823371   10.74240642083523
N   9.53592911774793   8.36925160571969   8.81822421810963
H   9.98593439345247   7.93204573897050   8.01276193388817
H   12.27934051580278   8.16001677407485   10.11189031212560
H   8.56761050299560   8.05263068319670   8.90194533093173
39
F:    ...  E:  -0.548005890000013
W   10.40390358444062   11.90233406789757   11.94497727117247
W   10.43403796037993   9.65005277279448   9.99792175572287
W   10.55894931942175   9.34808808442244   12.85307122582358
W   10.48653457289614   11.41256179279503   14.64761241537023
W   10.54707234892142   13.98264283546545   13.69902630780235
W   10.53900960478556   14.53296981819947   10.98443230313387
W   10.54168342380287   12.36205238243518   9.13860824965156
W   13.23489648564072   9.30448688367396   12.94739370321431
W   7.51319934844890   11.88041619757464   11.84087271806588
W   13.37823764532447   11.84257246644237   11.97664834790681
W   13.23342953074737   13.97817912691258   13.73921878697176
W   13.33946319013154   14.52625737906537   11.02967077108709
W   13.37662071967186   12.35551342965748   9.19112662132336
W   13.34508549752413   9.70235716540778   10.18323313648851
W   13.24151257397245   11.39404467171998   14.70516143453354
W   16.30846770810280   11.85582506644749   12.00707385536559
B   8.76982515986887   12.48144073199338   13.52200875853933
B   8.82859664356926   13.61736183504488   12.19082336483885
B   8.87066281488423   13.03339106193896   10.54218973551367
B   8.88929240068777   11.29952638696632   10.25502640126774
B   8.86521135609999   10.16556448764252   11.58719031780806
B   8.79005630666142   10.74124829867221   13.23221131072723
B   11.92602379232956   8.57759282659940   11.32843360831265
B   11.85183190889503   9.73623713734796   14.55856991200737
B   11.95308417420451   10.74373924699041   8.89772833807545
B   14.98920858799395   11.25329936678243   10.36083460900872
B   14.97678346649131   10.13736163022302   11.70428340141191
B   14.99635625439375   10.73411261107482   13.34695940024237
B   14.95309405241275   12.46777799122891   13.63062741819797
B   14.96503970629417   13.58478700783340   12.30679847092147
B   14.99756308724282   12.98514849752858   10.65570954545950
B   11.91521414173979   15.22977980987673   12.52546266763283
B   11.96462417438443   14.06340811904430   9.34308363102617
B   11.86480458422467   13.02386746065018   15.13709442944096
B   11.92986161160456   12.86237525655252   10.73887725507865
N   9.58637461746197   8.29681803140753   8.85670833255452
H   10.06040448868540   7.85597690433524   8.06805342118867
H   12.58172890048200   7.92503859371335   10.37532343368467
H   8.62970764369970   7.95500344140836   8.93721855590692
