39
F:    ...  E:  0
W   11.98460294593974   13.09662052225992   13.75109409114492
W   12.18667353907991   11.05119629917326   11.92379705042754
W   12.12977117117969   10.47629798235020   14.63747801865896
W   12.08813674825606   12.52354122774264   16.44878193917962
W   12.08360500145886   15.14759869972888   15.58489912749463
W   12.09778475865560   15.76560106170923   12.90056768356308
W   12.14208408839215   13.65955139062762   10.94065901515283
W   14.87068311390292   10.48146862060440   14.70405631821350
W   9.08414238055919   13.08728622924329   13.67664524397571
W   14.98152969405145   13.10831885670469   13.84680555987104
W   14.79684148424454   15.18413698283759   15.66348243422925
W   14.89535992166822   15.79881347421614   12.98002868532399
W   14.96953244988008   13.66005908669857   11.07427016447427
W   14.94108164729440   11.04300320922812   11.97799100904043
W   14.79995245358331   12.54698199871850   16.53723791717859
W   17.90424891089987   13.14532738871215   13.90695013436533
B   10.35505910382695   13.61836144627328   15.37485604723501
B   10.38346433591263   14.80036268230438   14.05569233940205
B   10.46133448463187   14.26725380461884   12.39132624127117
B   10.44293747979310   12.55138090179785   12.05052763410816
B   10.42277002453517   11.37442837530243   13.37167495972072
B   10.39058246209058   11.90853175940177   15.02990096537303
B   13.54069822988758   9.86907920772556   13.11682029792069
B   13.46128600762163   10.84788442115961   16.31337883365594
B   13.58473698284787   12.06741480003024   10.61056491001960
B   16.62732210244355   12.59637137095249   12.22129812349460
B   16.61336713687518   11.41773612770532   13.53838417039262
B   16.54344664239213   11.94794084137196   15.19469294320805
B   16.54299708183951   13.65667604228878   15.53420218617378
B   16.55977177034310   14.83834233009750   14.21170060737628
B   16.56501521577790   14.30655966186221   12.55315805065724
B   13.45379058500669   16.43955230461926   14.47560567731213
B   13.54656473870765   15.37240838920312   11.24342054463372
B   13.41494230984359   14.16300746514422   16.97951068806797
B   13.52581275578286   14.15405064515598   12.63308336069038
N   11.11117687728314   14.04746904341793   8.96596649262298
H   11.61561988106411   14.78184988274172   8.46144575710772
H   11.10186359844879   13.20893484496733   8.37948759242247
H   10.14463096965522   14.35382170695963   9.10377827049697
39
F:    ...  E:  0.0288797800000111
W   12.00040319440456   13.10777622598777   13.74017282124897
W   12.20131876661554   11.05298125148250   11.90579458001003
W   12.15177213582909   10.48764142786718   14.62422709318314
W   12.09909729413843   12.53677000116864   16.43483438184248
W   12.09464809879753   15.16424456893772   15.57089860555493
W   12.10954769385399   15.77722755321521   12.88217558184161
W   12.17328696849546   13.65155028325758   10.93802682649953
W   14.88231311015430   10.49201953833485   14.69263975671736
W   9.09982498994537   13.09380709294736   13.66161707555971
W   14.99865984927183   13.11886538451046   13.83568763138281
W   14.80918505506492   15.19824990043886   15.64814498942999
W   14.91381327399250   15.81665260370504   12.96727432443065
W   14.98172791692613   13.66634203269171   11.06828835777259
W   14.97152162637233   11.04311386622800   11.96960121930916
W   14.81403951828062   12.56151588734232   16.52305973575166
W   17.91933041715432   13.16040998952396   13.89446561442437
B   10.36662670313106   13.63097129661033   15.35796769600535
B   10.40098251995623   14.81109663110800   14.03959528295970
B   10.47778064046736   14.27262425466880   12.37825030155123
B   10.45982400390355   12.55197521649578   12.04385641857420
B   10.44661763555843   11.37700998954462   13.35888647792096
B   10.40365281652315   11.91573945387902   15.01219425435496
B   13.55804108796047   9.87800536044573   13.09741153445963
B   13.47471869431691   10.86312575268089   16.30444358787965
B   13.61525982781518   12.05731863976357   10.60195974032592
B   16.64624950933572   12.60928097198769   12.21068920830077
B   16.62958185628331   11.42835591496915   13.52887021368567
B   16.55783158745260   11.95876733386157   15.18222218311088
B   16.55943930553128   13.67119622873433   15.52016950646838
B   16.57066624773341   14.85319898655230   14.19886620890929
B   16.58080295393041   14.32242806352369   12.54118486974805
B   13.46417900159359   16.45270388173288   14.45856835981359
B   13.56618536450548   15.38170510203812   11.23424667060864
B   13.42613685196209   14.17582543397928   16.96184933997890
B   13.54729384631105   14.17306964484948   12.63385882249269
N   11.00607019277182   13.97498095338668   9.05183308164155
H   11.27294748653782   14.84344466626134   8.57472522178718
H   11.11086427955222   13.20138794434757   8.37956629816292
H   10.00297876322687   14.03184175659618   9.33709721195786
39
F:    ...  E:  0.0880017800000132
W   12.01489774742053   13.11887367923855   13.72763855141834
W   12.21275402402372   11.05967470063750   11.88834683013584
W   12.17285110370933   10.49984438187695   14.60946045578784
W   12.10882815490122   12.55042153690741   16.41911008892918
W   12.11081165426280   15.17642987472668   15.55501961078948
W   12.12342289897947   15.78929582905537   12.86535022353198
W   12.19641382865896   13.65851399166935   10.93439580068618
W   14.89152653757686   10.50655341462280   14.67905577744389
W   9.11320858634655   13.10220425544836   13.64687051155981
W   15.01432377984613   13.13199137964157   13.82195289276021
W   14.81641793184881   15.21171717055361   15.63235040020506
W   14.92478884483053   15.83413320273996   12.95114278882738
W   15.00168787519505   13.67629532239612   11.05676677765868
W   14.99023008611550   11.05229888334495   11.95270243667772
W   14.82933452746427   12.57789768045844   16.50201069780157
W   17.93249150153371   13.17778696772546   13.87881395267609
B   10.37671578509536   13.64474839635619   15.34041928434100
B   10.42009910496351   14.82400815983607   14.02627720391092
B   10.48739812561285   14.28471203383217   12.36992663695968
B   10.47145445732296   12.55550682127378   12.03703662903328
B   10.46674395846927   11.38117958975161   13.34470963119361
B   10.41383101170848   11.92287163021107   14.99293184691766
B   13.57335493410413   9.88607040097449   13.07662117178311
B   13.48794723200811   10.87990057604255   16.29747531176539
B   13.63319518108369   12.06827642431380   10.59740104256030
B   16.66684887430871   12.61865436616475   12.19977680052562
B   16.63514604030044   11.43722914547515   13.51328855941608
B   16.57658730680021   11.97079733992684   15.16034182367374
B   16.57834380238980   13.69179565222299   15.49970479291316
B   16.57275419221002   14.87290207053578   14.18110026801225
B   16.59627479283003   14.33942980431829   12.52913710688919
B   13.47428188295007   16.47412007767924   14.44301619595903
B   13.58405992754336   15.38811988169323   11.21926623645709
B   13.43798841632302   14.18579418377693   16.95213785543999
B   13.56752880015405   14.18786833086810   12.62698376460482
N   10.91047050088034   13.89237412256601   9.13434265192475
H   10.88428639493510   14.83154135191653   8.71979079248318
H   11.08818641889760   13.22531636776031   8.38135790435661
H   10.00773486205295   13.67807208711701   9.60118977764748
39
F:    ...  E:  0.770722170000056
W   12.00019506297660   13.12235241984350   13.69035596954475
W   12.19213317717383   11.06296647485409   11.86736456085116
W   12.17692850171879   10.52348982081443   14.58702670743097
W   12.12200499547504   12.56457056657481   16.37881895377280
W   12.13839352620103   15.16726288262228   15.54051445252247
W   12.13169749826246   15.79743055345242   12.86087120014331
W   12.18569283656249   13.71109364020641   10.91080184948507
W   14.87616059091309   10.52492210745205   14.65972835123622
W   9.10415637632428   13.12461560427545   13.63019641348829
W   14.99879162723481   13.14103993509384   13.80503996446525
W   14.80389837835535   15.22102764001881   15.62687022311976
W   14.90003167497497   15.82835623288156   12.92770010707902
W   15.03210181010350   13.69172553562908   11.02645271712545
W   14.96644945398660   11.08410896630854   11.90792321028639
W   14.83252867704917   12.59376088993578   16.46928369383189
W   17.92673424997948   13.18669588527824   13.87054442766677
B   10.38881566488973   13.65341011169460   15.32371153171360
B   10.43126344250541   14.84053226367781   14.04148931263719
B   10.45851188473973   14.32128722565869   12.38412547509534
B   10.44426890075844   12.57755836543076   12.00742696683644
B   10.45563507022023   11.39523124076588   13.30937186554764
B   10.39693318299131   11.93446079967654   14.96351844202630
B   13.56946277963798   9.89454552934837   13.04862599591047
B   13.49388159997652   10.88358216827189   16.30578984347258
B   13.59143703044587   12.14420170460763   10.62617858500052
B   16.67409257046883   12.60988163704627   12.19134270066572
B   16.58584330953689   11.43682255050429   13.47253502093636
B   16.59833860095028   11.97740435681321   15.11758768412567
B   16.57474322631349   13.72659753860526   15.46647724916826
B   16.53394920420515   14.89566933314070   14.16573422278777
B   16.60839487174274   14.34935279959491   12.52860261465649
B   13.47706402898664   16.50729449016321   14.44007442965779
B   13.57805317537423   15.36372072866463   11.18973926100635
B   13.44572316990850   14.18936277549692   16.99410999541495
B   13.56155212469758   14.16871888973457   12.58619156179846
N   10.93807751521824   13.82518555786402   9.16986522805611
H   10.69529567943337   14.76305226682187   8.82447135251316
H   11.09061581612390   13.18470734077691   8.41128919195723
H   10.38536979924128   13.37722225605645   10.03746975262312
39
F:    ...  E:  1.44780271000002
W   11.98529155086024   13.11326355110636   13.69479268995885
W   12.17624797285031   11.04648079197263   11.87686356015256
W   12.15895985242343   10.50762458828738   14.59917532425413
W   12.12177202365821   12.55899476618790   16.39192400437771
W   12.12390064890985   15.15801364839212   15.55153359420897
W   12.12107672221706   15.77592555378103   12.86396623533093
W   12.11021431423411   13.72652536691134   10.80057859907327
W   14.87428508947027   10.51688146404220   14.67230206647445
W   9.10407094562117   13.11587811051824   13.62412755069646
W   14.98038507938742   13.13254882688375   13.80826955546282
W   14.80118270366108   15.20628353042849   15.63360152559504
W   14.87553955765083   15.80572751266679   12.93765655431606
W   15.02079973583368   13.68267502286547   11.03101629580563
W   14.95277855625648   11.09376850321249   11.90675357345405
W   14.82804851907473   12.59107804077527   16.49313944245167
W   17.91721798814307   13.17317673547019   13.87688405700662
B   10.38561781805526   13.64536278532442   15.34307917007125
B   10.41446800235962   14.82503392157227   14.07047610852663
B   10.43255424598702   14.32610035377587   12.40503195771812
B   10.43658189574882   12.57662205077659   11.96427768210925
B   10.43959566561975   11.38982175544052   13.33113249101984
B   10.39420864458438   11.93176295780424   14.99235906771994
B   13.55907341462135   9.91130733434859   13.05936151379164
B   13.48714066429106   10.88087374972924   16.30397473821959
B   13.55659494424110   12.15099573529985   10.64036604836345
B   16.66603759821029   12.60533193414209   12.19882086162855
B   16.57920079232918   11.42945081950863   13.48163773263275
B   16.58095703255573   11.96574985086937   15.13033507191512
B   16.56909196393497   13.71271761671528   15.47445115304310
B   16.52965411250007   14.88649110979586   14.17034439518403
B   16.59450758463124   14.34379327509571   12.53186262448941
B   13.46368745272471   16.49109755084672   14.45475355569847
B   13.54865141937486   15.34310227223588   11.18985729640588
B   13.43755076109481   14.19025259645856   16.99854272033499
B   13.52765460511041   14.14364772864652   12.56405942978808
N   11.20783532960887   13.95579540414317   8.98206540696187
H   10.94930911202490   14.85313541527234   8.58467467396435
H   11.05217938218283   13.21851586247710   8.29994412256804
H   10.40129738361420   13.38341299187526   10.43122863488348
39
F:    ...  E:  0.424492550000025
W   11.95328287724911   13.12012977260134   13.64455546493810
W   12.18234727074320   11.07480385500514   11.88424030252923
W   12.13149236060606   10.50854732857110   14.57713311508592
W   12.12140322871705   12.55278039082597   16.35415237924018
W   12.12405827210728   15.15070382346027   15.53918849962658
W   12.12391728974016   15.79341207697200   12.86640336052907
W   12.10255716880474   13.77207270676807   10.76002485916472
W   14.87548483163577   10.49609510979839   14.66600342389514
W   9.06185791895871   13.17101900836958   13.65170766916243
W   14.95810036482446   13.12243120640775   13.81808586092673
W   14.80259103954656   15.20390453515863   15.63191450514793
W   14.87903685004225   15.79828613702568   12.94432379794502
W   15.02313504155320   13.68312563702081   11.03449239789578
W   14.94988162851239   11.10868540315011   11.90076157333156
W   14.82916766506404   12.56999771507017   16.51129026506601
W   17.90839932964357   13.16493904076490   13.89100847766378
B   10.38624398075781   13.63207492212956   15.33914008699857
B   10.39587073331315   14.84769504196025   14.09465952669809
B   10.43244380889583   14.40812799299936   12.43820371006964
B   10.37467216586128   12.66934590737626   11.99452411671747
B   10.37373759253377   11.42642158642874   13.27612161855584
B   10.38693997100629   11.93425056549851   14.95304463430428
B   13.54898171228512   9.94007472458213   13.04697768574314
B   13.47691265333273   10.87298529176557   16.27011276985985
B   13.56148752285380   12.16097684565758   10.62577379467723
B   16.66341211647898   12.60718084958485   12.21119922337620
B   16.57609733649533   11.42762239979083   13.49436973971033
B   16.56008276289915   11.95319491219921   15.14234876070308
B   16.55827605968641   13.69369747832480   15.48251804861094
B   16.53318474996231   14.87376321666284   14.17332844045590
B   16.57808461561723   14.33771397092742   12.53773189160058
B   13.46735661810448   16.49023155043407   14.45632632045491
B   13.56041464683128   15.35299456237546   11.19008880943764
B   13.43748111428473   14.17408798461316   16.97682124740463
B   13.52236052356990   14.14909322565402   12.55812510158465
N   11.38923520414591   13.99586374935645   8.91416869808496
H   11.13156182954992   14.89032597636198   8.49608817467373
H   11.12435629432790   13.25478961686419   8.27886179973614
H   10.29931393511549   12.98177496713880   10.73940093405060
39
F:    ...  E:  0.25907552000001
W   11.97903537283500   13.13703823511815   13.65997683158888
W   12.21384273730463   11.09019452575391   11.89244763902914
W   12.14704278428824   10.52926537934204   14.55818788768515
W   12.10733840376043   12.54776020833373   16.35734485668041
W   12.15621435936369   15.16889000601947   15.52623177389851
W   12.13738836659941   15.81161108715037   12.85228352744857
W   12.10993173118828   13.78460829053189   10.76414824638710
W   14.88993633062637   10.50152260484710   14.65452759405976
W   9.07444121942412   13.21328949498248   13.68313559439776
W   14.97728791727426   13.13681316853158   13.81003567567892
W   14.81313685044536   15.22510835429948   15.63475221064848
W   14.91232516506121   15.82129631312728   12.92639532516916
W   15.04209154412499   13.70064235532431   11.03318902036808
W   14.95158434719105   11.10927644097723   11.90055562874354
W   14.84046745089733   12.56705142618542   16.48591297899173
W   17.92198322987724   13.17556432002454   13.88282659884299
B   10.40507401420050   13.66518903058481   15.33710961217030
B   10.43705116610018   14.87600929965356   14.07560501712137
B   10.45737392593737   14.39556171202512   12.42611334398027
B   10.34346074169824   12.64914437641868   11.97965975778710
B   10.39118054637794   11.41276682566567   13.30995032876660
B   10.36691206003259   11.95128849017454   14.93689230605165
B   13.57122892708714   9.90367064896818   13.04471886571997
B   13.47909478504458   10.88251550969651   16.24769321210604
B   13.58530526161096   12.18321327533265   10.61516533036907
B   16.67053949072134   12.60489299854835   12.20047797421994
B   16.57879209004703   11.43600411920368   13.47810314972966
B   16.59141150632789   11.96808147773902   15.12666349252761
B   16.56464411032452   13.71603886592924   15.47297206104061
B   16.53431396930403   14.88815623687683   14.17552537283072
B   16.60900264384786   14.34323350399137   12.54131996100451
B   13.49906716659967   16.50634716216456   14.42775065596933
B   13.58083531215467   15.36593945094133   11.18735571487998
B   13.44274011217691   14.15247841563123   16.95008783961540
B   13.54924762832395   14.17692475228424   12.55840366132509
N   11.33960379971119   13.99090910565856   8.95597262146847
H   10.90132937635445   14.84085779889417   8.61264790691528
H   11.27140099857223   13.28208652819904   8.23772661452787
H   9.92156364284075   12.65397929052564   10.84535489591163
39
F:    ...  E:  0.313792220000039
W   12.02043451510415   13.14524112731387   13.68426213571101
W   12.23144479434756   11.09374005186327   11.90552696953510
W   12.16783891609272   10.53925065566750   14.57143899363438
W   12.09610466703416   12.54312937663082   16.38341863082919
W   12.17315674609501   15.16494417519533   15.50876211887799
W   12.14646122748963   15.81464206393568   12.84491619267698
W   12.10928721900614   13.78396775298076   10.74430128135321
W   14.89724999603473   10.51884138289033   14.65395891870175
W   9.11309367334011   13.18968121625734   13.59290355743729
W   14.99980274883111   13.15584434811625   13.79383586520448
W   14.82480094567783   15.23294964394592   15.63900677599247
W   14.93347376126641   15.83550364815280   12.91064102027383
W   15.04986577809225   13.71292635792243   11.02523308784694
W   14.95567068194803   11.10708135978865   11.90905110161199
W   14.84716294919150   12.57996642409380   16.46144806471217
W   17.93567132365890   13.19268146211670   13.86460524164593
B   10.42739178352312   13.68061876608939   15.32441973032724
B   10.44510587087963   14.86233239197472   14.05131348448576
B   10.51176050172886   14.37045859869367   12.38574151011700
B   10.40468513294824   12.59244281003851   11.94286290108836
B   10.44234359056459   11.42099216849787   13.30285091475744
B   10.36288663974417   11.97863283766755   14.94180164346641
B   13.58817512647834   9.87387909992024   13.06078994620465
B   13.49015919681073   10.89226639622593   16.25943274234979
B   13.58885397863204   12.19315746247535   10.62393538530744
B   16.67864610115888   12.61046081959922   12.18455109485671
B   16.59164171854970   11.44835525166262   13.46567697896872
B   16.61211276700526   11.98517927825628   15.11470020156618
B   16.57801282288683   13.72993757642235   15.46633634349045
B   16.54458464451542   14.90170083547149   14.16995439644843
B   16.62744008094727   14.35481316159539   12.53027622313831
B   13.51859023987629   16.50285290037874   14.41224354304977
B   13.58937386765907   15.37561597918780   11.18783989469563
B   13.44567558754087   14.15386032721538   16.94840678962322
B   13.56203620505683   14.18847467541023   12.54882349315926
N   11.28065465969433   13.97642411089047   8.97271333914148
H   10.70594964693912   14.76712975639057   8.69828420982585
H   11.34830690040524   13.32828959896061   8.19853317395765
H   9.51931407890275   12.56695523575983   11.08042318958633
39
F:    ...  E:  0.189942590000044
W   12.04893652963126   13.14511870174051   13.69750427280855
W   12.23800794777945   11.07033197232949   11.88260735684380
W   12.18192748521278   10.54787367823733   14.58901179128853
W   12.09571561574565   12.54630391429196   16.39179395788389
W   12.16749511913982   15.16520110526959   15.49691090986354
W   12.15672962825131   15.81084697860005   12.85031067068831
W   12.10447490297921   13.76424804035778   10.72208903739220
W   14.90555790642070   10.53238650015051   14.65436646997289
W   9.14304387444114   13.14811341778159   13.46883307622441
W   15.01368663655398   13.16753246700704   13.77890845061790
W   14.82914888286581   15.22884714066971   15.63427562777929
W   14.93939351760537   15.84034978107015   12.89859507124646
W   15.04653661059155   13.72124386169499   11.01298923834469
W   14.95897314886322   11.10759674196181   11.92115659315180
W   14.84708745728653   12.60356335854550   16.44647091935258
W   17.94559180290132   13.20455344462712   13.85166126380947
B   10.43561921259901   13.67577804561552   15.30965100664694
B   10.42916186548612   14.83573984720520   14.01626479947626
B   10.56331584095611   14.34545619371087   12.33857930697726
B   10.48491207701890   12.55101775772069   11.89097444146520
B   10.49493826135784   11.41449728539135   13.29404768603787
B   10.36049277467422   11.98573079458724   14.92835092802951
B   13.59297521341577   9.87153729743800   13.07688177386277
B   13.50403620546166   10.90074668990836   16.27699520094920
B   13.58948000094109   12.19123300661879   10.62920584527389
B   16.68475165609876   12.62126498459520   12.16992720319278
B   16.60615063609407   11.45842389745767   13.45872331120772
B   16.61599911329255   11.99637309402705   15.10739138645537
B   16.59345715047638   13.73893812402959   15.45805546465087
B   16.55312541055780   14.91310897722896   14.15740175860604
B   16.63490656251625   14.36412548876640   12.51516888832413
B   13.52656379767081   16.49753811396556   14.40982104924146
B   13.58690769337317   15.38065691107526   11.18522420758617
B   13.43966984256509   14.17128781544044   16.95270874560640
B   13.56783272706911   14.18945494910660   12.53898771474683
N   11.24887932897053   13.97688542021420   8.97063445614346
H   10.57113809157528   14.70281825293572   8.74879390961942
H   11.39707007974475   13.37703772775859   8.16439452584257
H   9.26153047747454   12.60145930652194   11.46955276844663
39
F:    ...  E:  0.0862681000000407
W   12.07283761170425   13.14028467575103   13.69323594221964
W   12.22934713201594   11.06193321137418   11.86721170255208
W   12.21495691223156   10.55733177835472   14.60422643426856
W   12.11978103902286   12.55553140501876   16.41645215717690
W   12.17617715884625   15.18265306963307   15.47829992938554
W   12.14720819958239   15.79883524191791   12.83503086596965
W   12.08456724120760   13.74451243794632   10.72379149744726
W   14.92864646799510   10.55159486733277   14.64321603592823
W   9.14843725528693   13.10528171177327   13.51716863952870
W   15.02924340539224   13.18423230260275   13.75508354972429
W   14.83774843193223   15.24231273202385   15.60574908941299
W   14.94107790086346   15.84907301539169   12.86581087991277
W   15.03315104685365   13.72863891925545   10.98804226348661
W   14.96683618708801   11.12282240803948   11.91223906696492
W   14.87626680030277   12.63203838414365   16.43358327833317
W   17.95875163001380   13.22573816840461   13.82429689216083
B   10.48418127999429   13.67621378750088   15.31888994730572
B   10.42471248247785   14.81348617020016   13.99530065485536
B   10.55330971596253   14.29689280129085   12.32272767471699
B   10.47099378035263   12.52359998808546   11.91283233518979
B   10.53422805151366   11.40211682601477   13.32798223064221
B   10.40179264558028   11.98408852961401   14.96183540101756
B   13.60470639481302   9.89654396333607   13.06991071285821
B   13.54088807570123   10.92533689501425   16.27953323986649
B   13.58425397908473   12.18710008807108   10.61550372743470
B   16.69295468595189   12.63953540474577   12.14224746000984
B   16.62324998739462   11.47643380485787   13.43465516028979
B   16.63381948719694   12.01776941543279   15.08517222010726
B   16.61031070740897   13.76322332847405   15.43379908186200
B   16.56400583369495   14.93471455330890   14.12743841252546
B   16.64379821179328   14.38121622804634   12.48508686438679
B   13.52720444585573   16.50397551829581   14.37314965983037
B   13.57343846639139   15.38199024523430   11.16211266569924
B   13.45549510385375   14.19618292518916   16.93229958828357
B   13.57078234077597   14.19570374160885   12.52231754903246
N   11.19402830323428   13.98554750668592   8.98625786225624
H   10.34996071394124   14.54039927861896   8.84418562594005
H   11.44515140650437   13.49699672940703   8.12715128188725
H   9.11692056584052   12.46333902766038   11.74139350518749
