39
F:    ...  E:  0
W   10.45174639332356   11.74512708902508   11.16485563963507
W   10.64641617440802   9.69016012343828   9.33605576443211
W   10.63449861895003   9.18167524675480   12.05432348236642
W   10.51402274175732   11.16509527204393   13.97572193385972
W   10.55307660602241   13.78094243175221   13.02251651023585
W   10.54271980427475   14.44092397658386   10.33002835058935
W   10.60115937958207   12.30117100202859   8.42403679595336
W   13.32072952469144   9.15133338704663   12.12487869129650
W   7.54594529503197   11.72497174237683   11.12808305599356
W   13.44362656971003   11.76250700803669   11.24106331090713
W   13.26998937661059   13.83502325520563   13.08848635668109
W   13.35925563324141   14.46198339581034   10.38628400596055
W   13.40795256033518   12.32376574073067   8.48217712013725
W   13.37305400592105   9.72831337408724   9.40361917218940
W   13.31148058708206   11.19303420926075   13.96390802975576
W   16.36630307686855   11.80409010618073   11.29148871392424
B   8.83495068280528   12.26614990829891   12.81197542072124
B   8.84383920926764   13.44699171931829   11.49862863785811
B   8.91265174550762   12.91590216750159   9.83156692264613
B   8.89703895978649   11.20639404447924   9.49130272174283
B   8.88188109676898   10.02221743166629   10.81773509137889
B   8.87690377633090   10.56294535909802   12.47735633183371
B   12.00416602876055   8.48499268784309   10.51886229164502
B   11.93283916877641   9.53865656020174   13.76446420434832
B   12.02746223841890   10.71627378611541   7.98867239383630
B   15.08370538163290   11.26150083984453   9.61395942521941
B   15.07322829389544   10.07707456516629   10.93676633133503
B   15.02214870529983   10.61172434196457   12.59496111790700
B   15.01175236755193   12.31409216303809   12.93438286658824
B   15.01959958903910   13.49396911367449   11.61899012386589
B   15.02038894842258   12.97043255132542   9.95358269625343
B   11.91556148645869   15.05198947544480   11.89074063519242
B   11.98717411454264   14.03849141970360   8.66982308137476
B   11.89800886960349   12.76832858343420   14.37399431816391
B   11.97265886766566   12.81239071617335   10.04482673420160
N   9.38961909558211   10.74520157040781   15.85916135101079
H   9.80143786552651   11.26785118802020   16.63688607413661
H   8.40034697792159   10.99562045187328   15.78329099611412
H   9.45729619540534   9.74732800782524   16.07717931148974
39
F:    ...  E:  0.0546893399999817
W   10.41864275055020   11.72503367061303   11.13430435131688
W   10.63988459415344   9.66712745932215   9.30577683157204
W   10.60991025534083   9.15718693756033   12.01928362545995
W   10.51044714779729   11.13860938109015   13.93191625099293
W   10.51536344066635   13.74524350075572   12.99468064124980
W   10.51509781257396   14.42121035920313   10.32166707429957
W   10.59479035456827   12.29535746446343   8.39996415844623
W   13.32941401758045   9.10642622259948   12.11719119162809
W   7.52216444671720   11.68988386674322   11.08787866015778
W   13.41125219552211   11.75071464079977   11.25016873585110
W   13.23251098252524   13.82956690914197   13.09794670489298
W   13.32581713706394   14.44895707148320   10.40266708758266
W   13.40443518587817   12.33095279032983   8.48588268598437
W   13.38444032891148   9.71469005443931   9.39781140181459
W   13.25157365261284   11.16994756884633   13.93954183057060
W   16.33925367386774   11.80802333929150   11.32542508997688
B   8.80409006238988   12.22894847899102   12.78164998359045
B   8.80467683651474   13.41497443687807   11.46928843885051
B   8.88906537836485   12.89440434456406   9.79822421766572
B   8.88447632849886   11.18434128566971   9.44944829157235
B   8.86624440453359   9.99607557957559   10.77247339290829
B   8.85010163804867   10.52583783673003   12.43940407211537
B   12.00306291047871   8.49536100853425   10.50825987562054
B   11.90941830024451   9.48248177511134   13.72874610969057
B   12.03564443272722   10.71676885417604   8.00717099211857
B   15.06879393872333   11.26583041298587   9.63135519419166
B   15.06038775557507   10.07879709295114   10.94730211220641
B   14.98786990450621   10.59666714405365   12.60516557896224
B   14.96845430256158   12.29917790631828   12.95580651342117
B   14.98675410221577   13.48535580362228   11.64106029371485
B   14.99742515443012   12.97009291213224   9.97499365636815
B   11.87467995464412   15.04667852517744   11.89793059647763
B   11.97035969096554   14.03631193340856   8.67144357078389
B   11.85910863663179   12.76851982453573   14.37864365156383
B   11.94949415822695   12.79473664283918   10.03788307150449
N   9.55940111790927   10.87086246239060   15.91309726126916
H   10.09326466751122   11.40535147729379   16.61301001048093
H   8.58522919982276   11.18751837727335   15.96561630452376
H   9.59363516092692   9.86261066088589   16.20655650138525
39
F:    ...  E:  0.14974466000001
W   10.38908063394249   11.70446201501874   11.11224469231955
W   10.64318101059014   9.65618434877281   9.29195191827623
W   10.56546547042475   9.12305102913162   12.00130292369125
W   10.50026080305498   11.10189396806380   13.88425121785320
W   10.47324353058886   13.73374002332431   12.99433995534981
W   10.48475382083802   14.40141739844817   10.32465084366878
W   10.59592790338498   12.28883162835056   8.38811752415715
W   13.33216611438429   9.08978417132466   12.11087476088482
W   7.49784967213069   11.67351614251283   11.05233677733921
W   13.38092714582215   11.74117760710261   11.27080592168416
W   13.19333004232250   13.81877404823857   13.11465602982933
W   13.30879012122817   14.43738943125333   10.42795184338630
W   13.39666566655868   12.33561551356950   8.49828704065452
W   13.38473245230891   9.70248746262641   9.40065552002247
W   13.20305579324558   11.14763165342068   13.95424925905354
W   16.31465252623191   11.80959591682012   11.36374306891749
B   8.78863260780324   12.20784015863339   12.76014064547225
B   8.77670920417796   13.39284658095075   11.46054738703567
B   8.85965585030196   12.87281545082090   9.77628499510186
B   8.87994452871372   11.16479007192937   9.41467520745054
B   8.84546693304262   9.97902572294861   10.72768675365018
B   8.80072924828239   10.50647361212136   12.39730448529009
B   11.99495234049676   8.50107614412703   10.51873365395136
B   11.89104794031753   9.43129416000339   13.69845960584025
B   12.04412491791898   10.71261770353533   8.00995921285695
B   15.03855856959399   11.26448899111166   9.65115639706188
B   15.05832390140841   10.08615999291564   10.96336169463993
B   14.96034492484121   10.59954427749538   12.63402475895738
B   14.91674151080775   12.29219412206497   12.99081912622710
B   14.96425280326863   13.47452896639843   11.67954393457054
B   14.98336778604264   12.96014944377931   10.00150957514541
B   11.84137978587166   15.03266494814170   11.89976805021209
B   11.95968082570103   14.03597778418186   8.69327531627436
B   11.81324417105986   12.76149655788306   14.39523174646718
B   11.93391358369201   12.78452783849818   10.04346550507001
N   9.69613089157082   10.92931747486471   15.92423335128157
H   10.38468171909151   11.52381520674076   16.34959324849731
H   8.76237396953035   11.33703045469337   16.08636917992433
H   9.74829529218865   9.99040799096155   16.34007288471924
39
F:    ...  E:  0.724661709999964
W   10.40345849184816   11.71004634292119   11.12334319596462
W   10.68641534037722   9.68481250511254   9.30757454018695
W   10.52488525459605   9.10170152710507   12.02096044210067
W   10.46349779157438   11.05293324574005   13.78835093129503
W   10.50510188136091   13.76589793635043   13.05715930744599
W   10.48641612518350   14.40836837365732   10.33882155130582
W   10.59164790505125   12.30586312495976   8.42405142826826
W   13.31416102253329   9.15427173972637   12.12161324489448
W   7.50031886204894   11.72780240832040   11.05730552731210
W   13.41470964219348   11.75219406398897   11.29431218505048
W   13.12536966158747   13.76977094994952   13.16012213331363
W   13.34981622320519   14.44244874285051   10.44704834434736
W   13.41723066824554   12.33618310357449   8.52535230365027
W   13.34403778304808   9.71001071624316   9.40063124116387
W   13.24521923517603   11.14982347560458   14.01546277395139
W   16.32738456028502   11.81272111581115   11.37967673863813
B   8.82487712268410   12.25379954077966   12.77750850677719
B   8.82703290370655   13.42744373527502   11.51954398609911
B   8.83850517019657   12.87448803904985   9.82584830240538
B   8.91332993305890   11.15192923638554   9.43879265987259
B   8.86972493693586   9.98368193562826   10.70286070074429
B   8.69740639745563   10.54865793599595   12.36617852787869
B   11.98074938781333   8.47791764694489   10.57572845391127
B   11.90379470687177   9.47241484201175   13.68881921295478
B   12.04705431523887   10.74904890767513   7.96623668396743
B   15.03326810246785   11.23173165694062   9.66428454612238
B   15.04672164074690   10.08205353912911   10.95824632515440
B   15.02622655696510   10.63543112321589   12.65003605416683
B   14.91749685288997   12.33714448303594   13.02223825382926
B   14.94489670619050   13.48722577662794   11.73997107938166
B   15.04351836404640   12.93964992120932   10.04216957124308
B   11.86154592485423   15.03863623862462   11.88594776860905
B   11.98124746280351   14.03034991224101   8.74342342730882
B   11.76851313768584   12.67742347210474   14.46781924867518
B   11.95133814650901   12.79468382459955   10.07636270058751
N   9.58275730324900   10.74663250912179   15.76655868178257
H   10.34848733971383   11.49437554432757   15.86086264917949
H   8.71087845914145   11.27663848009644   15.96356502825338
H   9.78759469324129   10.01042833984304   16.44184775498702
39
F:    ...  E:  0.996475129999965
W   10.40653756210807   11.69458363040647   11.12273913629655
W   10.67323405039097   9.66947800827840   9.30180447987280
W   10.52285418186902   9.11137590481870   12.01035324734989
W   10.35609873487226   11.03373763400838   13.94859721828056
W   10.48627270572099   13.73620970961117   13.02774398001744
W   10.48564094901824   14.39968643390274   10.33713345891236
W   10.58810985387824   12.30011412020113   8.41720902853728
W   13.29488976862985   9.14102577842701   12.12773205911455
W   7.49687454092831   11.70649836236306   11.05841642236699
W   13.39992031139294   11.74547962647511   11.28846167967516
W   13.10049163026905   13.73339118891989   13.15956760230463
W   13.32892583348108   14.44043232738935   10.44409432465506
W   13.41108563130556   12.33700834612204   8.52309063232415
W   13.34874877396003   9.70825793475705   9.40807797636693
W   13.24565222676540   11.13050048397724   14.01337055767460
W   16.31102128758320   11.81832981723740   11.38645253529829
B   8.81814001661324   12.23147967112883   12.77077863023671
B   8.80309973727247   13.40710440728878   11.50448258060901
B   8.83876690352990   12.86161382197548   9.80918657762621
B   8.91101941102116   11.15017675877341   9.42654947965018
B   8.85355961649629   9.98059213024079   10.70056851855846
B   8.72783403660711   10.53160774531947   12.36850553336349
B   11.97876457292559   8.47601718638650   10.55533220607739
B   11.86948946915035   9.50160559848400   13.68018114861911
B   12.04383429437708   10.74140698718685   7.97613405409899
B   15.03353437046752   11.23755602009396   9.66755514672420
B   15.03717508093609   10.08488148097518   10.96543990515720
B   14.99770411694874   10.62008452147612   12.65414541368081
B   14.90660267698702   12.32178323372970   13.01641894727257
B   14.92692390823849   13.49272592245103   11.73687705038270
B   15.02503778139220   12.94514781634285   10.04311032914550
B   11.84857795624334   15.03514556651983   11.90260963517335
B   11.97464033636023   14.02680749062612   8.72325232945745
B   11.71714400619512   12.66016082199340   14.53064970553491
B   11.94432002226513   12.78771843416364   10.06492791659526
N   9.50006967988457   10.72098495379876   15.76632574016962
H   10.84563480089799   11.71790142202883   15.61769680540140
H   8.73318125711638   11.31090580722328   16.08229791755313
H   9.81522391868054   10.05711890767765   16.46876610264800
39
F:    ...  E:  0.247550279999984
W   10.43616422329209   11.70319336522875   11.14560225314841
W   10.68238094536843   9.68158684345141   9.31922691573262
W   10.51743648492620   9.11930758024463   12.01449320717351
W   10.24759489976745   10.98886798751524   14.03477002582161
W   10.50987311009997   13.74317411374980   13.03639235490065
W   10.50916798672508   14.41892337262250   10.34295189496796
W   10.59659770846704   12.30525051768515   8.43200430309981
W   13.28589085859076   9.16131449878715   12.12932853189982
W   7.51426701742682   11.73873335289070   11.08361274714118
W   13.42266211117339   11.76857320466742   11.28456460488942
W   13.09173148673693   13.70528520516015   13.17369983105292
W   13.34648153993795   14.44976031501229   10.44142591527739
W   13.41424645899615   12.33266963359302   8.52241054977817
W   13.35360098519286   9.71583696407328   9.41117260410441
W   13.28100488001918   11.14461875009690   14.00663030793309
W   16.32570942249455   11.81952499444725   11.36790075671854
B   8.85510682866035   12.24823159773230   12.78765106581995
B   8.82641189805124   13.43173874948225   11.52267689683924
B   8.86341992261792   12.87934750460594   9.83202101908273
B   8.92406010504759   11.16824962374769   9.44973434069410
B   8.85949454451873   10.00051729838811   10.71271082916939
B   8.72712889948041   10.54859557099586   12.37977429152829
B   11.98234123202101   8.47614714033325   10.56236612599072
B   11.86546969128889   9.55897705144456   13.66840168308848
B   12.04405874086912   10.73798241228867   7.96658982314655
B   15.05035936067997   11.23654579914023   9.66127263872816
B   15.03578475883096   10.08727352662218   10.96374384196363
B   15.00508468893997   10.62485763188218   12.64145278527019
B   14.94785704513601   12.33610249190216   12.99930932884853
B   14.95153390118686   13.51208244909656   11.71993484947035
B   15.04175061379934   12.95125421408353   10.02832631184241
B   11.87649449692459   15.05348535559891   11.91068192108862
B   11.98776703419598   14.03046503695923   8.71180750709865
B   11.68007174470655   12.61387138227452   14.56818958760813
B   11.95830389388973   12.80611975026474   10.06618826876862
N   9.29399895115880   10.53811730160540   15.71163352591114
H   11.11173823914461   11.80597601680275   15.48798268766439
H   8.49737471082038   11.12226057469751   16.00453948263614
H   9.68621459159882   10.04181683360672   16.50346039688394
39
F:    ...  E:  -0.112674249999998
W   10.45595885351633   11.69952724834522   11.17644190871854
W   10.67361002759761   9.69005117463206   9.31886010098882
W   10.53982776155477   9.12886017372862   12.02458565797147
W   10.26264752787035   11.04908471030333   14.09880296816051
W   10.49818371769738   13.76190608451034   13.03094264102647
W   10.53165259786052   14.41586848407811   10.37592731453108
W   10.58280307029585   12.32443457755769   8.45226104973432
W   13.25001152078104   9.19514146894181   12.12577974169358
W   7.52717455019410   11.71657026351764   11.12015420880368
W   13.43359194639948   11.74870321891260   11.28223319331292
W   13.17242894024664   13.73287367439443   13.13751220645346
W   13.34075955854636   14.45517765177978   10.45363834729241
W   13.43643097885703   12.35077877502217   8.53247506515518
W   13.36308918932902   9.71670048248767   9.39481844034997
W   13.30452668774234   11.13491095362814   14.02265714027460
W   16.33755086735583   11.80461335773927   11.36048517987913
B   8.85049324863347   12.24163174488098   12.81096891221965
B   8.83085940120564   13.42126739779875   11.54789714760356
B   8.87884437174341   12.89034454376512   9.86993222755728
B   8.92021363776653   11.18478318668109   9.48263155894956
B   8.87494601251169   9.99875891189609   10.73680326871025
B   8.77634199026323   10.53761619952646   12.41588318392861
B   11.97882913218576   8.46666090309185   10.52304037449779
B   11.84704065966669   9.58559543012970   13.71237928830443
B   12.04047239955810   10.78018972862726   7.99840495605476
B   15.07014970297706   11.24004363285447   9.66109875888008
B   15.03914504674831   10.06815188330316   10.95466932857509
B   15.02237698365027   10.59666264986268   12.63496194807747
B   14.96321480515195   12.31086486675832   12.99487388707912
B   14.96507542934770   13.49417522388343   11.72488723577733
B   15.04274944177213   12.96181669044094   10.04038796358217
B   11.88729692035263   15.04687998391671   11.95140794294992
B   11.98789547210644   14.02746983531653   8.71773630621747
B   11.76728209640644   12.68436971084957   14.45540296860327
B   11.96995695025651   12.79134532541944   10.06922744288405
N   9.14689718426758   10.47851571281762   15.62950831301001
H   11.34197497418855   12.07876975005190   15.51676580786439
H   8.20493559829249   10.84309391214587   15.82633166244705
H   9.48939675788396   9.95242648918460   16.42386036466150
39
F:    ...  E:  -0.325732840000001
W   10.43974040657549   11.70466568783798   11.17247444727332
W   10.66227969086913   9.67595445705278   9.34820491803095
W   10.53228868334114   9.12322858370349   12.04103239987623
W   10.26584575008498   11.06997571072952   14.07939028810581
W   10.46104389589254   13.78005043515362   13.03741368175915
W   10.50609866737196   14.40408572773319   10.36343899177143
W   10.59191322433734   12.30237920015239   8.44192427583282
W   13.23276824233658   9.21384918209341   12.14981930991997
W   7.51419194664671   11.69685468941524   11.12086691880992
W   13.42542502559047   11.76342438064345   11.29373376816863
W   13.16062153235328   13.75069765051511   13.14527193880736
W   13.33394303730119   14.44960178031975   10.44081492979064
W   13.41858534301314   12.33158818204438   8.53766126728867
W   13.35786415546806   9.70979116742405   9.42584487610360
W   13.25118297665700   11.18188337488309   14.02822777239836
W   16.32185678205877   11.80040019587075   11.37654579556569
B   8.84662058844808   12.25233281261541   12.80876887897648
B   8.80297058302537   13.41083830548740   11.52902054031749
B   8.87268340171343   12.87014794034376   9.84808368880904
B   8.92111671155034   11.17318860731334   9.47895215087182
B   8.84920398504197   10.00249185430003   10.75634886078021
B   8.78174390625080   10.55048060960826   12.43961009554190
B   11.97203861788590   8.46044836352010   10.55648575425709
B   11.82369855885721   9.59554587212629   13.72870554912562
B   12.03411700607884   10.73774579089646   8.00469918891997
B   15.05593373959167   11.23713725896194   9.67320426117839
B   15.03766518317559   10.07748815593652   10.98844654914152
B   14.98569491182155   10.61771392509992   12.67064443125492
B   14.94350211493484   12.32830220408131   13.00386613899778
B   14.96545436040417   13.49746393067548   11.71723968433825
B   15.03096285694000   12.95388711595801   10.02966430935195
B   11.86720150713519   15.03386856801878   11.92040176724581
B   11.97366990747054   14.02439770853857   8.70153584679908
B   11.74081231381357   12.77234476043666   14.42104785976436
B   11.95747884249529   12.79563266449726   10.07216448158167
N   9.20502374400782   10.58578790394595   15.66508946677796
H   11.67071200201812   11.77393853124118   15.31425370774915
H   8.24266482032492   10.89044175893052   15.85108836596748
H   9.55001698989719   10.00658096467491   16.42464885553017
39
F:    ...  E:  -0.44010854000004
W   10.42190266223500   11.68514815453967   11.15887689610142
W   10.64823294432385   9.64348202479177   9.34656464452089
W   10.51306827274139   9.09555612596307   12.03664160516704
W   10.26447716897416   11.08552064313088   14.08329503789668
W   10.43598058712975   13.76080521404652   13.02059462689521
W   10.46829039386709   14.38471506895014   10.33230263326800
W   10.58581400246050   12.27211715149448   8.42422571957694
W   13.22607503440431   9.19321548837485   12.16102005820485
W   7.49417323335019   11.66337122027719   11.09885349103599
W   13.40129428951747   11.76355140274228   11.29136408505834
W   13.14068205838313   13.78855258848654   13.10732954469791
W   13.30017254607061   14.44932943106843   10.42894802119048
W   13.39896414317119   12.30660618174910   8.53872447761337
W   13.34688655467956   9.70329164103559   9.43750201910493
W   13.22595684830946   11.18422155007894   14.00791591597086
W   16.30482559108275   11.80924821949156   11.38252391823872
B   8.81014069807711   12.22499025898485   12.79160952539991
B   8.77527176639501   13.38917302877841   11.49767984790833
B   8.85416144220938   12.83376147701865   9.81875987645634
B   8.91476579784867   11.14428146844823   9.45421411050230
B   8.83058692052866   9.97930909414570   10.74934372939677
B   8.78628852405070   10.53420626045656   12.44164250745247
B   11.96631358167799   8.45244238111352   10.56500131437405
B   11.78717352619236   9.59250497751455   13.71893599362114
B   12.02203507932683   10.70134690597223   8.00785662598535
B   15.04855287004548   11.23827542992757   9.68638965249117
B   15.01446816463570   10.07489017883330   11.00816502866346
B   14.96831457565144   10.62537003929591   12.67245961850544
B   14.91827910895911   12.33776164190572   12.99846838640341
B   14.95243507024427   13.50260493910607   11.69956694588042
B   14.99752660015045   12.95870494593945   10.02442014423386
B   11.80617614816854   15.02412809229678   11.89705300529583
B   11.95579315862229   14.01312435250099   8.69398134829807
B   11.76017373697740   12.73634468442773   14.42361612612404
B   11.93206382330913   12.78365717559566   10.06453772809953
N   9.28251669359113   10.70079532452997   15.73611041348215
H   12.06774981702081   11.86041607346244   15.36587143725029
H   8.34662614866695   11.03744015711848   15.97552541969482
H   9.63242642973058   10.07237501918462   16.45874453272750
39
F:    ...  E:  -0.44327727000001
W   10.40431998953324   11.69412204960701   11.12571282100951
W   10.63417694458833   9.64582860157377   9.31707850892396
W   10.50862083845118   9.04022882644756   12.01948309240799
W   10.26761825307600   11.08311550120043   14.06929029472508
W   10.45378992145941   13.72531136915525   13.00943911089758
W   10.45660512754539   14.38429487018051   10.33418420030871
W   10.56733545367394   12.23825310376811   8.41208305767260
W   13.26379691313573   9.13014785886308   12.14729785678445
W   7.48960516008111   11.62506035983587   11.10586263936190
W   13.34099345848920   11.73967405762858   11.30199634206193
W   13.11695617562217   13.81219732259703   13.09784314167445
W   13.27837199553822   14.42821979160406   10.42575877122090
W   13.38560002368767   12.29621165560448   8.53308890100560
W   13.35293388730948   9.68234645179422   9.42022611674102
W   13.22600244358534   11.18239651684369   14.04708706482344
W   16.27741030393387   11.79486800696718   11.41778130557643
B   8.77474123589798   12.19133849662022   12.77761744781831
B   8.76462982784615   13.37142897164395   11.47510682344005
B   8.85043805905209   12.83877111104194   9.81129106981036
B   8.86129525828142   11.14092904233804   9.45178154581891
B   8.83827115130798   9.95785806188014   10.76613530491467
B   8.84740765179612   10.49326376668295   12.43269240733437
B   11.96654790180649   8.47542149330752   10.54313128572761
B   11.78712293058742   9.63197859528882   13.64430379454582
B   12.03015479234299   10.68409528300981   7.99186723313560
B   15.00786687503885   11.23126664749772   9.69271913865942
B   14.99235775166216   10.07018423032722   10.99527196051625
B   14.93948465173917   10.61292809167803   12.67592485769713
B   14.86228856981061   12.32613517693429   13.01323921218381
B   14.92183764672936   13.48102333853536   11.71513981750388
B   14.97256617021725   12.93058521408075   10.04437501665155
B   11.79250385217672   15.04783654740273   11.89459995842754
B   11.93746107574751   13.99731406159718   8.68737832456584
B   11.76883180335641   12.72444272138558   14.44089376178866
B   11.90745269054437   12.77880279923611   10.04002053283156
N   9.33066234986969   10.75278446223087   15.75717057756860
H   12.33305170079116   12.14700965243328   15.48756663511379
H   8.42996516024512   11.13921081610304   16.03721925169932
H   9.66556001622388   10.07975108785418   16.44697682983292
