39
F:    ...  E:  0
W   11.98460294593974   13.09662052225992   13.75109409114492
W   12.18667353907991   11.05119629917326   11.92379705042754
W   12.12977117117969   10.47629798235020   14.63747801865896
W   12.08813674825606   12.52354122774264   16.44878193917962
W   12.08360500145886   15.14759869972888   15.58489912749463
W   12.09778475865560   15.76560106170923   12.90056768356308
W   12.14208408839215   13.65955139062762   10.94065901515283
W   14.87068311390292   10.48146862060440   14.70405631821350
W   9.08414238055919   13.08728622924329   13.67664524397571
W   14.98152969405145   13.10831885670469   13.84680555987104
W   14.79684148424454   15.18413698283759   15.66348243422925
W   14.89535992166822   15.79881347421614   12.98002868532399
W   14.96953244988008   13.66005908669857   11.07427016447427
W   14.94108164729440   11.04300320922812   11.97799100904043
W   14.79995245358331   12.54698199871850   16.53723791717859
W   17.90424891089987   13.14532738871215   13.90695013436533
B   10.35505910382695   13.61836144627328   15.37485604723501
B   10.38346433591263   14.80036268230438   14.05569233940205
B   10.46133448463187   14.26725380461884   12.39132624127117
B   10.44293747979310   12.55138090179785   12.05052763410816
B   10.42277002453517   11.37442837530243   13.37167495972072
B   10.39058246209058   11.90853175940177   15.02990096537303
B   13.54069822988758   9.86907920772556   13.11682029792069
B   13.46128600762163   10.84788442115961   16.31337883365594
B   13.58473698284787   12.06741480003024   10.61056491001960
B   16.62732210244355   12.59637137095249   12.22129812349460
B   16.61336713687518   11.41773612770532   13.53838417039262
B   16.54344664239213   11.94794084137196   15.19469294320805
B   16.54299708183951   13.65667604228878   15.53420218617378
B   16.55977177034310   14.83834233009750   14.21170060737628
B   16.56501521577790   14.30655966186221   12.55315805065724
B   13.45379058500669   16.43955230461926   14.47560567731213
B   13.54656473870765   15.37240838920312   11.24342054463372
B   13.41494230984359   14.16300746514422   16.97951068806797
B   13.52581275578286   14.15405064515598   12.63308336069038
N   11.11117687728314   14.04746904341793   8.96596649262298
H   11.61561988106411   14.78184988274172   8.46144575710772
H   11.10186359844879   13.20893484496733   8.37948759242247
H   10.14463096965522   14.35382170695963   9.10377827049697
39
F:    ...  E:  0.0209211600000003
W   11.96469123502914   13.13048615758836   13.77274073647001
W   12.16068397601546   11.08013149714705   11.94854780291206
W   12.11034606516047   10.50682996289916   14.65364819692686
W   12.08529448669798   12.55545677925003   16.46063089019827
W   12.07079942934814   15.19077391672131   15.60059263041005
W   12.07352670822380   15.79643870241024   12.90877478730916
W   12.12911651846427   13.68123666463534   10.96645059486011
W   14.84722766646800   10.50256397755163   14.70045453707795
W   9.06617655089458   13.12210116200273   13.70223202274055
W   14.96576872287619   13.12259020007816   13.84684159896098
W   14.81206008154583   15.21595979405150   15.66264999953663
W   14.90061273475867   15.81878614313423   12.98043823365606
W   14.92778681333395   13.67362694719502   11.08648661272678
W   14.91137925766038   11.05283671509642   11.98250100449510
W   14.79764448511951   12.56748355295483   16.54217662464867
W   17.89296559384801   13.14395196997620   13.89153005465514
B   10.35019755689307   13.65650869357416   15.40135800574152
B   10.36236577315850   14.83348152956257   14.07919700293716
B   10.43780236934566   14.29886187090084   12.40687196483668
B   10.42599014268774   12.58187302806383   12.07482741777550
B   10.39766331961013   11.40903284957166   13.39469279979854
B   10.37209719720212   11.94691863483774   15.05686716221556
B   13.51058022284342   9.87364660708115   13.12351111009320
B   13.45191902762195   10.87548687099292   16.31960791810314
B   13.55666724340267   12.07166551485378   10.61208212229480
B   16.59548282936906   12.60437957934460   12.21113903229533
B   16.59947356240748   11.42855265472255   13.53241343522803
B   16.52827282580254   11.96258451181608   15.19310223446148
B   16.53308895484880   13.66663115731069   15.52854684381435
B   16.56576348453360   14.84326148857752   14.20597914509283
B   16.55144724590022   14.31139628470165   12.54207959778418
B   13.45406820902836   16.44267615743239   14.47239885847848
B   13.52376613897325   15.40559694174592   11.26266899348219
B   13.42115916728044   14.19284166321531   16.95708766538720
B   13.50516001052534   14.19221441950151   12.65945654525873
N   11.22540496653252   13.87586814770408   8.90859691472263
H   11.57818927718973   14.73704515118336   8.48740143446676
H   11.49958449621626   13.08476444767691   8.32362584922549
H   10.20299673884142   13.90867873859317   8.90501270457871
39
F:    ...  E:  0.0969378900000493
W   11.94300069102938   13.15484116630169   13.79021152780025
W   12.13329509553356   11.10103321560027   11.97284977270117
W   12.08287009332884   10.53589568796919   14.67073091379106
W   12.08223743054835   12.58738216277870   16.47451500363873
W   12.06142186465130   15.22865864632831   15.60995475109079
W   12.03871597271182   15.81845708662462   12.90995906687656
W   12.09846094788052   13.71074860688923   10.99093560742922
W   14.82860915839203   10.52796528116118   14.69786281709242
W   9.04411414477801   13.14634412827689   13.73187626582159
W   14.94557603687784   13.13518239089002   13.83647935732963
W   14.81968708931828   15.24893666709975   15.65226028281899
W   14.90123651796615   15.83691678187926   12.96738807138919
W   14.87614578680114   13.68080874293260   11.08551129627665
W   14.86053053417081   11.06485822647783   11.98014414522353
W   14.79449404630760   12.58671888537783   16.54025676309845
W   17.87369724374805   13.14495941902074   13.85992167925338
B   10.35035423813722   13.69384963827912   15.42756253621895
B   10.34142478100063   14.85728886887242   14.10626450736770
B   10.39850236432039   14.31817892811856   12.42659443129751
B   10.40873732937650   12.60432399192177   12.09570828708045
B   10.36537797688214   11.43864617934536   13.41353289172894
B   10.34735537454818   11.98564656164970   15.08554368739551
B   13.47777072368244   9.87465336347712   13.14461563224808
B   13.44122163953921   10.90199433036207   16.31995391723583
B   13.51034812897327   12.07574485831130   10.59748257798158
B   16.54946135379769   12.60403609178740   12.18595089691049
B   16.57845888700611   11.43955901880831   13.50877689196621
B   16.52368026071451   11.98630241320588   15.18111853045465
B   16.50923664968045   13.68604371394888   15.51230013532006
B   16.56354299352522   14.84634255360044   14.18840646202033
B   16.53006774010253   14.30663894990398   12.51546025416101
B   13.44846743976950   16.44197614276667   14.45120276974445
B   13.49461546345017   15.43168417631222   11.27605952163497
B   13.42813221241669   14.22078854430888   16.93648716040756
B   13.48092134165268   14.22539531072895   12.67812190228965
N   11.35492641890608   13.75184401816424   8.88795008520403
H   11.54306324532190   14.65519657959608   8.43449723972848
H   11.97889449234465   13.01516101576863   8.49519069311352
H   10.35656737646997   13.49421874081077   8.72558275251565
39
F:    ...  E:  0.695842750000054
W   11.93262572927796   13.14199503932862   13.78704577302070
W   12.15735288356200   11.10214545215556   11.93900544185998
W   12.06846620610548   10.54997667114303   14.65133732091526
W   12.06792469450652   12.58156473305005   16.46046454460521
W   12.08684602283846   15.22520614382800   15.61125168348502
W   12.00502717807859   15.82282262190424   12.90576700440921
W   12.06663579970268   13.77620241292012   11.04491988251781
W   14.84062918191006   10.53389205939107   14.68331758818720
W   9.03695963409935   13.10855188495597   13.73728939719892
W   14.93209024244393   13.12244470995018   13.81391830867559
W   14.80078652650519   15.24829121586456   15.64280181835315
W   14.91501388302494   15.84805687492173   12.94718576021633
W   14.86788988946820   13.68378509656249   11.06990332502117
W   14.78376635648627   11.09192863240856   11.91601557599731
W   14.80347200715352   12.56975401068687   16.51356091262874
W   17.85275550677910   13.13280287649116   13.81572233691934
B   10.36690047679686   13.71641377864072   15.41776538207163
B   10.35711842291825   14.86090632471383   14.13141785658106
B   10.32686509307342   14.29492977751885   12.45983815576260
B   10.42939514482903   12.58792932239448   12.08341561080038
B   10.39309904891656   11.41867292178428   13.36561831158021
B   10.30024263722107   11.98537270576611   15.05674155597493
B   13.47793014445431   9.85186051711040   13.15701264496595
B   13.43928024886142   10.90395243163687   16.28902479859471
B   13.45228422463530   12.13242885974818   10.50025841506755
B   16.51436267050710   12.56641179896195   12.14733587886903
B   16.51731743445256   11.42577175748098   13.43996377737357
B   16.57649500639461   12.00279070453702   15.13588383450640
B   16.47003077979652   13.71211952954276   15.48313564940585
B   16.53188173792042   14.83967317828380   14.17832460255423
B   16.53694716853031   14.27643961168390   12.49369350211946
B   13.44924022323569   16.42780926040257   14.40365400735274
B   13.51114591811847   15.43548491678061   11.29950408905136
B   13.43468679526227   14.18793363554601   16.94260376491978
B   13.48784130208475   14.24565114775209   12.69476330386294
N   11.38165113995315   13.89257146754293   9.00541460353239
H   11.65841718114575   14.54597824041221   8.25879665080859
H   12.08103962612206   13.07608281908216   9.10376969589630
H   10.45280691848905   13.43861594277181   8.77777831999521
39
F:    ...  E:  0.322791670000015
W   11.94806656607097   13.14067483007136   13.77130225515694
W   12.16420037704094   11.10689637786204   11.93885448006662
W   12.07895451590199   10.54091157472273   14.65541752589615
W   12.06074004974606   12.56679912615470   16.45143535888511
W   12.09040890048834   15.21061848100496   15.59705121047926
W   12.02560184867821   15.82019311213998   12.91941755353884
W   11.97940733667467   13.81404640941450   10.86784690832979
W   14.84292018280857   10.52417368656215   14.68942871484941
W   9.04452328997278   13.10485310581148   13.70275915483163
W   14.92663464494464   13.11998235036035   13.80469814899071
W   14.79851530740449   15.23677104245751   15.64675226345836
W   14.89219633360608   15.83946022851550   12.95041728922198
W   14.87971897417760   13.68407888057456   11.06463397782926
W   14.74520347306397   11.14112230790079   11.89073268681043
W   14.81070568472123   12.56517199877399   16.51804637632552
W   17.84887015660444   13.12543210568222   13.81786267598511
B   10.36624719058763   13.70132957370477   15.40779011791288
B   10.35392662099835   14.85030424003182   14.12128017859071
B   10.36312056807594   14.29537043326419   12.45202674647331
B   10.44353684367552   12.59139370030750   12.07186652872350
B   10.39564368583975   11.41659438692537   13.36284783451150
B   10.30638302230282   11.98130465352001   15.04743651080452
B   13.49193281463635   9.86257657627707   13.14046669286066
B   13.44469729756755   10.90550371410757   16.29868039570157
B   13.37818229018464   12.17324499110168   10.35373972697259
B   16.52622605197188   12.57031643340162   12.15614780573797
B   16.50893874681741   11.41309856630254   13.44310196872031
B   16.56482775102930   11.99204902746067   15.13233480567593
B   16.48043808829236   13.70158754146980   15.48004321700584
B   16.52254723008674   14.83657732473517   14.18001618539826
B   16.53762760843481   14.28528008274662   12.49824428567981
B   13.45513760724140   16.44489905311483   14.42492249002901
B   13.49877952781123   15.41168318367558   11.28034099219701
B   13.42704179384356   14.17067588835673   16.94087783083182
B   13.47428126326020   14.23357292137169   12.65876493994844
N   11.12930921563058   14.18219409180678   9.09263110544817
H   11.63854020495350   14.56954032741077   8.29766116950075
H   12.54208279937530   12.67516975553584   9.47080290482934
H   10.37910522113809   13.55976900101850   8.76654007144862
39
F:    ...  E:  0.0980988100000104
W   11.97122635836139   13.11363593883131   13.74920226112912
W   12.19345052618856   11.10787674864104   11.88506662618086
W   12.11378595037323   10.51620450688826   14.60527036658777
W   12.05974431767061   12.50289302661912   16.43964093377882
W   12.10649299439395   15.14683968468506   15.60283337553938
W   12.05215757295566   15.81905961161372   12.95936263412436
W   11.96937832694115   13.87780789443927   10.81619544957400
W   14.86211014618160   10.49376320768989   14.64893189485957
W   9.07526605108608   13.06066012617080   13.65325524810609
W   14.93643192892983   13.11012182228430   13.80574518611146
W   14.81309036645549   15.18767291202255   15.68392234785582
W   14.89353122163241   15.81606281431839   12.98431746155576
W   14.87477177029918   13.71080711902211   11.06300468953657
W   14.75335927629117   11.17495301731932   11.84554126598164
W   14.83327997948067   12.51172056401350   16.52230402065616
W   17.86167517303556   13.09927257669381   13.82536783818746
B   10.37129209212600   13.64455228135795   15.37847826980472
B   10.37227061439423   14.81503251928143   14.11738483636015
B   10.39983156348574   14.29374376824909   12.44079914275388
B   10.49068426396461   12.59211107601113   12.03770859721111
B   10.44365848416364   11.38510215975827   13.30845197244238
B   10.32906000949572   11.92538502297045   14.99293621610036
B   13.53395887184795   9.86081272584898   13.07382320596075
B   13.46692580777872   10.86615175917790   16.27277180904835
B   13.44113671125841   12.19554754698180   10.32738348127702
B   16.53117602065671   12.58505111213321   12.14518811535449
B   16.51859283541532   11.41143799896134   13.42231725719612
B   16.57444750662953   11.95948315572200   15.12748121833748
B   16.50022707209601   13.65807814799897   15.49634020218596
B   16.53769351937058   14.81206044941567   14.21180530423344
B   16.56047616512720   14.28025606881856   12.51928798326102
B   13.47690565612957   16.41981276539911   14.48002593177545
B   13.50151629399414   15.43029907386745   11.29945359817486
B   13.43091762386933   14.09802142361890   16.95011966814260
B   13.47358155874883   14.21402728966665   12.64802635069572
N   11.06150812777134   14.49504750678039   9.16073711252266
H   11.55327368619729   14.66265414060355   8.28817745862204
H   12.34146438957117   12.25173278568421   9.60603731858734
H   10.08487025128721   14.25946873609570   8.97052443584756
39
F:    ...  E:  -0.104340899999954
W   11.95420914697261   13.12863224107348   13.73140639084122
W   12.14731622546894   11.03060201193347   11.94531117257861
W   12.10455409657198   10.52504381692381   14.62496031065929
W   12.04856692400363   12.55002219742711   16.43816429519652
W   12.09984974448916   15.16883451770448   15.56808051533477
W   12.04277365617396   15.79392960677346   12.89467842814582
W   11.99239857695723   13.74354168317633   10.81021530854427
W   14.84702226748978   10.48973206986614   14.69848487149136
W   9.05684516255088   13.10839045090607   13.65448320574835
W   14.92799835665591   13.12446197691441   13.80354274220038
W   14.78944203936074   15.21244899228693   15.64797342733949
W   14.87004373027392   15.82242169693520   12.93395722713404
W   14.91990815415304   13.69259574030735   11.03626804364211
W   14.84548187755633   11.09318049073236   11.95478947794101
W   14.81687479013341   12.55063683487038   16.49136568810419
W   17.86024954004088   13.15521856086260   13.82675848990857
B   10.35475636158365   13.66387093180289   15.37497223883177
B   10.34983613320446   14.83277273663351   14.07865398373561
B   10.39974595800937   14.27908357167880   12.39446038598876
B   10.46716585609373   12.57229036145984   12.03368123103600
B   10.37985495217992   11.40881946345982   13.33861125051560
B   10.33223595566784   11.95743628182461   15.02409365361452
B   13.51592265617710   9.84541049016864   13.12123326676965
B   13.43760056822535   10.90216818790024   16.29421065714054
B   13.45991135227467   12.10344380750323   10.52257302437870
B   16.55307802346130   12.57784426050187   12.16486820677301
B   16.54535611632414   11.41902018530310   13.45238738696143
B   16.56659112765649   11.97908981344604   15.11708273121964
B   16.50146891047198   13.69401584644995   15.47418153351767
B   16.51144621926353   14.84925768798086   14.17844572522314
B   16.53442928251012   14.30372546080670   12.51051524908258
B   13.44771570682369   16.45181234736814   14.43217631980979
B   13.49915405495314   15.38746225653096   11.24641681680677
B   13.42417452670845   14.13956611741363   16.94639939551704
B   13.48238556872023   14.19361788745135   12.60287725056413
N   10.97672894355407   14.29438454871482   9.19286101419974
H   11.45390413858563   14.46887300724135   8.31487320405980
H   12.88323452945005   12.59038196890542   9.44784505527813
H   9.96498985490819   14.26118097641737   9.04136190982434
39
F:    ...  E:  -0.32719856999995
W   11.94232461679408   13.12499498984015   13.73831495440990
W   12.09229966588781   11.02030044889559   11.95689709440815
W   12.08327836730705   10.52721902330589   14.64513516325533
W   12.06913839155278   12.57946506199907   16.44183977961539
W   12.09644668764347   15.19096114945168   15.53563359144929
W   12.03216652737904   15.78349288653593   12.86219075872861
W   11.96236516782412   13.71997232599085   10.84041247451597
W   14.84446701042006   10.50174776811843   14.70571758102939
W   9.04246986813940   13.11785691783166   13.67814793996576
W   14.91663683922896   13.11857115478610   13.78607760667381
W   14.78515438943918   15.23884549668578   15.60807385178512
W   14.85717969427306   15.80401721138167   12.89649784546236
W   14.87341011062703   13.63469574843175   11.00579135895027
W   14.83829401258293   11.07754809430585   11.96279750674105
W   14.80147720049628   12.58053272699599   16.48445698962670
W   17.84369162718277   13.16341038438301   13.80608569592906
B   10.35995736920508   13.68500763336959   15.37982292714529
B   10.34111293672882   14.83319406142014   14.06377180892872
B   10.37947417540840   14.26787976891632   12.38895237094716
B   10.43713905003807   12.55409590393883   12.05341222443617
B   10.35333934220660   11.40889545362119   13.37006720409803
B   10.33192941409918   11.97712808570105   15.04814616989564
B   13.49214246187556   9.86823728559074   13.14498509348358
B   13.43495529440311   10.90388023556640   16.30673897106421
B   13.43959597208957   12.00803250061250   10.56354325669683
B   16.53957780523260   12.56359913365676   12.15412774399365
B   16.53931195149781   11.42179660467071   13.46074773722544
B   16.54974518187623   11.99404044806811   15.12229330315473
B   16.48651911954223   13.70857225514211   15.45702337705968
B   16.50555020464727   14.85024418975598   14.13515038149214
B   16.49761592460216   14.28314348941647   12.46280916864606
B   13.43954127273255   16.46329482795483   14.38067588377052
B   13.47696422976324   15.35822446818105   11.22021889660491
B   13.42818443760927   14.19735947675878   16.93977851677786
B   13.46287132221761   14.17107809720406   12.58711613907100
N   10.98964097584912   14.15927908350534   9.17334178675693
H   11.47230971210142   14.45596487699215   8.33069348621965
H   13.33896520990495   12.97094905293510   9.67250437970895
H   9.98797754525002   14.07769276373921   8.99523006593448
39
F:    ...  E:  -0.468296369999962
W   11.92310312255698   13.13682725757604   13.75248888083517
W   12.07355593444373   11.05185025048763   11.95900066389236
W   12.04924343214990   10.54259154559509   14.68698462126733
W   12.07998160167627   12.61716666693173   16.44506074406479
W   12.08253494667747   15.22282346335483   15.52765401275768
W   12.02370100888677   15.79945406789344   12.85591338529784
W   11.94109094754069   13.69902473048059   10.85058656696425
W   14.82850880153369   10.50911082449385   14.71152916234830
W   9.02657814522603   13.14699695816332   13.70176877425463
W   14.90076301527337   13.12759868524564   13.77795649753580
W   14.78650872400812   15.26551266814161   15.58338238040441
W   14.83963058298606   15.80165575050574   12.87380647471544
W   14.86104864715771   13.64435122684594   11.00909962833031
W   14.81377808182355   11.05239320267051   11.99796425525243
W   14.78139410580299   12.62347772695658   16.47969331202449
W   17.83423608698996   13.16138155922110   13.79452024224861
B   10.34542200304615   13.71585337596989   15.39475587978205
B   10.33467715287999   14.85373657606635   14.06244907584211
B   10.38597829944980   14.27653693929505   12.39628521044288
B   10.38754258399539   12.55530100554270   12.08387660023055
B   10.33738225986798   11.41527525509542   13.40904610986163
B   10.31251593083728   12.00300195751497   15.07307201157687
B   13.43626993793652   9.89022957249057   13.17851467013024
B   13.43370758401011   10.92153876551749   16.31720274033405
B   13.46844580787624   12.02172196920631   10.59422747569957
B   16.51214299777146   12.56303550364927   12.14689511501808
B   16.53933816307085   11.42971768501485   13.47288470415493
B   16.50982254851545   12.00527097571869   15.12716279037499
B   16.48460074871895   13.71747386542945   15.43579198981836
B   16.49730104545312   14.85769090704227   14.10032433167042
B   16.49201758921687   14.28062880200851   12.44539119402442
B   13.43243259716120   16.48586691055029   14.36756404835608
B   13.43297401397997   15.34403761623952   11.19985757111675
B   13.42444997220423   14.25855417360856   16.93662082018865
B   13.43343690052732   14.17549895536399   12.58736149936615
N   11.01910344922691   14.01551512892590   9.13860173422839
H   11.46303975385131   14.48690006869059   8.35357405937426
H   13.77850888420053   12.91440394221121   9.63337241989836
H   10.05845367713346   13.77521454994082   8.90297943197289
39
F:    ...  E:  -0.54353268999995
W   11.92175379975188   13.15952929143895   13.75887178057642
W   12.08760476520172   11.07203100989774   11.97978928062470
W   12.02762508296100   10.56093943787365   14.71543824673405
W   12.06039463412787   12.64515645652523   16.45637985441780
W   12.06257457111262   15.25163057483862   15.52982099416380
W   12.02363249291874   15.80800419231992   12.84606908544608
W   11.92987093414630   13.70414242200624   10.83794216241115
W   14.82153761010990   10.53218631211026   14.73776485812935
W   9.01959455129127   13.16291222414036   13.69841460111936
W   14.89475841980857   13.15030542221250   13.78754977648441
W   14.77590629269006   15.28660096989657   15.58546113931206
W   14.82762012682268   15.81894617330659   12.86918449062219
W   14.85647648065140   13.63600984987847   10.98760155030435
W   14.78944357817409   11.05609367588575   12.03055913862480
W   14.76060830020223   12.65780998746019   16.48286502264461
W   17.82279851135839   13.18713721893087   13.79689417585976
B   10.33423617207459   13.74141544266319   15.39424935816434
B   10.32811093885453   14.87384116755385   14.06311115733839
B   10.38439482313019   14.28959058896118   12.40142492291374
B   10.38793629131517   12.57065319851708   12.08623031650792
B   10.33954703607817   11.43432256831759   13.41433987829763
B   10.29647706438975   12.03050198560713   15.07557380806973
B   13.41981194119589   9.89837618089229   13.22013752062340
B   13.41783960651285   10.95111470876845   16.33148298242180
B   13.46133078495546   12.04333976394321   10.57622544699836
B   16.50550818873728   12.57616879018574   12.15997613251568
B   16.52991570115293   11.44941671216653   13.49377476412388
B   16.49774306906690   12.02759495738099   15.14159634546111
B   16.48179126880124   13.73960433636949   15.44346911441547
B   16.48426259259336   14.88080195469318   14.09872318636426
B   16.46772049105378   14.30022814629375   12.44665691789672
B   13.42105579994274   16.49693014874011   14.36929438254976
B   13.43126211732866   15.33724269098441   11.17801398343802
B   13.40315863303873   14.28939627110145   16.94084499996959
B   13.43419774450403   14.18534004804099   12.57533940714764
N   11.01937894676470   13.93544273028223   9.11016006060304
H   11.42452339697265   14.44043835290991   8.32131873896803
H   14.12532033677974   12.58824134723082   9.54632273360532
H   10.08749798908526   13.59578377533168   8.87634876978864
