39
F:    ...  E:  0
W   11.77333743282217   13.17751098258261   13.26295863485679
W   11.90800155657612   11.11710935078601   11.36985223145011
W   11.86939017709654   10.56790570703226   14.11052433998619
W   11.80913208543952   12.63185040157897   15.95517728159860
W   11.78799983266070   15.29165953276624   15.09728766628018
W   11.83995066678067   15.87729799489632   12.40350984628408
W   11.90147260333084   13.72928006606491   10.48632506992227
W   14.57511556920459   10.61752358085501   14.15997161116243
W   8.82850659638822   13.17135854106442   13.17370673201909
W   14.74653692871402   13.22318090415983   13.30780143290993
W   14.56146973495737   15.29274688436186   15.15931272526765
W   14.64907584486868   15.90467358145310   12.48111555143952
W   14.71191824489804   13.73976736338902   10.54822316046718
W   14.68250335791212   11.14647355898021   11.45707318838643
W   14.51569545775054   12.66470471679975   15.98597657043590
W   17.64823239819623   13.24511275612424   13.37773523003163
B   10.11425063006599   13.72387473090939   14.86021168154519
B   10.14517708682272   14.88198430830903   13.55442277333599
B   10.21890288657229   14.35063195314429   11.89907771838551
B   10.20980489075526   12.64267301252884   11.55648495533229
B   10.18005807538224   11.47616312817842   12.85264883999921
B   10.13214920315317   12.01540235338813   14.51170528026536
B   13.26193488758579   9.94355220710292   12.56525857356550
B   13.18155769860820   10.94950515403497   15.80420126987419
B   13.32042165526139   12.13643994025119   10.07523147163280
B   16.38377032824405   12.69676891018335   11.68912309600542
B   16.35599761152893   11.51411550946520   13.01322060735654
B   16.27760243101409   12.04954600696536   14.67148701512894
B   16.29174987029123   13.76000287788236   15.01763183174570
B   16.31763129097894   14.94320287583331   13.69406610530467
B   16.31749177827517   14.41569450238490   12.02357294276112
B   13.19399497699970   16.51133726835983   13.98009230477000
B   13.29388068568308   15.46373856042108   10.75071254643071
B   13.13625193818744   14.28155124989867   16.43969868458148
B   13.26371917668593   14.25034511755582   12.10928661917323
N   6.56417873163721   13.14761013363512   13.12890549941805
H   6.20752987715747   13.16774358066418   12.16621738784882
H   6.17865645530743   12.30873743895818   13.57661257733348
H   6.16796465021386   13.96013997062733   13.61532701140028
39
F:    ...  E:  0.0171185699999796
W   11.79802066632233   13.16988270248943   13.26594562771806
W   11.92574630304821   11.10714860222977   11.36720182152760
W   11.89228169364198   10.55662459246417   14.11476892278772
W   11.83235984867179   12.62567716745822   15.95968533036277
W   11.80853605465997   15.28605956647526   15.09673718436054
W   11.85148733401634   15.87349865066886   12.40101014230565
W   11.90990913313886   13.72487553079473   10.48239441492187
W   14.58900365438478   10.61722765428081   14.15471661788809
W   8.86014175744129   13.15890486549115   13.18415955382150
W   14.76072990120060   13.22396822490358   13.29540882675205
W   14.57771315676387   15.28972272266675   15.15069806997096
W   14.65961339725337   15.90709220502750   12.47206063801827
W   14.71930334004209   13.74044129952000   10.53359080626465
W   14.68780818598866   11.14347631717829   11.44909265133608
W   14.53493019280583   12.66455822685995   15.97232141102451
W   17.65934426455516   13.24176607961485   13.35327116198640
B   10.13588361307322   13.71109218733353   14.86111454369197
B   10.16549059833404   14.86730630582619   13.55503882462866
B   10.23713569367011   14.33683833211405   11.90354725369010
B   10.23096175278697   12.63029998482752   11.56039638633806
B   10.20700838435375   11.46500895634418   12.85499680636907
B   10.15660650463468   12.00207617848253   14.51239401143162
B   13.27756251085557   9.92972422231957   12.56332827864577
B   13.20402732966645   10.94255018776746   15.81126756753252
B   13.32787593299529   12.13593528316116   10.06718116341397
B   16.38768770106811   12.69338674676656   11.67210857161413
B   16.36181642099763   11.51159127554837   12.99717358108376
B   16.29392693701770   12.04842929650047   14.65437512896535
B   16.31114116214443   13.76001418606017   14.99901880773672
B   16.32901321221107   14.94290666919617   13.67766442429049
B   16.32536802900233   14.41497122158107   12.00766345924078
B   13.20674888374762   16.51044421705458   13.97555518790469
B   13.29956740746430   15.46444903056327   10.74398980839166
B   13.15702241098924   14.28071536314205   16.44400817763910
B   13.27681996392823   14.25135808293692   12.09870684827483
N   6.59141894848962   13.20684778966941   13.27712054817393
H   6.16505061140012   13.44309281832855   12.37207277684773
H   6.20672154367064   12.30364624869052   13.55837053142260
H   6.29357675692488   13.90387392664449   13.95605008433165
39
F:    ...  E:  0.0348642800000221
W   11.81741589480131   13.16527909546490   13.26579834629746
W   11.93926631088707   11.09923601796268   11.36218276356708
W   11.91107595220078   10.55195467885850   14.11608335896046
W   11.84786086206669   12.62271460165522   15.95938649716920
W   11.82604468916620   15.28118624345000   15.09490706148733
W   11.86489685206634   15.87151588172217   12.39938881923117
W   11.91650456820020   13.72348387375455   10.47503075055018
W   14.60024092733431   10.61508833744121   14.14987460204808
W   8.88076494547665   13.15010925782102   13.18093819270073
W   14.77164270621307   13.22360499519808   13.28451335132763
W   14.59149241160475   15.28550663122159   15.14600679716617
W   14.66580167029452   15.90875650626301   12.46436543703246
W   14.72676939330401   13.73957572512552   10.52122880726931
W   14.69242212112387   11.14029296886106   11.44120081305784
W   14.55179668259941   12.66568016470481   15.95857546220709
W   17.66835895054539   13.24018589000501   13.33005671046674
B   10.14892441425726   13.70528765331081   14.85691519603694
B   10.18497220996925   14.86047390128513   13.55262388252474
B   10.25405965754603   14.33061066053162   11.90419476357588
B   10.25116740201562   12.62240017385682   11.55811211255952
B   10.23053024902651   11.45750956183107   12.85172056579326
B   10.17272747000886   11.99435244555329   14.50702491658544
B   13.28952904376662   9.92011053399299   12.56061782856617
B   13.22149943319701   10.94094646453147   15.81574111997100
B   13.33358132311248   12.13695108187455   10.06167901450845
B   16.39262757771330   12.68967652761182   11.65760798223306
B   16.36403844658456   11.50734281645333   12.98184522772578
B   16.30882727918807   12.04488137714988   14.63564927335495
B   16.33157638128401   13.75924440638285   14.98062066346802
B   16.33486305415475   14.94385721961369   13.66272322692794
B   16.33048812741648   14.41613942875504   11.99489527175836
B   13.21971594513288   16.51280057395262   13.97598459627024
B   13.30630644789440   15.46287535068594   10.73531460535172
B   13.17263748629411   14.27748371291853   16.44874051428620
B   13.28662868969217   14.25012540480013   12.08916592066777
N   6.63865027862322   13.24799912386380   13.41521958116005
H   6.13499960821905   13.70404339001669   12.64218045204903
H   6.21432177959822   12.31962388853474   13.53307287575580
H   6.48803898501092   13.79363454840533   14.27223443647656
39
F:    ...  E:  0.206060980000018
W   11.81777343062378   13.17208616039715   13.26806445714649
W   11.93870911346801   11.09270488311298   11.36474187410913
W   11.90939401924140   10.56128543969600   14.12043554650265
W   11.84177727439239   12.62989509629621   15.95841164214786
W   11.83719833415415   15.28358324311842   15.09537108704788
W   11.87340028376505   15.87819216513615   12.40301971888481
W   11.90811618927158   13.73811013365285   10.46247700479823
W   14.59731413621075   10.60921722074163   14.15035891396521
W   8.89352307980465   13.14459284706047   13.13866794154877
W   14.76894971407077   13.22210911919273   13.27670709111763
W   14.59262085452842   15.28001113826849   15.15185602317992
W   14.66280329158769   15.91068702220112   12.45383945204595
W   14.72857117763340   13.73642671324247   10.51684925080150
W   14.67784721283340   11.13778752499836   11.43703454597084
W   14.55208034810555   12.66762968026988   15.93945607957017
W   17.66539460288004   13.24035758691223   13.31272627303047
B   10.13707759597117   13.72206018166276   14.84891339204791
B   10.19267544128193   14.87151778111828   13.55596941920989
B   10.26062462043648   14.34586044378583   11.90852878072016
B   10.27456645630000   12.62401700208432   11.54809415745168
B   10.24333904104269   11.46224324033568   12.84889686437671
B   10.16130947282239   12.00964602014026   14.50154619228349
B   13.28379385674033   9.90774601493985   12.56886915592058
B   13.21707005152551   10.94779925513484   15.81921561325323
B   13.31729064104287   12.15067602548911   10.07163933305289
B   16.39236442909265   12.67648190175266   11.65115274544508
B   16.34394534620509   11.49709183316667   12.96647730897298
B   16.31714442244547   12.03635767816682   14.61272500446089
B   16.34332866092717   13.76288524785358   14.95972513334636
B   16.31631669206567   14.94918028125613   13.65204015778554
B   16.33037046747074   14.41673210309032   11.99146624883205
B   13.23350697226920   16.51812565093258   13.97948641119128
B   13.30601765699132   15.45512079320873   10.73035583344052
B   13.17379316036928   14.27236032591807   16.46094564251266
B   13.28297444766127   14.24937999879972   12.08433709569467
N   6.69776314397855   13.22963465733925   13.47241390329717
H   6.11611958075449   13.87718850017120   12.93403287457247
H   6.19650648617028   12.34825736963533   13.54974033497832
H   6.94066620197952   13.61312932335749   14.39939080370728
39
F:    ...  E:  1.17943772000001
W   11.77754957226236   13.18497409395181   13.26745032925561
W   11.91188284855304   11.08337125610239   11.39188701580735
W   11.87102276500366   10.57591856188503   14.12302306493429
W   11.81743357864141   12.63999157840497   15.95839086824930
W   11.80541007743339   15.29561527532045   15.09783908684242
W   11.83714675947016   15.87611824875053   12.42437843632051
W   11.87740577833910   13.76196716682200   10.46419900006148
W   14.58218136793552   10.60896439135673   14.16077963376827
W   8.78458206465827   13.12573182561443   13.13451185851987
W   14.74495592845236   13.22159447032219   13.28931421856442
W   14.57808805920008   15.28640756347777   15.16811685961863
W   14.64641092421092   15.91096161931429   12.44634042976116
W   14.70810292853345   13.73435455911210   10.53827640092037
W   14.65051951438998   11.14599822433106   11.44105134486407
W   14.52935419819990   12.66640897715216   15.94366526436419
W   17.64631591809777   13.24539073861012   13.33229867758379
B   10.11068238496662   13.74379061766166   14.87796104010052
B   10.13691597485790   14.87475398228733   13.57976833715662
B   10.21311853262358   14.34846355596067   11.92645319494009
B   10.29641539545556   12.64659064944188   11.54822537666861
B   10.20089946859605   11.48239056239281   12.87023045858533
B   10.12846203385326   12.04398146559501   14.52182558614472
B   13.26596352245722   9.91028205097888   12.59226260444291
B   13.19236890629064   10.95360963778701   15.81085101265638
B   13.27491205887825   12.16269731415884   10.09396161726428
B   16.37512298436670   12.66382509482060   11.66601745717289
B   16.31375102646058   11.49446302029262   12.96628225146037
B   16.31597068137036   12.03711742510919   14.61411125849660
B   16.31803985036628   13.77651789619589   14.96311851148824
B   16.27915916742558   14.95597624010343   13.66711856485551
B   16.33080964871544   14.41128734913070   12.01034278821300
B   13.22992438534980   16.50270635547530   13.97542426856884
B   13.28092869488337   15.45318336495612   10.75429189144969
B   13.15375599974099   14.27571318564154   16.45468340808801
B   13.25613688119490   14.24947728644345   12.10194067035317
N   6.69902911407415   13.01237717655893   13.07113594447540
H   6.09240752704782   13.74889897034069   12.70469502051315
H   6.15072190653291   12.33914554868464   13.61491180431752
H   7.41909883903632   13.72011905853311   14.22023128679210
39
F:    ...  E:  0.511936670000011
W   11.72974728547283   13.19997313785127   13.25822809587778
W   11.87950583361414   11.08570696866193   11.40936994030053
W   11.83232327541987   10.59576782484509   14.11020240802303
W   11.78664372314664   12.65273551725715   15.94401123182989
W   11.76366094586770   15.30558651107178   15.08972733102339
W   11.80209390073161   15.87376090142288   12.43903572370598
W   11.86381280169468   13.76204920603661   10.46949657077980
W   14.56859396201934   10.60813604189488   14.17044305534615
W   8.66064777832102   13.11945870791519   13.11866239148370
W   14.72021716516346   13.22086720071882   13.30590164666986
W   14.56507362136151   15.29224406269302   15.18574399513640
W   14.63318469643619   15.90960663847877   12.44669789895535
W   14.68650920566345   13.73081458201281   10.55661015198708
W   14.63908126363711   11.14880951376822   11.45086646314547
W   14.50399376183525   12.66831269801260   15.95841423732633
W   17.62942124294161   13.25106713448927   13.35641650264280
B   10.08596490494674   13.75949080956421   14.88112284000692
B   10.07358531918995   14.88268758012282   13.56487615169047
B   10.16777995691318   14.34802979323271   11.91591965984044
B   10.27327179079882   12.66621755047563   11.53578387530490
B   10.14113988296507   11.49776179089051   12.88542555806620
B   10.08437532822237   12.06822112942678   14.52906064242553
B   13.24978502595611   9.92825605278945   12.60500228400332
B   13.16161820429409   10.96535119071054   15.79264776715380
B   13.25468443061632   12.15319266374432   10.11182418714292
B   16.36062857722533   12.66351650337863   11.68224516787661
B   16.30090500780831   11.49882744708214   12.97866529377056
B   16.30251667322085   12.04108763604931   14.62828273236668
B   16.29334475705284   13.78066360615219   14.97996958284659
B   16.25616532813816   14.95690815971508   13.68488877220343
B   16.32017572814424   14.40598914305622   12.02710001722723
B   13.21905472556001   16.47988648466848   13.97407484776067
B   13.26043620476224   15.45467906958785   10.77629888746280
B   13.12467691008378   14.28119152863155   16.43567688133999
B   13.23525162788150   14.24996885203807   12.12132368522310
N   6.71452916316723   12.74021033747157   12.76222202763662
H   6.15536615675090   13.50492904074139   12.35705070853282
H   6.21897527643605   12.37744462712539   13.57660621055172
H   7.64164305331698   13.95024848738698   14.26184146991162
39
F:    ...  E:  0.0930911699999797
W   11.72880574763582   13.20692917495773   13.26749131878574
W   11.86145930199750   11.09434060348050   11.42760580945951
W   11.82031425599219   10.61049755810286   14.11592499887141
W   11.79537393109421   12.64259266160461   15.96270302086536
W   11.77900421757926   15.32802468933419   15.09761682680882
W   11.80585193441422   15.87806636364837   12.43835416873303
W   11.84467402097170   13.76642424225765   10.48872891647219
W   14.57423175144517   10.58891249625156   14.16653169179818
W   8.66108184805495   13.16522790580016   13.17985566128465
W   14.72384097107715   13.21883365900293   13.29878376807551
W   14.56749225285061   15.28613128465921   15.17228797905716
W   14.63648523369551   15.90888442829075   12.43705634795278
W   14.66984790261936   13.71971021602540   10.54755272054312
W   14.61654406328374   11.15161730102628   11.45434294044559
W   14.50362218229834   12.66606830586726   15.94197832176823
W   17.63044816045018   13.24852064821455   13.33959698348508
B   10.12839428866693   13.78705176875112   14.92332227895698
B   10.09342168534643   14.90118019575783   13.58542500444223
B   10.13994227652822   14.35469405505961   11.93377117224985
B   10.25827352000709   12.66820240938412   11.56309368131499
B   10.10486291502667   11.52305475045339   12.89544688248635
B   10.07838685085002   12.08742526186441   14.55075855251228
B   13.23464255066438   9.92794382645716   12.61390851878734
B   13.17086462641459   10.95404806103000   15.78161936767721
B   13.22651564020246   12.14930051700551   10.10893642937816
B   16.35846699408179   12.66173301847266   11.67147120364379
B   16.30284254141460   11.49483747074123   12.97287346060885
B   16.29893313229674   12.03359184398755   14.62141858462485
B   16.30442727501198   13.77092727919813   14.97258768256617
B   16.26456389581903   14.95166856917288   13.67058811735906
B   16.31260865993707   14.40476823929355   12.01231126802699
B   13.22806940466732   16.48986419295867   13.96486811912286
B   13.25491122965248   15.44919580068689   10.77462912782106
B   13.12678990179995   14.28126368736012   16.42866607628351
B   13.23343047845907   14.25040025634391   12.12577615974013
N   6.75543598751782   12.81156193320701   12.73470815672739
H   6.14158519677553   13.54387129850340   12.35755015941129
H   6.24602344507158   12.21572088396565   13.38705291499245
H   7.98963764841352   13.93094795053414   14.56866594711782
39
F:    ...  E:  -0.0875584099999855
W   11.74969904425940   13.20853176507634   13.27685079726674
W   11.86038954431207   11.10088274267113   11.43011497245043
W   11.83429583672696   10.60833598821373   14.12488824131678
W   11.82028128834703   12.63309894255043   15.97813808987649
W   11.80734062706995   15.33024847976131   15.10844812582802
W   11.82221769784852   15.87783314083427   12.43405948901087
W   11.83829102779813   13.76969758668993   10.49814884719781
W   14.58272009936115   10.58248658765403   14.15679739451090
W   8.68890765401002   13.18720212047240   13.23920317106643
W   14.73574982081438   13.21653562371454   13.28462214631736
W   14.57909526564812   15.28057422095431   15.15240995012939
W   14.64389241632903   15.90939566222307   12.43313310107178
W   14.66793785167139   13.71623904496468   10.52886849347605
W   14.61015418193885   11.15012426169518   11.44694709849384
W   14.52062420842952   12.66108646680674   15.92897135656589
W   17.63858197725085   13.24209594767596   13.31174423351167
B   10.14539285551955   13.79021956976225   14.95357132544872
B   10.13253783794343   14.90860311090550   13.60181144677228
B   10.14024503662586   14.35833670856245   11.95428373097176
B   10.25323212422455   12.66889006080452   11.58859997597754
B   10.11101776251583   11.53058018852156   12.90060562432872
B   10.11231375125616   12.07567449497123   14.55725530990675
B   13.23345761078545   9.92517112896134   12.60895872613222
B   13.19312105913284   10.94020445132418   15.78705171942576
B   13.21730585955092   12.15161595702005   10.10210124200115
B   16.35921217372769   12.66263017740008   11.65217527528426
B   16.31270467820313   11.49144898816476   12.96054040386872
B   16.30163957763069   12.02931569698899   14.60745162456058
B   16.32174904004346   13.75967459893524   14.95669938430307
B   16.28634575086435   14.94399984320341   13.64889887580444
B   16.30723566688946   14.40357152503540   11.98915801426059
B   13.23697416812946   16.50664413878772   13.96200521395296
B   13.26158612292155   15.44850559150689   10.76372965412620
B   13.15140289184748   14.27830490161237   16.43348418862573
B   13.24307486067390   14.25010491876728   12.11511506153011
N   6.76021666737576   12.91598559944639   12.83519039109606
H   6.12415378027441   13.69212554154786   12.62551720767282
H   6.24054709347465   12.16548529007060   13.29146583893165
H   8.29581317365228   13.84786615084397   14.79521159638580
39
F:    ...  E:  -0.310820180000007
W   11.73090254223369   13.22094444165182   13.28924327065335
W   11.87205792106686   11.11130540788043   11.41607382558023
W   11.84491640762676   10.59563197735100   14.11683671184568
W   11.79890498823234   12.64036950798885   15.96608470454296
W   11.78919578606513   15.31379734827772   15.10829559361856
W   11.83004094067071   15.87824660051170   12.41000245184301
W   11.84534426007708   13.76175439126894   10.49316898393140
W   14.57530868440319   10.58740156213383   14.16081577907159
W   8.72481428627512   13.18441522975720   13.23079155128862
W   14.73061766558749   13.21279625831713   13.28166576875419
W   14.56445102007430   15.27979189642354   15.14042637144284
W   14.63197488032232   15.90623379836952   12.45186938388485
W   14.67214492462860   13.72304614725676   10.52048825521476
W   14.61859971315878   11.14165678048674   11.44297118243580
W   14.51361381153267   12.66032925907298   15.93243567657708
W   17.63392604997209   13.23693293197029   13.30513689278316
B   10.04778363867899   13.78295312430277   14.95063296243850
B   10.14795506490878   14.92844804065801   13.55273853893724
B   10.14454272784925   14.35876491889436   11.92498619723712
B   10.22944265927076   12.66465620952412   11.58311365943633
B   10.12951889169689   11.51427543034294   12.87013192860410
B   10.12571190827490   12.02342656507658   14.52158806331797
B   13.23913438674491   9.92789250923468   12.59706929229993
B   13.17461943196760   10.95423340168922   15.79602027327461
B   13.23634470983111   12.15292545138908   10.09471727219548
B   16.35579515949522   12.67151888960391   11.64886714310049
B   16.31781647587486   11.49066025566259   12.96688783338784
B   16.28963900662449   12.03108935462507   14.61316451085696
B   16.31370397020419   13.75062090516539   14.95981066211784
B   16.29621437881304   14.93580704338140   13.64547820055367
B   16.29116267128028   14.40750117832440   11.98240284505627
B   13.20472110464964   16.51035918959710   13.97390517314762
B   13.27376208783331   15.44828567886220   10.75426545664852
B   13.14446439373405   14.27528367534011   16.43174395653807
B   13.23742640896049   14.23782665935250   12.10853614819398
N   6.76135774604814   12.97462548063285   12.94054470986992
H   6.11305308254284   13.74955878801704   12.76419714807814
H   6.22760956120164   12.17598731396524   13.28906007416939
H   8.73534268754970   13.83676508690231   14.97872094486311
39
F:    ...  E:  -0.340572839999993
W   11.76325675774249   13.21601607538961   13.30755554630743
W   11.86172169695005   11.11443793461594   11.43486350720806
W   11.87935496831305   10.59095645161958   14.13643594332991
W   11.87994105222746   12.62527589806906   15.99165291593233
W   11.85181061998426   15.31635583828371   15.13121047361945
W   11.84051219919128   15.87692692092866   12.43448226151508
W   11.82734107594577   13.76265329312481   10.51327606421383
W   14.61072447794910   10.57426339555891   14.14053631661882
W   8.76200529823465   13.21107023561126   13.32746529838744
W   14.74358628925167   13.20539129340899   13.26290604617319
W   14.60924307718187   15.27649988561425   15.11700835459069
W   14.64395960687838   15.90296639098269   12.43625009659817
W   14.65418401298112   13.72170224060132   10.50125757259748
W   14.61598631305217   11.13562415814685   11.41711000774776
W   14.56948091061755   12.64890967969293   15.92097689428476
W   17.64906155938883   13.22341701963558   13.25632531865840
B   10.13694649938726   13.77423577783240   15.01010546099772
B   10.18296896378175   14.92342315054092   13.61506595380516
B   10.15687667623238   14.35909677286863   11.97418330308293
B   10.22846149253097   12.66871704143310   11.63374057291093
B   10.14150262012262   11.52157527782753   12.92170967652905
B   10.18107991997461   12.01587737696531   14.57665186614639
B   13.24999339314505   9.93370151148659   12.59141315921554
B   13.24052882253354   10.92569825496259   15.79706033843545
B   13.21406855774436   12.15057879784215   10.09569062015442
B   16.34735473931734   12.66779591473442   11.61112919289316
B   16.33085693328121   11.48465095924220   12.92906536514146
B   16.31500202332947   12.02194004557707   14.57743879378030
B   16.34519746420820   13.73815337799146   14.92395656907373
B   16.32106506177692   14.92255627833638   13.60635874910184
B   16.28815200952255   14.39719606660404   11.94450038631601
B   13.23980228058584   16.52790768890085   13.96948335645133
B   13.25949444001075   15.45484891100384   10.75507763662584
B   13.21832118161851   14.27467657356923   16.44146570147537
B   13.24484259469971   14.23958910068895   12.10127626977217
N   6.79029691308164   13.09579681423277   13.12402353886936
H   6.13791620093546   13.88093057834356   13.14358853685672
H   6.26407282417689   12.22042879989057   13.13499049470306
H   8.78720084080008   13.79440513915064   15.08650848747836
