39
F:    ...  E:  0
W   11.98460294593974   13.09662052225992   13.75109409114492
W   12.18667353907991   11.05119629917326   11.92379705042754
W   12.12977117117969   10.47629798235020   14.63747801865896
W   12.08813674825606   12.52354122774264   16.44878193917962
W   12.08360500145886   15.14759869972888   15.58489912749463
W   12.09778475865560   15.76560106170923   12.90056768356308
W   12.14208408839215   13.65955139062762   10.94065901515283
W   14.87068311390292   10.48146862060440   14.70405631821350
W   9.08414238055919   13.08728622924329   13.67664524397571
W   14.98152969405145   13.10831885670469   13.84680555987104
W   14.79684148424454   15.18413698283759   15.66348243422925
W   14.89535992166822   15.79881347421614   12.98002868532399
W   14.96953244988008   13.66005908669857   11.07427016447427
W   14.94108164729440   11.04300320922812   11.97799100904043
W   14.79995245358331   12.54698199871850   16.53723791717859
W   17.90424891089987   13.14532738871215   13.90695013436533
B   10.35505910382695   13.61836144627328   15.37485604723501
B   10.38346433591263   14.80036268230438   14.05569233940205
B   10.46133448463187   14.26725380461884   12.39132624127117
B   10.44293747979310   12.55138090179785   12.05052763410816
B   10.42277002453517   11.37442837530243   13.37167495972072
B   10.39058246209058   11.90853175940177   15.02990096537303
B   13.54069822988758   9.86907920772556   13.11682029792069
B   13.46128600762163   10.84788442115961   16.31337883365594
B   13.58473698284787   12.06741480003024   10.61056491001960
B   16.62732210244355   12.59637137095249   12.22129812349460
B   16.61336713687518   11.41773612770532   13.53838417039262
B   16.54344664239213   11.94794084137196   15.19469294320805
B   16.54299708183951   13.65667604228878   15.53420218617378
B   16.55977177034310   14.83834233009750   14.21170060737628
B   16.56501521577790   14.30655966186221   12.55315805065724
B   13.45379058500669   16.43955230461926   14.47560567731213
B   13.54656473870765   15.37240838920312   11.24342054463372
B   13.41494230984359   14.16300746514422   16.97951068806797
B   13.52581275578286   14.15405064515598   12.63308336069038
N   11.11117687728314   14.04746904341793   8.96596649262298
H   11.61561988106411   14.78184988274172   8.46144575710772
H   11.10186359844879   13.20893484496733   8.37948759242247
H   10.14463096965522   14.35382170695963   9.10377827049697
39
F:    ...  E:  0.0614316900000063
W   12.00450896631974   13.09967327601237   13.73236261563116
W   12.19981384989226   11.04129085051706   11.89321949022741
W   12.15842882944314   10.48713478161043   14.61671515027847
W   12.10018782091270   12.53124467172730   16.42976675386345
W   12.10333590627007   15.15746626629567   15.56239624347943
W   12.11880852071219   15.76904407677233   12.87418218013063
W   12.18841283780303   13.63903660976893   10.93835352813017
W   14.87956798910377   10.47958035407943   14.68460659948547
W   9.10369768378505   13.08950086907862   13.65466669064619
W   15.00340520015932   13.10533769971676   13.82763728937612
W   14.81566190266639   15.18481762332718   15.63944988594390
W   14.92353468962623   15.80659053900011   12.95533627652661
W   14.98842923651554   13.65290938563326   11.05945569974325
W   14.97524154683244   11.02861252527320   11.95996773939984
W   14.82095332255846   12.55250595989026   16.51479051270827
W   17.92354657134407   13.14291234965740   13.88380769522688
B   10.37168728284400   13.62862839448402   15.34870506541682
B   10.40735233872747   14.80775352881928   14.03343002190539
B   10.48528735307367   14.26458405719295   12.37577781990702
B   10.45966890621945   12.54350915605813   12.03512759832916
B   10.45117731480210   11.37106229733431   13.35094404177142
B   10.40379824906024   11.91150268520694   15.00455619389511
B   13.55729211565275   9.86709616916021   13.08563317807500
B   13.47750874636668   10.85852183870500   16.30193226491738
B   13.62078389973582   12.04418437993833   10.59424431618726
B   16.65259115710885   12.59129094764479   12.20187583372119
B   16.62645865713608   11.41149736424665   13.51939300946929
B   16.56065490513071   11.94279091703408   15.17074821135660
B   16.56741485530692   13.65844904002777   15.50678612154627
B   16.57397554913363   14.83995585122986   14.18642654533648
B   16.58705184328460   14.30683156196849   12.53167126860548
B   13.47553402875694   16.44264775869128   14.44893658148921
B   13.57687720125956   15.37152059788981   11.22500060764833
B   13.43254523901529   14.16577148366322   16.95522998675650
B   13.55479959305606   14.16367189038673   12.62729987466695
N   10.98703671410174   14.04012247113141   9.09320568595498
H   11.26893307962078   14.89221197422016   8.59094998839802
H   10.92561786491306   13.26323669822652   8.45792485236427
H   10.03363931740704   14.21072218403623   9.49270766714147
39
F:    ...  E:  0.287081760000035
W   12.01873236929833   13.10084877773250   13.71025509876442
W   12.20795763585383   11.02522117203729   11.86029288000277
W   12.19516551585357   10.51108552892601   14.59321180563178
W   12.10624785055435   12.54170464784459   16.40537104508232
W   12.12854688299719   15.16020597462115   15.53245464063671
W   12.13853656811210   15.76842293409099   12.84569648628485
W   12.21281539187136   13.63620712699038   10.92825551378692
W   14.88279001228296   10.48153323099663   14.66436646165081
W   9.11769937010897   13.08349964513922   13.63195744151477
W   15.01652059209226   13.10508529287868   13.80375814130281
W   14.81701893574418   15.18594813760408   15.61550437177759
W   14.93134028753563   15.80724374957048   12.91883572299616
W   15.02353280932274   13.64564908855814   11.03163107819057
W   14.98894252322141   11.03046826560673   11.92530822990046
W   14.83730471267364   12.56504628731683   16.47430107287553
W   17.93661205863554   13.14389585276815   13.86240312533955
B   10.38302069431565   13.64831868892524   15.31505699852764
B   10.43111908192517   14.81720539827784   14.01122864015435
B   10.48265617682440   14.26106687471413   12.36720174769337
B   10.47426663694455   12.52187859985075   12.02364525971740
B   10.48187987320606   11.36075019128359   13.32960464901914
B   10.40542684230708   11.91688772261284   14.97665783266242
B   13.57481638282388   9.85225277839937   13.05325374535659
B   13.49272531712883   10.87059320056802   16.30533558553724
B   13.62955068065670   12.06103578403398   10.59004515072156
B   16.68165146841472   12.57531025538858   12.18546256202013
B   16.60988807821867   11.40055464449335   13.48563624287923
B   16.58947083482357   11.93803709531910   15.12825214180648
B   16.58994038162195   13.67753572183070   15.46932805242315
B   16.55989902585296   14.85138762221392   14.15979868800948
B   16.61175541561521   14.30911833057935   12.51763259865371
B   13.49151762044902   16.45972800869968   14.41909482704793
B   13.59565536377098   15.34716168082780   11.19337837360659
B   13.44378545340420   14.16553357171584   16.95275414543909
B   13.57524290853433   14.15597380136215   12.59882261596900
N   10.88586232602217   14.06193456506710   9.22549939668456
H   10.91363418759066   14.96874062249038   8.74375189219884
H   10.74925827395347   13.29225019702823   8.60255200826686
H   10.15243454509664   14.05990001729288   9.90762481552338
39
F:    ...  E:  1.53000903000003
W   11.98768627123704   13.09816603271389   13.71305289547810
W   12.18817335859287   11.02988014686659   11.87770303638270
W   12.18057913834926   10.52601737601187   14.61057991238316
W   12.08995677993775   12.53631488391059   16.42307264338779
W   12.11469382876657   15.14618310068792   15.53727044643747
W   12.11690979963173   15.76188528058519   12.86084412699144
W   12.13571086129794   13.67570756049445   10.85878989143966
W   14.86647285863441   10.49332940476764   14.67507240476586
W   9.10171593015035   13.07237288762063   13.62664620649778
W   14.98517321080658   13.10837258621633   13.80804737910902
W   14.79412941034680   15.18927052518938   15.63951759519270
W   14.89313661297917   15.78961501257234   12.92308996587654
W   15.01473367627540   13.65309907786733   11.03847967712356
W   14.94026882649502   11.06379172810039   11.92813030184373
W   14.81523451976059   12.56705288152508   16.47966098511102
W   17.91697314446994   13.14810848592156   13.88474928885927
B   10.36888981478047   13.64773153825872   15.32406063202329
B   10.40066454522756   14.80140651913767   13.99782410187270
B   10.41078621698116   14.25562397287145   12.30056460790082
B   10.46303470374573   12.48905985760228   12.03742364262370
B   10.45530683525959   11.35428942067012   13.36165349011434
B   10.38508975876227   11.92409683232337   15.00452681866978
B   13.55581575646203   9.84583091415546   13.07353954408311
B   13.47978449316985   10.85994668424023   16.33256052980154
B   13.56689799410456   12.11625392209122   10.62215067315268
B   16.66823671521103   12.57119820604629   12.19714422418816
B   16.57892081143854   11.40246253239337   13.48509026167372
B   16.58119749999868   11.94297847205245   15.13425249130732
B   16.56279618455913   13.68898784928472   15.48245127648099
B   16.52492789878518   14.85770377203643   14.17774830336685
B   16.60118225813703   14.30758618008160   12.53772357314390
B   13.47437456679675   16.45481508621880   14.42932055522905
B   13.54892732939157   15.31366366850681   11.19647118960164
B   13.42152965174150   14.16401336776252   16.98279451529195
B   13.52740132081804   14.13265126767020   12.58331400733286
N   11.06411465409676   14.01483042767685   9.06539205340766
H   11.17534956680634   14.89166600260975   8.52087170856310
H   10.95255297778518   13.25100356950650   8.39574797293253
H   10.45589130386758   14.21825405140912   10.23788815601557
39
F:    ...  E:  1.05489483000002
W   11.98066708514526   13.09256237885659   13.71947040594466
W   12.17497790335175   11.03457776138033   11.87819452664682
W   12.16856973205621   10.53947251746021   14.61502552101702
W   12.08016061759068   12.53059681195102   16.43102872070663
W   12.10539964929735   15.14993003818352   15.54044054763745
W   12.11409059327333   15.75076071829399   12.86744638319336
W   12.04946467544891   13.70570423046563   10.76580118442546
W   14.86362650380989   10.50332918639868   14.67418713372647
W   9.10519418225607   13.09087710680407   13.60710891910196
W   14.97627076451092   13.10591066622653   13.80533821079308
W   14.78673105208937   15.17770410667763   15.64903606761149
W   14.88288919416582   15.78046587240004   12.92370591559786
W   15.00828452300435   13.65388691823303   11.03733903474439
W   14.92809988383724   11.07915449162675   11.93105942242151
W   14.81967521961132   12.57396059785531   16.50045033611310
W   17.91081929713618   13.15221734427403   13.89294237450830
B   10.38794654154686   13.64647762262757   15.34536627480023
B   10.37568588581113   14.78731570967181   14.00639403777960
B   10.38868830785240   14.24667451550261   12.21224519299037
B   10.48130934225973   12.47502006485269   12.03190961083465
B   10.43026540944938   11.36902019536415   13.36271898887405
B   10.36697324772783   11.94246007513467   15.01997497037063
B   13.54701844661416   9.86375987655319   13.07994375244129
B   13.48118764320088   10.86669821842257   16.32645584704528
B   13.54777980841426   12.12728050043350   10.63125644443874
B   16.66426203319195   12.57691739300735   12.19996567495343
B   16.58026473734088   11.40696737923833   13.48866731087163
B   16.56872479458752   11.94016855578911   15.14311661198345
B   16.55512323961415   13.68170927554446   15.48474542640177
B   16.51830383964876   14.85778191215980   14.17811587814501
B   16.58969716021662   14.30876035327787   12.53864872141017
B   13.47299065503190   16.43799216927103   14.42829010291666
B   13.53067744701313   15.29563372229766   11.20514562902591
B   13.41087989460310   14.15888143472861   16.98602499820215
B   13.50962421711790   14.12404471558633   12.57499071348902
N   11.34027756511147   13.93836198823760   8.88070812996753
H   11.18997556143797   14.84222430188901   8.46559292911650
H   11.07521011146097   13.19738217455725   8.25685987553908
H   10.39743431981952   14.35257818442283   10.67950925987038
39
F:    ...  E:  0.336756640000033
W   11.97888885294561   13.09183087211142   13.70524643125646
W   12.17870368430954   11.00722541861720   11.87938322898144
W   12.17625067555612   10.56111352442887   14.60177727504899
W   12.08153968036813   12.53462985711766   16.43259251876133
W   12.08964949386197   15.15619121912427   15.52294650909145
W   12.12122154218938   15.72933325745223   12.86897699962467
W   12.06885898145560   13.66421592439744   10.73754182368123
W   14.87752040717962   10.50632925469215   14.67551431050760
W   9.08302139503492   13.04750095133321   13.60957559538956
W   14.98031140715447   13.09899056470545   13.80657323526723
W   14.79477284821668   15.17811814896427   15.64366477613148
W   14.88781385711425   15.76994146099431   12.91233835038638
W   15.01587675291444   13.64414856387830   11.03228049965979
W   14.95072861322495   11.07434436323689   11.92106559619401
W   14.83609053910427   12.58030081186426   16.51097891155002
W   17.91668636538111   13.15635430617496   13.88596375109082
B   10.39486917588964   13.64898464467051   15.32623976960352
B   10.34989890936773   14.76147725900701   13.94392741845710
B   10.34298979260024   14.18635251095203   12.19005729189887
B   10.52165050366003   12.44988431924498   12.00423503791978
B   10.42156915275721   11.37386879540565   13.35396641161533
B   10.37201181256650   11.95019415838888   15.02969124205343
B   13.56861176959352   9.87464029499247   13.07668479967375
B   13.49036327457243   10.88439904582411   16.31402848085729
B   13.55714707436206   12.10496516583846   10.63541079955295
B   16.67190068287507   12.57681082733620   12.19897502675607
B   16.59018934879991   11.40553595856945   13.48389807159178
B   16.57462636154575   11.94509919616287   15.14080906908796
B   16.55747951777437   13.68351747665485   15.47847409430587
B   16.52431264766996   14.85816791426931   14.17338257888205
B   16.59028536271751   14.30851149406434   12.53290369975788
B   13.47572935560475   16.42342039521580   14.41115120186065
B   13.54177554481071   15.28738236881222   11.20467655970695
B   13.40539849692022   14.16948195148744   16.95815038320299
B   13.52169697749343   14.10300629898925   12.56479453963059
N   11.38942618649125   13.90191688248090   8.87344069301397
H   11.11496086312374   14.80545625212738   8.51692830137117
H   11.20988156064286   13.19485958971368   8.19116671260041
H   10.14051161780818   14.66671978635732   11.01580908963426
39
F:    ...  E:  0.246908400000052
W   12.01317371295676   13.06572592655459   13.70860629040728
W   12.18927241612067   11.00508347036552   11.87398154124250
W   12.21475743772901   10.54320742332728   14.58651081279674
W   12.09705637950106   12.54955658300556   16.42152571261728
W   12.12084601817963   15.14385106099267   15.49129994325476
W   12.14554848091752   15.72116641996652   12.86032216472371
W   12.07773940005429   13.64219093931349   10.72892590040468
W   14.89308155687429   10.49505120847898   14.67087191832801
W   9.11241509612529   13.01811211496767   13.60433580524694
W   14.99361656085600   13.09749512278059   13.79319522539242
W   14.81108137300126   15.18649016422393   15.62411880315102
W   14.89360234112825   15.77031780584315   12.90116670020044
W   15.03412557204629   13.64851904172031   11.01570197210541
W   14.97720974492157   11.05636352728498   11.90853987109498
W   14.85069159556743   12.58064180452026   16.48942015340580
W   17.93000660869830   13.15193776671876   13.86372140379594
B   10.37056013685217   13.62651174769242   15.29903289791561
B   10.37436413549487   14.75134137816061   13.94649121574745
B   10.34653804093992   14.24177647928618   12.19399990216835
B   10.51357546770827   12.47093764093697   12.01267607349694
B   10.45642028470840   11.35419910862964   13.35936717519363
B   10.42216177263922   11.91641320948657   15.03069596215630
B   13.59768818981551   9.85536406003796   13.05119182322499
B   13.49814169407337   10.89420755223499   16.30682477544288
B   13.57659628933880   12.10312344738462   10.64563755587703
B   16.67802893831860   12.57578966911863   12.18414113015118
B   16.59931302311157   11.40554516478455   13.47154338420504
B   16.59406789780520   11.94770829585539   15.12608034983285
B   16.57579322036079   13.68720124626820   15.46125459549114
B   16.53576821867205   14.85588362100960   14.15597695349904
B   16.60759974426019   14.30838678185009   12.51721611721181
B   13.50035257786661   16.45826375737116   14.41040344103497
B   13.55327605508286   15.27949280670611   11.18544102791238
B   13.42906827508258   14.18028693421936   16.94391385889789
B   13.53635115374869   14.09320655597947   12.54232673659969
N   11.31066528152869   13.90922740046010   8.92466447220387
H   10.91522850709310   14.79000454993172   8.61988355185493
H   11.22570968426212   13.22301854331694   8.19938955351452
H   9.79372820221775   14.76162075487207   11.23482431385666
39
F:    ...  E:  0.24066595000005
W   12.04941484709549   13.05844126425179   13.71258968226074
W   12.20881151198678   11.00459435937490   11.87288843455689
W   12.22458058028592   10.52090067263516   14.57509632235768
W   12.10021853998603   12.55957572382851   16.41589424288811
W   12.14281698446231   15.14091213563262   15.49171641637856
W   12.16288646187913   15.72261533479546   12.85034086083577
W   12.08874939651178   13.64317134290317   10.71864602626599
W   14.89256805405493   10.49285184787049   14.65911263109087
W   9.13257390500743   13.04577566975501   13.56783415090809
W   15.01369319116687   13.10487324354152   13.77881046030832
W   14.82591302915165   15.19762423202159   15.61189031289796
W   14.90245169632220   15.77119062520445   12.89665396065513
W   15.04917145344556   13.64453832400979   11.00229065444501
W   14.98660304695776   11.04947842106755   11.89875338672985
W   14.85010522338266   12.58220708334866   16.45532425889657
W   17.94399022553736   13.14834509902233   13.84619043018950
B   10.36562589347717   13.61616790850887   15.28094458407929
B   10.42281282573147   14.77184837893695   13.96283044095426
B   10.37468103683106   14.28166327844152   12.22398866874697
B   10.54495553260874   12.48865892593299   12.00899181256294
B   10.47448738095134   11.35578431872029   13.34362857667335
B   10.44714446696961   11.90554582328162   15.00236115475656
B   13.60621887918297   9.83526836054403   13.03695787166581
B   13.49443747502346   10.89831799856133   16.29715227809493
B   13.59011462789753   12.10338754204968   10.63244341619966
B   16.68971722539734   12.56756670870229   12.16927524910797
B   16.60383913170839   11.40242720812584   13.45853788957511
B   16.60847796205698   11.94943491604973   15.10993819299387
B   16.59229041337311   13.69246885372995   15.45079852806946
B   16.55084543527017   14.85704368668828   14.14448662458271
B   16.62271200442245   14.30864157887653   12.50448437427253
B   13.50818794826777   16.47148961176962   14.41254479388044
B   13.56830770534137   15.27758478714763   11.16913685292748
B   13.44891428331326   14.18251295352708   16.94045923025229
B   13.55039880122648   14.09068433463162   12.52389170339478
N   11.26101245772051   13.91753559517739   8.95212837481873
H   10.76771752222528   14.76432860695049   8.68300465323313
H   11.24070206559189   13.25044172522191   8.19961620291710
H   9.45707186383710   14.68932260481899   11.50358738023292
39
F:    ...  E:  0.185036590000038
W   12.06136277261918   13.06560894510649   13.70861527850784
W   12.22050408558147   11.00135519463320   11.87492398455768
W   12.21711363642735   10.52094950701169   14.56560397605231
W   12.10017139931213   12.56564006051686   16.40813938877087
W   12.15457237237394   15.13864367821986   15.50129793156966
W   12.17280743646455   15.73561116397225   12.83410266707869
W   12.09696714117359   13.65985587097159   10.70384794463941
W   14.89279300367336   10.49999952719124   14.65470219962228
W   9.15021274679418   13.11341107962644   13.48884016959236
W   15.02157054381153   13.10774267316462   13.76772791458576
W   14.83475562005973   15.19266322161385   15.60564660981538
W   14.91590528084139   15.77387887612042   12.89231925461662
W   15.05161674427904   13.63985453610306   10.99179010357103
W   14.98863386328433   11.05009350651069   11.89040055694350
W   14.85249707699533   12.57788531731232   16.44259650525816
W   17.95143746481898   13.14676047145640   13.83447560652479
B   10.36354147657037   13.62303132367456   15.26474384500198
B   10.46567505489423   14.79584122466144   13.97507611799163
B   10.43298426417377   14.31699098144440   12.22734899028073
B   10.58875161270834   12.50494120000428   11.98803400138204
B   10.46380632654636   11.37793308153950   13.32112804660514
B   10.44574675172267   11.91470153004761   14.98438032029577
B   13.61096530469312   9.83346979063024   13.03818206036098
B   13.48955077677219   10.89856616304039   16.28810811522022
B   13.59004743898541   12.10323629457126   10.61904707200392
B   16.69689738651794   12.56474359572991   12.15870014051344
B   16.60630093751397   11.40043506282387   13.44888334440351
B   16.61670773660362   11.94862617483378   15.09971735109710
B   16.60081145851107   13.69241845844196   15.44097694726916
B   16.56084595861277   14.85689209576989   14.13470563728189
B   16.62806452227509   14.30675941598206   12.49275301596241
B   13.51369840299665   16.46323849864849   14.41220025362333
B   13.57982547181481   15.28168087696235   11.16188923287520
B   13.46318016395657   14.17641420473520   16.94869378010025
B   13.56040851654210   14.09762448767784   12.51731291775944
N   11.23995724843694   13.92549317228705   8.95634680341901
H   10.67315498730633   14.74119179900034   8.71382836562826
H   11.26356348778614   13.27127743511514   8.18799928245122
H   9.22781461121046   14.47976058850617   11.82013535242407
39
F:    ...  E:  0.10154258
W   12.07837712662317   13.07492064128760   13.69429603926477
W   12.22374310036188   11.01775408765134   11.86794609980405
W   12.22556104725854   10.51943868987986   14.54509480504309
W   12.11068948105876   12.56764441404068   16.42509069175517
W   12.17290847897477   15.14086720751674   15.50755333712780
W   12.16307165803548   15.72677151224943   12.81156858478063
W   12.08956726822440   13.67228607132346   10.70974584890294
W   14.89582695970759   10.51170756661484   14.63338444724869
W   9.14847045750107   13.12335207204970   13.52762134235910
W   15.03627809080428   13.11193257511663   13.74546748470715
W   14.85355204013896   15.18921878997100   15.58591943086802
W   14.93949763720755   15.78036229068279   12.86582883186555
W   15.04674311929564   13.63960579738469   10.96926522748040
W   14.98881760047863   11.06041616269248   11.86982579998545
W   14.87695570832112   12.56806365881749   16.42861323421194
W   17.96286059427954   13.14694726354546   13.81284770608948
B   10.39690951853862   13.61948884975420   15.27960056203659
B   10.49040108069996   14.80110127117663   14.00166329551545
B   10.41909041650075   14.32976460318930   12.25871628750710
B   10.58371476843888   12.54042828295061   11.98915038497361
B   10.45717544695002   11.39679465318395   13.30508117180112
B   10.49287606017453   11.91714447251213   14.98772374023896
B   13.61423564269742   9.83638791933077   13.01267062351363
B   13.49535607162923   10.90545647684338   16.26689304623871
B   13.58694403342320   12.10627394209647   10.57997848631292
B   16.70686328604902   12.56440765675134   12.13435285063905
B   16.61532329936130   11.39909690738068   13.42415837970342
B   16.63260566825833   11.94748091167359   15.07830930239852
B   16.61230519179536   13.69342044403588   15.42112403764988
B   16.57619705443368   14.85868170228279   14.11279275544602
B   16.64008779948827   14.30446910217803   12.46973772946827
B   13.52269514582646   16.43415398710867   14.38081105210924
B   13.59027258648712   15.29055397357633   11.14911580224249
B   13.49146147600520   14.16554356986068   16.93251894394880
B   13.57760934355071   14.11065747208597   12.50658279974093
N   11.19974510335394   13.93134912077209   8.97795990803416
H   10.46839831471566   14.62213696190854   8.80786151065575
H   11.31178015777231   13.32749686514286   8.16367725415794
H   9.07025325123544   14.41164313903756   12.12467224983038
