38
F:    ...  E:  0
W   12.47625156197256   11.54094582041389   14.11900646154974
W   10.91468502789772   9.60555486508663   12.88912318852756
W   13.26613743350286   10.98204974130600   11.67202779548479
W   15.95528402317910   10.64930117041739   12.10439622699204
W   15.00937900863515   12.58389917920473   13.37601837566975
W   12.62164298093860   13.75399249537719   12.76697555311719
W   10.57570257930584   12.20137974190070   11.88708671204191
W   14.96567049678597   13.05874265440382   10.89625918281876
W   7.95451733887026   12.22896603743325   11.37915614535932
W   10.85273764829880   9.84892456399651   10.32353659863326
W   8.41872384201951   10.55187156809230   13.42741371225108
W   11.07384238905539   15.18924625999722   11.11937629957879
W   8.65887413386300   13.04881003761406   13.68540489796483
W   12.44549140088334   13.36884428735350   10.06953315471091
W   9.66524823383832   13.77819312896440   9.75932828708314
W   12.91300414836279   8.29703606156031   11.51039503918640
W   13.47981767019563   9.42286274338895   9.49458972063915
B   14.41024620799682   10.45794427019633   13.74689598730118
B   13.07712497354788   9.44034973674072   13.51927060745004
B   14.53046266042714   9.12566829476855   12.69863493032999
B   10.24697154316201   11.51463063395629   14.19504463256301
B   10.87695794605949   13.10610275725680   14.11668325320787
B   10.42322697824763   14.36894977616922   13.06656605027231
B   9.14686996738504   14.21272966977841   11.84519510910591
B   12.31918037270385   11.22221117416279   9.28758786075491
B   13.66486887078285   14.90743514892989   11.12504967147613
B   9.28503634305013   11.51580471070370   9.73350183205299
B   7.50080303414549   10.03657881978781   11.58161345576711
B   10.82162927439707   11.94877491835523   9.39016457936799
B   14.66256727459666   14.58921615755465   12.41559900511016
B   13.88807421973526   11.74469703692376   9.45285624185484
B   8.47498294465705   10.21480238520969   10.27497706429493
B   15.12309405825665   10.86987874533654   10.16274083331563
B   9.02707022681497   9.33978222122962   11.63416834773773
N   10.29433376767382   7.75114235465690   14.09795079828085
H   10.52403703749755   7.86596793742387   15.08871756157713
H   9.28672205952357   7.58543483956567   14.01624913217095
H   10.77914305222643   6.91609987001695   13.75948830298830
38
F:    ...  E:  0.0350582199999963
W   12.48510948750473   11.53428845318181   14.11797824597003
W   10.92806769950114   9.60650914278556   12.83674546568725
W   13.26781817994274   10.98739945877597   11.65960374412366
W   15.95593105126292   10.63382414710561   12.09184571214019
W   15.01958429251439   12.56940046089095   13.37434481783499
W   12.62976713896094   13.74110869141550   12.77795044492593
W   10.57649311547805   12.20941075216473   11.88741923439808
W   14.96422676945201   13.06159622793780   10.89693374301202
W   7.95764781833408   12.23307834570578   11.38476575700614
W   10.84489112120306   9.86062188682225   10.28688742632944
W   8.43480744629338   10.53342670282289   13.41113930976731
W   11.07719410378249   15.19836363785425   11.14360364731142
W   8.66354772438770   13.03482661848048   13.69236163043560
W   12.44407692715356   13.38444302772867   10.07409805259895
W   9.66718827410762   13.80429786398215   9.77210292210928
W   12.91678309989794   8.29437932834725   11.48135896910799
W   13.46974376654414   9.43421027016465   9.47702042002572
B   14.41725974295589   10.44334659375602   13.74118333448941
B   13.07648451990142   9.44984034163165   13.48546333390346
B   14.53117662298087   9.11351815444704   12.68469168542752
B   10.25576453695412   11.50179857437970   14.19210661967679
B   10.88121434555313   13.09557484136792   14.12659654911057
B   10.42774346228994   14.36662715606904   13.08659261251523
B   9.14964221740076   14.21818014452928   11.86339591559463
B   12.31404199331100   11.24119705698694   9.27310485508201
B   13.66583935061432   14.90918824879950   11.14009383192572
B   9.28100804878780   11.54023947006142   9.72899687328923
B   7.50438212488781   10.03875544755532   11.56684048693353
B   10.81770340959472   11.96967895952779   9.38852958970342
B   14.67032485595239   14.58272755399470   12.42507955230824
B   13.88313766757225   11.75539116826606   9.44958755007006
B   8.47471035020300   10.22920418988597   10.25759077403217
B   15.11914512837222   10.87492216014701   10.15544210789144
B   9.02692122136886   9.33497251771737   11.60786702439539
N   10.49004637339870   7.76472879869576   14.10096444470139
H   10.83559518180926   8.01176382972352   15.04168215341628
H   9.49023962458782   7.57818267069757   14.20130878908947
H   10.96850097453912   6.91712094860333   13.79353215546307
38
F:    ...  E:  0.260317719999989
W   12.48796637031565   11.52436470378874   14.11529760319215
W   10.93782577363226   9.59776068755608   12.79546831224049
W   13.26975418921918   10.97874029087032   11.66465784762590
W   15.94867075791077   10.62083178464678   12.08188821855615
W   15.02827363604151   12.55733600867315   13.37484505696584
W   12.64215362448762   13.72933391243466   12.78043827467028
W   10.57743574893073   12.21215459692447   11.89154122733132
W   14.95616663060719   13.06332795912721   10.89729615978827
W   7.96386752874000   12.24136371824408   11.39071265732466
W   10.83960043924188   9.87399622860436   10.26329859727525
W   8.46058913565350   10.51800491053992   13.39400173363419
W   11.08291091735483   15.20011452133734   11.17046671397330
W   8.67010910906743   13.02170644025652   13.70141502738648
W   12.44259280709992   13.39509326324849   10.07526404407383
W   9.66817946920190   13.82818016692027   9.78218163406642
W   12.90419933702801   8.29579925535328   11.46778939314737
W   13.45359431157125   9.44340846260940   9.46798532262955
B   14.42599673949165   10.42908474346622   13.74781907398159
B   13.08230563137067   9.45214498323928   13.48447005007485
B   14.52523786111481   9.10018863699932   12.68214763039320
B   10.26598095913669   11.49393180064960   14.20362372334899
B   10.89045659166306   13.08724269949554   14.13512108253191
B   10.42823812302597   14.35865739897002   13.10017629132761
B   9.14890004896979   14.22447099226876   11.87866197819421
B   12.30496245105114   11.25774109354632   9.25717863352762
B   13.66764505660276   14.91526103340325   11.15121219648928
B   9.28115054109746   11.56409765224906   9.73210906183078
B   7.51208416145105   10.04088711405633   11.55671919214446
B   10.81370640619738   11.98953129714888   9.38402526132715
B   14.68051669499368   14.57798789113971   12.43044602400539
B   13.87127213718909   11.75875755555966   9.45115890137693
B   8.47636811984639   10.24423151282772   10.24482876085875
B   15.11166314673319   10.88438474513169   10.15118118356666
B   9.02964957422457   9.32880523299033   11.58215134502290
N   10.71423445038650   7.76414019656859   14.06901862776091
H   11.16768277098080   8.20845634699418   14.85590381853870
H   9.69754323782631   7.63158235290152   14.35143327881038
H   11.15284678833697   6.86389196007322   13.90079792102867
38
F:    ...  E:  1.42419705999998
W   12.46293714635551   11.52294827444619   14.10388770083686
W   10.91555714119431   9.57720879210996   12.91123592025173
W   13.24239236581054   10.93342886163165   11.70894043605780
W   15.91278944031347   10.61806896279523   12.11666287016429
W   15.01577086326195   12.55257812959770   13.38363158938662
W   12.63290247901207   13.75619118359557   12.77240180901633
W   10.58619480480995   12.19151066156035   11.89183582431209
W   14.95435966105025   13.04921776385369   10.90093942922216
W   7.96659109446824   12.24725358815001   11.40012115370054
W   10.85038457669552   9.87444816706056   10.31478264291934
W   8.44574704342394   10.52336333527236   13.41335048135330
W   11.08165697292496   15.18830857940188   11.17161439051448
W   8.66358145356063   13.02155285839485   13.69686750281128
W   12.44382382502937   13.37938966727998   10.07869276457861
W   9.66492530954335   13.80982395317651   9.77659174978314
W   12.88097022761380   8.31110217626316   11.48881471282022
W   13.44716106659346   9.42584620577306   9.47630759017536
B   14.40142498072368   10.41474761247581   13.78028353755455
B   13.07104271481246   9.37790825398610   13.61283423571412
B   14.49298755869568   9.07954672468963   12.72275994822782
B   10.25525760542256   11.49810729047111   14.21934514562910
B   10.88587076075011   13.08986520636164   14.12815207053925
B   10.41698637742689   14.34919972049504   13.08175918115981
B   9.13963281946257   14.22498818416474   11.86456572769417
B   12.29668865982435   11.24113223357544   9.25598512248598
B   13.68393850211553   14.91061899941862   11.13435535256500
B   9.28663639380403   11.55338401143983   9.73526285842894
B   7.51535399142322   10.04534178144268   11.56685724691082
B   10.81515110410808   11.97595108539513   9.36968008296226
B   14.68115314585043   14.56939236476013   12.42753583856068
B   13.85966230956587   11.74099840942323   9.47603933031936
B   8.47381396530210   10.24262081950368   10.25010244233052
B   15.09376484603997   10.87164191743702   10.17548303042983
B   9.05126563121220   9.36283404172192   11.59828532239084
N   10.53730721295863   7.76875224973125   14.05406845788124
H   11.45962581613898   8.41526866788312   14.54317414667217
H   9.51435764619040   7.58210183014815   14.06791732045687
H   10.98252492530591   6.87073946707937   13.99965617232693
38
F:    ...  E:  1.72056137999999
W   12.46617554140633   11.53189978031412   14.09036529914577
W   10.89678617732289   9.51317025084413   13.01020037829858
W   13.23747513805607   10.93341631544066   11.69782603820228
W   15.91528622530972   10.62486040342886   12.12039437489340
W   15.01959233582146   12.55847758589624   13.37968627216934
W   12.62328376960165   13.77603001756148   12.79553130682462
W   10.59535218795406   12.17740290754993   11.88969516668180
W   14.95965827107691   13.04886773221338   10.89954588226134
W   7.96571936185128   12.25152012202941   11.40095243182487
W   10.84845479180524   9.87394090990506   10.30330135556214
W   8.43979119476437   10.52671197991944   13.42079199502891
W   11.08577331517176   15.18259059543398   11.17220479844217
W   8.66329721925873   13.01925341077873   13.69613212401863
W   12.44673168378560   13.37358444903328   10.08712866337564
W   9.66247405034164   13.80704290216294   9.77703472669729
W   12.87666801614011   8.32420684628659   11.49616811504917
W   13.44761592282744   9.42678375605675   9.47560289271864
B   14.40626523293759   10.42077959097378   13.76875415510203
B   13.06926624915154   9.36493657195696   13.64766273192702
B   14.49466021377769   9.07729936884961   12.71778423064334
B   10.25390224009046   11.49623855476768   14.21002650990528
B   10.88254347859754   13.08654690952483   14.12979790819090
B   10.41649153389820   14.34698181683073   13.08271280773997
B   9.14225313627490   14.21731032218190   11.86296677733547
B   12.29408829416058   11.23859078946383   9.24525179524135
B   13.68185521036145   14.90243724116953   11.13050991285770
B   9.28422101101235   11.55647965321682   9.73856678386671
B   7.52166210722357   10.05000924808515   11.57080752336641
B   10.81372377610218   11.97570603905714   9.37080901240055
B   14.67862012444118   14.56897729133486   12.42512145807757
B   13.86061443749528   11.74167361639075   9.47067871807879
B   8.47332200487814   10.24500626445627   10.25027664234561
B   15.09178838410164   10.86837207938420   10.17317403021180
B   9.06413281424141   9.37644783729506   11.59748513213957
N   10.38982644642965   7.72414706221395   13.89443761963874
H   11.72388585780603   8.60748915345585   14.65813186621869
H   9.40393697039209   7.46937817044446   14.02539664495683
H   10.95494373629778   6.87622775493318   13.98823056655345
38
F:    ...  E:  0.798828639999954
W   12.45826195585798   11.55268023869585   14.09351514913548
W   10.85562898646940   9.47589337962529   13.05381317133848
W   13.23185444556698   10.90536581711889   11.71510894796236
W   15.89778554291852   10.60415410445427   12.13808653130763
W   15.01405647211099   12.54996577819612   13.37838344741245
W   12.61766305419886   13.78799034685184   12.79405342647345
W   10.61869805403643   12.15900444958301   11.89261183242479
W   14.95477131420209   13.04067341645611   10.90482308990706
W   7.98003924545082   12.24411223584491   11.39914010407085
W   10.85850082758193   9.87331008375526   10.30201631787762
W   8.42625491976589   10.52395383706918   13.43401059069348
W   11.08091097505366   15.18561527184754   11.17481493422610
W   8.66320625410195   13.02068854694052   13.68939939480290
W   12.44086690512450   13.37426080456086   10.08650767352917
W   9.66338821932555   13.79561470971781   9.78067890244939
W   12.86768465678615   8.31484568541605   11.49729120451534
W   13.44479444865123   9.42056455570468   9.48251820778982
B   14.39417202023406   10.41827593890103   13.79219205187827
B   13.04088889948238   9.35550430371517   13.69937214061617
B   14.47399742227462   9.06238274815745   12.74470803411953
B   10.25048218308710   11.49974354834417   14.21427612165129
B   10.87387473567693   13.09495205705519   14.12673932062818
B   10.40881013286521   14.35818169656152   13.08511315298718
B   9.14381825509648   14.21079796000994   11.85945088111612
B   12.29439525210862   11.23616873549777   9.24895993316834
B   13.68650000559936   14.89880719892472   11.12271004250506
B   9.28637498337748   11.54599075420178   9.73623454768884
B   7.52255913474090   10.04131645029547   11.57711967759454
B   10.81626062327599   11.96668628195526   9.36892513475147
B   14.67333011083801   14.56384521865544   12.42635819799270
B   13.85449043747590   11.73779593068796   9.48550521477742
B   8.47105234991525   10.23634364648446   10.24976130496504
B   15.08749390349923   10.86616762163293   10.18119070041493
B   9.08067395310703   9.41437768617418   11.61345229550965
N   10.23834580725726   7.70612947316681   13.78650438917869
H   12.02298120760709   8.75565388513705   14.58171509060673
H   9.27580257543368   7.41665506756867   13.93438142719615
H   10.84603130566799   6.89472669188924   14.02254971887932
38
F:    ...  E:  0.451888759999974
W   12.41639681023898   11.54202887146690   14.08893706367300
W   10.79473527325848   9.49945684472464   12.98409846513308
W   13.20161505878985   10.88142737890258   11.73648624542989
W   15.82061945033560   10.54982429229904   12.17659786074515
W   14.98417344821418   12.51296050011448   13.38679264492375
W   12.62266260087625   13.79551037858682   12.79239161184670
W   10.59602565047643   12.16483502773202   11.88599783650026
W   14.95176661986279   13.03395292860527   10.91733893891711
W   7.97326307672275   12.24878340950823   11.40684768139144
W   10.84816640554498   9.87399132291422   10.27475460236107
W   8.42245977210842   10.52932810171201   13.41545672911109
W   11.08245620504370   15.18519965291941   11.16780267326786
W   8.66142498922482   13.03596525420932   13.70025334538805
W   12.44162342849913   13.36434426878360   10.09893801302458
W   9.66934893195987   13.79494916050081   9.77658500637008
W   12.82573874952625   8.32437472300585   11.48578321419195
W   13.44162096355107   9.41462755773009   9.48207317870294
B   14.34344387126949   10.39317876751354   13.84187270981513
B   13.08855205780936   9.33234896603254   13.78707540119691
B   14.40573922370233   9.02391856887563   12.80221851834104
B   10.23170241623424   11.51176926749470   14.19998239051814
B   10.87607752674777   13.10092204177321   14.11868128675375
B   10.41246923033274   14.35920613280479   13.07972777134165
B   9.14691073382158   14.21897950446062   11.86228585835381
B   12.29661490943321   11.23710030384055   9.24020037928750
B   13.69620398025250   14.89548250100527   11.11945327046414
B   9.28874710634023   11.54785585322829   9.73627554250533
B   7.51117739608239   10.04774262939097   11.56336067447581
B   10.81609688566450   11.96759897717587   9.35076603770900
B   14.67656485607530   14.55649130904637   12.43159116112059
B   13.85403242285465   11.73398897520581   9.48536226501881
B   8.46281058968804   10.24158771888537   10.24461063949665
B   15.07817809190924   10.86580776775297   10.18979277060875
B   9.05626408495704   9.38720675999990   11.58361048234019
N   10.18219279760719   7.77299451250360   13.78110815825654
H   12.39975774655002   8.71354748224435   14.52025472364294
H   9.24028008363171   7.38096628101809   13.82272252779093
H   10.82564540159337   7.03099561702286   14.13799882000757
38
F:    ...  E:  0.270416349999948
W   12.42666765374432   11.50933568506515   14.09406590397077
W   10.81337767712775   9.52329443365354   12.93246225396363
W   13.19814428672744   10.91443217684366   11.70792650195938
W   15.82780274849375   10.54408643491203   12.14352318545031
W   14.97774369852272   12.51299301832691   13.38582397867429
W   12.63301722854201   13.78206660812520   12.79238955376618
W   10.57245609035334   12.17997900730339   11.88131784149910
W   14.95374932350372   13.04847798001935   10.90862694618105
W   7.96783972382335   12.24778075499677   11.41951710919995
W   10.84030102680424   9.88967195945212   10.25661942472580
W   8.44486707136676   10.53060867404052   13.39783491070265
W   11.08486689837121   15.19819400463729   11.15919720127940
W   8.66990122971224   13.03452551846488   13.72192343767741
W   12.44593176354897   13.36760483455770   10.10529223700074
W   9.67650224140030   13.80869679455485   9.79162923665210
W   12.79535543597619   8.35678602110852   11.48820054898257
W   13.43632461822937   9.42634382277859   9.46904930903476
B   14.35779107057968   10.39956429402555   13.81836020559239
B   13.08135552634025   9.29809961945259   13.81239837736366
B   14.42517891705498   9.04233109770271   12.77384503426173
B   10.23453057349196   11.51280482571663   14.18862202845851
B   10.89164979311419   13.09077086176664   14.11980186121059
B   10.43011605563587   14.34627113551368   13.08448134872488
B   9.14880236888700   14.23344302425315   11.87747280403283
B   12.29843241151076   11.25252547423211   9.22086220480554
B   13.69356133085546   14.90235157630234   11.13902159438077
B   9.28656393129666   11.56010394757662   9.73095298676761
B   7.51505487976854   10.05463484088521   11.54746819992461
B   10.81410676622071   11.98562143364813   9.33332824954396
B   14.68163441952497   14.55512085885741   12.43767259514984
B   13.85910677730449   11.74894442572684   9.45488381760121
B   8.46113766449793   10.24750334097675   10.23046247789741
B   15.06840180512602   10.87139028840687   10.17136732216672
B   9.04727497017179   9.35832472543416   11.55510589935253
N   10.27595584020388   7.80267190462692   13.80071948160173
H   12.64575699139401   8.54193042419961   14.61922909808249
H   9.38127764117341   7.30735296661562   13.71940506718519
H   10.90347419156454   7.22102989440231   14.37769756225888
38
F:    ...  E:  0.083733949999953
W   12.45353351745075   11.47669666334097   14.09632633596920
W   10.84957771964306   9.52707828884501   12.90926488447384
W   13.20575324521850   10.95347768189716   11.67344493226426
W   15.86304057045117   10.57336172803564   12.09197002157430
W   14.99012287300545   12.53466871935366   13.37663672846994
W   12.65001916664685   13.76602160742430   12.79610170513160
W   10.56742665026576   12.18891437868651   11.87114136571257
W   14.95496710468074   13.06306875624870   10.89612144982956
W   7.96898838476932   12.24513480580013   11.43481402973923
W   10.84211665405664   9.90209096026955   10.25157153378196
W   8.46434953250823   10.53000562437240   13.38670452679952
W   11.09185331419039   15.20034176370360   11.16819047972852
W   8.68060387557007   13.02855938408231   13.74165663584616
W   12.44778806315070   13.36979519582374   10.10534852222890
W   9.66969309827763   13.82865192204626   9.79962195052760
W   12.79419753320462   8.37987598300102   11.50313663235596
W   13.43048090265656   9.44037860540118   9.45636959726447
B   14.38367027022335   10.40931168234438   13.76993679083111
B   13.10796801155319   9.25300549026802   13.83549586397238
B   14.45320272144643   9.08101661371159   12.72447224908260
B   10.24897336699332   11.50642773095676   14.18130569094046
B   10.90617469137035   13.07808054648321   14.12485402715492
B   10.44478632041128   14.33145936605047   13.09429499803177
B   9.15044484819147   14.23801984457288   11.89376888803876
B   12.29756289106699   11.26708412920789   9.20492821947978
B   13.68144085210273   14.91497005657623   11.15609163469080
B   9.28542244621975   11.57722413210064   9.73345553373921
B   7.51863299357576   10.05436342491732   11.53524475703127
B   10.81252711885627   12.00630930448266   9.33432592429815
B   14.68615427946910   14.56429959492019   12.43813853251588
B   13.86162614727314   11.76159078926913   9.42374436121545
B   8.46333193687025   10.25553843447499   10.22283498257618
B   15.07144338726274   10.88745719626490   10.14074645489269
B   9.04696487678500   9.34579572864309   11.53974792485254
N   10.37415023520545   7.80991210124990   13.82813803365579
H   12.87265344521840   8.42716825598458   14.70312835510707
H   9.54939297658941   7.22555718883180   13.65091244336509
H   10.94516481926629   7.38471022830220   14.56465045987085
38
F:    ...  E:  0.0116147899999532
W   12.47648318322187   11.44992855338940   14.09623719571520
W   10.88917761977619   9.51942825875115   12.90681112947298
W   13.21359056247833   10.99457289496717   11.63853478214444
W   15.88818261157454   10.61492257346926   12.04744842780041
W   15.00259517103110   12.55184859998902   13.36254285838767
W   12.66192110192570   13.74814670988744   12.80369156121404
W   10.57105715976005   12.19297219275151   11.86341714743815
W   14.95473784863581   13.07696788293803   10.88206746849148
W   7.97308197908296   12.24098842589010   11.45009405444697
W   10.84974575430284   9.91051780624876   10.25188778094708
W   8.48398462100885   10.52483766599784   13.38181833308776
W   11.10240435044483   15.20208965772180   11.18339417365280
W   8.69367654515604   13.01742359702101   13.75781394374686
W   12.44880629944863   13.37848005724285   10.09798798039300
W   9.66480153408178   13.84538018263190   9.81275267815453
W   12.80032624806466   8.39472627495155   11.51167813596402
W   13.42660481722550   9.45078477459594   9.45191802877885
B   14.41156847305133   10.43187722371017   13.71870066866425
B   13.19306084198594   9.21376656502079   13.86782705942134
B   14.48160877705712   9.12128790837267   12.66333819729472
B   10.26685992877937   11.49362889216231   14.17943817605491
B   10.92287273990021   13.06004256752297   14.13073534673857
B   10.46116644538669   14.31717239264240   13.10881066316789
B   9.15504966748428   14.24002566434431   11.91414552506742
B   12.29589714814310   11.28072588559168   9.19287524605434
B   13.66473138053498   14.92953652414133   11.16920206503633
B   9.28494823389186   11.58885111875421   9.73543752723705
B   7.52461073485587   10.04901777774741   11.52773250832606
B   10.81107299149681   12.02226333288057   9.33900487024637
B   14.68968013490814   14.57958070275162   12.43146037205494
B   13.86207342290864   11.77618019142279   9.39148888236060
B   8.46833047838438   10.25898348835081   10.21664389896188
B   15.07744739506715   10.90634085000838   10.10607747614367
B   9.05379156602621   9.34270924581674   11.53338446312164
N   10.43762505262378   7.80990873921215   13.86007067381103
H   13.12395530866829   8.37773315002356   14.75434203209154
H   9.69876872444567   7.15492342594471   13.61488827507780
H   10.94441293975196   7.50393758991087   14.69272334588270
