35
F:    ...  E:  0
W   9.54170342009295   11.14729031784747   11.58660016361337
W   10.15464602790730   13.75962375414450   11.41444380716483
W   8.72795512074788   11.05663713250973   14.22286142154454
W   10.92649468306366   9.75725450408021   13.67836202911502
W   10.92980759683461   12.39824497335614   13.69937619679844
W   13.05808224209328   10.89121326814270   14.66337865741037
W   12.39476627588228   11.18594440586361   11.73442053924236
W   14.83271663897965   11.13412276123185   10.30851448161141
W   10.91680882574236   12.12217960439452   9.49543231578865
W   14.31890503239955   13.34903228603583   11.47213296050258
W   13.53318796542369   9.04084875609997   13.11832327644402
W   10.95860744309634   9.49646127764586   9.82615790363440
W   8.18163272446444   9.05669036862488   10.64112901744085
W   8.74355068901769   10.62826414479529   8.88707591570716
W   13.53747378807505   8.89134351762319   10.42150390170163
W   14.90210473683713   11.33441184945786   12.90907850098859
W   6.97385132973012   11.35107014551782   10.55513439345202
B   8.70037282637682   12.70526479301225   9.95640811138201
B   8.05198402674650   13.08931137006024   11.49587752815716
B   8.83854807244477   12.96131789667989   13.04951657845511
B   13.23056234988286   12.74164092835180   13.39740941833071
B   8.84154757630558   9.26115258520998   12.85922082529143
B   7.49253736389888   10.24471368620283   12.47161254238314
B   12.25659908232759   13.53417815519923   10.62723082072790
B   13.16475823473383   12.40982393966957   9.72621027695030
B   10.09510762069513   8.79928367659361   11.80639566933059
B   15.15921838343305   9.45326285911696   11.71000073784405
B   12.77686097843622   10.77245268301548   9.40558097159853
B   11.79433034135733   8.79482405177409   11.79083558864881
B   12.24202727055007   13.62529727838062   12.33402395577422
B   7.47588212313441   11.93371808202627   12.64140224533857
N   15.92982687082178   14.93572714541343   11.36747590890825
H   16.25143259877037   15.17376082037900   12.31218636010769
H   16.72511604846877   14.50666220320875   10.88300894808254
H   15.69075372336430   15.80673481047066   10.88143806266486
35
F:    ...  E:  0.0202750099999776
W   9.56849301308160   11.15181544397891   11.60342382545170
W   10.19089671957140   13.76131245769723   11.42831051396933
W   8.75596189594876   11.06409814398310   14.23970965090453
W   10.94813815859585   9.74924326906460   13.69689049753639
W   10.95736341777037   12.39212811330286   13.71781976823089
W   13.07182620539234   10.86594349766329   14.69358137925382
W   12.41499389352441   11.15920895974568   11.75225349856623
W   14.85270716561253   11.09312236122703   10.31694690776647
W   10.94292505867874   12.11707818319573   9.51066015568394
W   14.34669777726780   13.29451522435971   11.49585098522077
W   13.54404663481438   9.01620094592027   13.13961368074934
W   10.97073645390623   9.48611914233846   9.84270846158373
W   8.19796997755910   9.06507891546601   10.66221569074169
W   8.76485516273612   10.63300499787182   8.90373606168406
W   13.54647131112262   8.86304169471121   10.43508638002711
W   14.92279795850751   11.29898320739682   12.94150394711109
W   7.00274391500946   11.36090432224658   10.57291999501142
B   8.73022537861894   12.71439715869555   9.97293820547726
B   8.08462072752049   13.10175136870366   11.51256739874395
B   8.87271284193333   12.97230139154545   13.06448536132278
B   13.25284837012795   12.71131441455348   13.42203910635918
B   8.86444822312512   9.26750476976632   12.87840118232027
B   7.51999222438105   10.25770002170367   12.49220188248743
B   12.29018710446459   13.50972236968802   10.64582663507519
B   13.19186661702657   12.38385518231273   9.73786535258208
B   10.11296846360093   8.79738735377631   11.82374383580506
B   15.16618628680954   9.42887129808856   11.72842737726776
B   12.79139915043301   10.75064565832579   9.41740946726920
B   11.81075498083836   8.76950866942900   11.80611776801935
B   12.27519848580072   13.60660137700831   12.35469254008545
B   7.50857882404333   11.94730180873747   12.65865596399167
N   15.78895885625592   14.99093038547216   11.25145872884980
H   16.05013725380486   15.43726551522976   12.14310886275438
H   16.65757241078887   14.63008515213315   10.84272322664144
H   15.38147911346329   15.70081725679792   10.64386573759240
35
F:    ...  E:  0.183144529999993
W   9.59011718962827   11.15626530865633   11.61829801806273
W   10.21164045333935   13.76703545236046   11.44124962213277
W   8.78401656924367   11.06761728161209   14.25494152751799
W   10.96913239783145   9.74932815184708   13.71162795060807
W   10.97984235989634   12.39609415623858   13.73344569601550
W   13.08498882015590   10.86599533239347   14.71365366032302
W   12.42755192135483   11.15000483857122   11.76698322461907
W   14.87221268251408   11.08146991221423   10.32511279825636
W   10.96075165281777   12.11657806088918   9.52180395787851
W   14.35986714047657   13.25685285221323   11.53015786499257
W   13.56039710460808   9.01493306559901   13.15678115403866
W   10.98977545936989   9.48434953908126   9.85632295363071
W   8.21966831185920   9.07076253709757   10.67729419837088
W   8.78435519238171   10.63649351572962   8.91605584496709
W   13.56445797943067   8.86073119708847   10.44716027019842
W   14.94380955866460   11.28450852852488   12.97284764329975
W   7.02731218997351   11.36367584053047   10.58896982315131
B   8.75218552925183   12.71872597117679   9.98839792381066
B   8.10740002793569   13.10767123993147   11.52882401260384
B   8.89853959008264   12.97881061362767   13.08002765707456
B   13.26599491488803   12.70857874891513   13.44078362619522
B   8.88804803844909   9.26934689455010   12.89265437396631
B   7.54548959220380   10.26311312418293   12.50858569011301
B   12.30752977695194   13.50517835867647   10.66006092600419
B   13.20868321322734   12.38135082676528   9.74917311834871
B   10.13428748297789   8.79494473606431   11.83868515344812
B   15.18315357991291   9.42802655890418   11.74440519790403
B   12.80996384530393   10.74929759241354   9.42948068828163
B   11.83249720498502   8.76255765430761   11.81992315095428
B   12.29048238407131   13.61101056940208   12.37044219959034
B   7.53582685927414   11.95308868595220   12.67586501191676
N   15.70162031037937   15.01042777343164   11.19273586927385
H   15.87421888037637   15.67027004206294   11.91389798842157
H   16.59750542003868   14.72025105411691   10.79869997395915
H   15.08643639828076   15.39441401700880   10.48441126220832
35
F:    ...  E:  1.45408148000001
W   9.58754802866066   11.15592608561329   11.61269938136275
W   10.17057451606924   13.77343817174231   11.42751985192381
W   8.78747140797891   11.06111756947696   14.24820089955805
W   10.95580092670414   9.75825895331516   13.69447270796122
W   10.98780144629913   12.44134526770552   13.70864399847926
W   13.08011464406134   10.95354417702557   14.66003326241439
W   12.42441571358479   11.20782090682563   11.75431371110323
W   14.85644695984763   11.09973908353622   10.28084825899004
W   10.93165457118584   12.11919619600522   9.50472506347026
W   14.35345122477229   13.34482225091615   11.46147558522421
W   13.55815917129382   9.06575451002274   13.14174667279926
W   10.99091030251729   9.50077774743651   9.85201808464994
W   8.22254762673503   9.07448240838804   10.64821287543089
W   8.76077831092809   10.62350791466094   8.90212212868190
W   13.57183019965782   8.91679837196262   10.42954611648871
W   14.92843015836556   11.31839623274859   12.94934512104056
W   7.00561014699209   11.35906672896367   10.58191058884683
B   8.72412154703685   12.70817189862127   9.98283877582676
B   8.08154479121163   13.09490729606143   11.52585860692723
B   8.88688489951379   12.96780238628906   13.07698708474773
B   13.27865689844635   12.79015215993893   13.35706441740066
B   8.88457541839831   9.26388327829007   12.88454877092386
B   7.54183295934340   10.25474485263436   12.49368287813404
B   12.26248701415194   13.55870587654664   10.59845604907406
B   13.17546230353076   12.41632901727064   9.74033999793931
B   10.13456634998543   8.79060042637214   11.83151511318206
B   15.19399067199874   9.49036148730183   11.73441471677793
B   12.80549162451857   10.78648889927988   9.41128485332213
B   11.83746646585688   8.77377523989994   11.81255117767918
B   12.26333026349646   13.67121280179652   12.31349930440223
B   7.52489774575553   11.94033538151602   12.67340894182555
N   15.91233456151384   14.79255198533857   11.38388484277793
H   16.07547211499590   15.60605252106394   11.98317268514694
H   16.78067678286400   14.61803517065567   10.84103872293380
H   14.81242226386453   15.05165677691422   10.84737878469079
35
F:    ...  E:  0.766793699999994
W   9.57523885627013   11.15517967761578   11.62111157286784
W   10.16799543074175   13.76767606188309   11.41671368838286
W   8.79168052294402   11.05255898582807   14.23507892059663
W   10.94292587032571   9.76116337900310   13.70473870881987
W   10.99923992264581   12.45495815474179   13.69338970125529
W   13.04204104645164   10.98676605906195   14.65089828957998
W   12.42765010961493   11.23509400574320   11.75135613477014
W   14.86859108344684   11.13370291615943   10.27997515785591
W   10.93124609169816   12.12176951078561   9.49354695546026
W   14.41565603080093   13.49764330732746   11.40403789864074
W   13.56369484326433   9.11206882266092   13.12416060211114
W   10.99115248428822   9.51044641864463   9.85665330385568
W   8.21536138775834   9.05206176480128   10.63849880553166
W   8.75859916325760   10.60468079722605   8.90764467827185
W   13.56351118889163   8.93194622336718   10.42684385747423
W   14.94748460629686   11.30426919104011   12.94133603453963
W   7.01073522074429   11.35932535659227   10.57268149533992
B   8.71645730159941   12.70277146526226   9.97893394875845
B   8.07225764480083   13.09614656917553   11.52406123212548
B   8.87625677732379   12.97284786012141   13.07728652110390
B   13.30538493017835   12.79855360189232   13.30237501794190
B   8.87254069072656   9.25946702941467   12.87658301294834
B   7.53624271737621   10.25789238543209   12.47369704328336
B   12.26187800268648   13.56624226648610   10.58638668772971
B   13.18470971798602   12.44633188047324   9.74393306872921
B   10.12218871530983   8.78610654139434   11.82536086519983
B   15.20516963764079   9.49209986868182   11.68978235106539
B   12.81235755558613   10.80867321781829   9.41829775887821
B   11.82747330909373   8.79333559287506   11.81503441377385
B   12.27247453798935   13.67956822773401   12.29099186636077
B   7.51415289315621   11.94493864355922   12.67574746152707
N   16.17637978252390   14.53177664448813   11.61168412509878
H   16.16135061478220   15.49842830883894   11.97825964913072
H   16.93325246963639   14.49954478525033   10.89225254038726
H   14.28642887429863   15.17372451075681   10.87042666274132
35
F:    ...  E:  0.309544410000001
W   9.60001070898962   11.15913636994760   11.63214123419127
W   10.17585788641835   13.77574455791622   11.41716816286109
W   8.81958061537047   11.06187444620399   14.24141172887391
W   10.95722505657478   9.75018087578540   13.72004845197146
W   11.02414563627139   12.45489500896620   13.69728811928214
W   13.06071775173091   10.99384311749288   14.63924517133754
W   12.45234391592477   11.23225417341947   11.75269665365536
W   14.89055037118895   11.13566298352888   10.28794061388711
W   10.93773101203101   12.11265391647205   9.49133999306618
W   14.40656143038839   13.49437929367653   11.38255047897787
W   13.56912966224214   9.09879794619370   13.12488730403295
W   11.01377988997097   9.50988481481861   9.86465419887166
W   8.23067571852696   9.05818333707515   10.65789804564115
W   8.77294981554848   10.60661036956748   8.92750180108563
W   13.58060328073446   8.93340422558497   10.43721665707524
W   14.96699097136541   11.30603202558837   12.94030795687270
W   7.01637438029772   11.36620139900893   10.59307698576761
B   8.72987599342097   12.71155903774762   9.98932477737467
B   8.07854422835682   13.10021216225677   11.52959191597472
B   8.90373165291319   12.98052041784549   13.08227614161296
B   13.33088024557225   12.80587468947659   13.29442953081225
B   8.89262161909595   9.26242450967365   12.89216206677589
B   7.56123578853086   10.26754015108682   12.48671500713320
B   12.26479098070963   13.53435138241116   10.58866742010923
B   13.20245331463759   12.43460158237060   9.72977058373661
B   10.13254295833269   8.78599269010193   11.83401062304342
B   15.21562321404000   9.49759753158716   11.70588841377448
B   12.83647254502853   10.80106591360689   9.41595250857440
B   11.83207606669772   8.78386079081574   11.82555657907182
B   12.27852949392485   13.67560993875215   12.29641090977862
B   7.53172503774908   11.95345667809639   12.68547208575689
N   16.09007877110610   14.59959268085474   11.49414823520244
H   16.04399339398432   15.62061397202218   11.61317745543280
H   17.04936686877950   14.35883284056225   11.20170071650990
H   13.89998975568143   15.12631420162231   10.87713150401267
35
F:    ...  E:  0.122917939999979
W   9.62606106422887   11.16379652216587   11.62334642343091
W   10.21430492740351   13.79184347414353   11.41474588288759
W   8.82535161705658   11.06398010797618   14.24056075548789
W   10.96560975729860   9.73328669250978   13.71702175442447
W   11.03641557902336   12.43461525544117   13.67987595918309
W   13.08579850161555   10.96982893599286   14.64531965948895
W   12.48801546475989   11.18797027063384   11.78090314742405
W   14.89950966302003   11.13551333336961   10.33131402314263
W   10.97560067465766   12.15499981952400   9.52761854513816
W   14.42019437971460   13.43512776983608   11.39970515115143
W   13.56132714399116   9.03401341964710   13.12662112428297
W   11.04667209450379   9.53464509464376   9.86696652456671
W   8.23605722242759   9.07083983123189   10.68294065758888
W   8.78694970829446   10.66144213174215   8.93727514109604
W   13.57831057821871   8.91206224131969   10.43568980340106
W   14.98024835831887   11.28467752365423   12.98162539669546
W   7.02929221450866   11.37705387327898   10.58989884231887
B   8.74689411143962   12.72700494931961   9.98637760368505
B   8.11013132000241   13.10770195058777   11.52749122101204
B   8.92543454039860   12.98189738861608   13.07509572446777
B   13.35003143129466   12.78620260778267   13.30649582342787
B   8.89771116588924   9.27108771993183   12.90287998218482
B   7.56455669546389   10.27665841558713   12.49461299884374
B   12.38150425518863   13.72172320000050   10.57212966552090
B   13.20388034417926   12.43111532145775   9.76463348282582
B   10.13863377326090   8.80927264714423   11.82845040611656
B   15.19359066675519   9.48955750292715   11.74500710154122
B   12.85911195349583   10.80449966292847   9.43129783587241
B   11.83588779105880   8.77002750604439   11.82426235115355
B   12.29444169125552   13.63682824568088   12.31609379989409
B   7.55707519230228   11.96341088308290   12.68027805004862
N   16.02380463294570   14.66559650030750   11.40921876644532
H   15.97296946695175   15.68087945837802   11.52025208138713
H   17.00199844967410   14.39413658686505   11.25427508572884
H   13.53638360153808   14.88646318838418   10.72947926027342
35
F:    ...  E:  -0.384332889999996
W   9.64902208453866   11.16540630794040   11.63440828518248
W   10.24599718009696   13.81211600916525   11.43171449666466
W   8.85160192615959   11.06487377578670   14.24997548569411
W   10.96654071520415   9.70622798008799   13.72978266517580
W   11.04587510922801   12.43557118486667   13.65384155520517
W   13.08852905813691   10.92107699993839   14.68745677761093
W   12.51967143575939   11.10797719109203   11.81876616512450
W   14.89795930340206   11.10664716028177   10.34153937476293
W   11.00610752614203   12.17707152046916   9.58749825027578
W   14.43639025314092   13.39523946962506   11.44402344654863
W   13.56470844064629   8.99535983773853   13.15138576443425
W   11.04476372800936   9.54762299606953   9.88035805677975
W   8.25127395844667   9.08101897829494   10.67925171605432
W   8.79615507793922   10.69031982171135   8.93684778890722
W   13.60562790158632   8.89875375385640   10.42731940583819
W   14.98118032585779   11.28281571536930   13.02396483525004
W   7.05729294623082   11.40106293278025   10.58844766368032
B   8.76805015163259   12.74634477624573   9.98871556128895
B   8.14288442610996   13.12264743216338   11.53572896394725
B   8.95113726814110   12.98826333820424   13.07271053648205
B   13.34080943265547   12.73078215346197   13.34392411426311
B   8.89551446221020   9.27186208002806   12.90232979594164
B   7.56922020006998   10.28260577899093   12.49665028618134
B   12.46494744672545   13.86359204302912   10.54049403444334
B   13.20884412968267   12.41143607990041   9.83941309266968
B   10.14628384574130   8.80715277124641   11.83609903152076
B   15.18948940533534   9.48498981700690   11.78757177474248
B   12.84944854285124   10.80883797954843   9.45306923781788
B   11.84870996719217   8.75599695290389   11.81921650599997
B   12.33437021037481   13.57851644420930   12.29985680795341
B   7.58965542080482   11.96915092621096   12.67990811263754
N   15.97018553394418   14.69257628885287   11.36031023702971
H   15.85898413871104   15.70250653324109   11.47003419172932
H   16.95995310744832   14.46144530770891   11.24473952284291
H   13.25257537198111   14.88189169411020   10.41240649145763
35
F:    ...  E:  -0.607053169999972
W   9.66056424364003   11.15679997948407   11.65492104983568
W   10.25770480511091   13.80404135559899   11.44371873599062
W   8.86850673284022   11.05824078248270   14.26984200044295
W   10.98747270656625   9.70055095645249   13.74579174461753
W   11.06844133073157   12.43020299375078   13.65554090212201
W   13.09894773088869   10.90685510367909   14.70599741671943
W   12.52669393379567   11.09361868678316   11.83105389229540
W   14.90037146765091   11.08118729121489   10.32345119516234
W   11.02351700097625   12.16218863759332   9.61891831244987
W   14.47781465358466   13.35689249406477   11.48648322582810
W   13.58882598463112   8.99249248601355   13.16776986490556
W   11.04348605887100   9.52704197245308   9.89832102357815
W   8.26604481023066   9.07508202462012   10.69531149265138
W   8.80191638240977   10.68153683155584   8.95512467620782
W   13.62899629239184   8.88925709815348   10.44812082825116
W   14.99291250055557   11.30184316265892   13.03261715057874
W   7.07035864731872   11.40040587010563   10.60818590106966
B   8.77902703460483   12.73810137121833   10.01009334470417
B   8.15387029762111   13.11898424191308   11.55740319628898
B   8.96104358542326   12.98897012926635   13.09019757973006
B   13.32956892568374   12.73533913630252   13.35141954376457
B   8.91249043575029   9.26653001745976   12.91844710640974
B   7.58257107348926   10.27594570918723   12.51450893078976
B   12.48164065663170   13.89247357621971   10.51631638197817
B   13.21189813845407   12.40616074547347   9.86521549388256
B   10.16341675955446   8.79371720772190   11.85581810410952
B   15.21264702469140   9.49436557696645   11.80582292299182
B   12.85159336147094   10.79241946547132   9.46333070432648
B   11.86822071264084   8.74454893414742   11.83443543213643
B   12.36625941605648   13.58331140827025   12.26947382188726
B   7.60330752523248   11.96243749781349   12.70114025114853
N   15.92972137146975   14.71352156301001   11.31949113799178
H   15.75478285635642   15.71806902549713   11.24541554428233
H   16.92912111171437   14.53417300733115   11.32628569086731
H   12.99600446309836   14.97245369220325   10.16377543214494
35
F:    ...  E:  -0.692473230000019
W   9.67194652260651   11.14818910210317   11.67658960389968
W   10.26350566928620   13.79037018080552   11.46363621753200
W   8.89166109473297   11.05789513460079   14.29152086636022
W   11.01452761286006   9.71095916609510   13.76266424650658
W   11.08844404089470   12.43728997138951   13.66162878209021
W   13.12284009890992   10.91720089279794   14.71608779835015
W   12.54148133625204   11.09186807621835   11.83752569835262
W   14.91670790186586   11.06123963549974   10.30846384971189
W   11.03459986737728   12.12002712069134   9.62799737505762
W   14.49422286673007   13.35557333391358   11.48516866890950
W   13.61614993791500   9.00892374961190   13.18136504988382
W   11.04942201909516   9.50934740406410   9.91775152756651
W   8.28145728751704   9.06551882683589   10.72127040431325
W   8.80599965808461   10.66126903360468   8.97353683290799
W   13.65443661271024   8.88473479280418   10.46686837364408
W   15.00769286053336   11.33003334872477   13.02341184294431
W   7.08224486875198   11.39237024473160   10.63724669138143
B   8.79214735137018   12.72158535517918   10.03180012289053
B   8.16497420540639   13.11222565134087   11.57760262994322
B   8.97418770826049   12.98854901351997   13.11162080169720
B   13.33924158297160   12.74775947182393   13.35348836761875
B   8.93407224540216   9.26403092074743   12.94162195752637
B   7.60021392754161   10.26882350666555   12.54065729132855
B   12.46471028876544   13.88302026819955   10.49461812583596
B   13.22365731439534   12.39525750182626   9.87185334230714
B   10.18616992446487   8.78318515872146   11.88240248640790
B   15.24216489897613   9.50786399874406   11.81442616217922
B   12.85950155286975   10.77568401204740   9.47129693503414
B   11.89120456357132   8.73945822068678   11.85291804234718
B   12.38669319719414   13.59716640113256   12.25703537936540
B   7.61772035154480   11.95615967099166   12.72721399813098
N   15.89190069892335   14.74504755027400   11.26885820315341
H   15.69311267668613   15.70697663160336   10.98798730789599
H   16.89385064457372   14.63140751190041   11.41784148983029
H   12.65689664309561   14.98274917223956   9.99378355923253
