38
F:    ...  E:  0
W   13.37007611038564   12.32722557246249   14.88712712865534
W   11.69237735976647   10.49154865191559   13.62294873339700
W   13.97579025436953   11.74389184343426   12.33965657840007
W   16.67835235902583   11.34180916644416   12.65926908788828
W   15.89841559878959   13.29725115917356   14.02581312275250
W   13.47022917235698   14.47131080899902   13.47071122594940
W   11.32748116992414   12.94381068504738   12.69945784737862
W   15.67381441266682   13.76474525327968   11.48699777974859
W   8.70697367725642   13.00435310338456   12.34570283977157
W   11.49704877893849   10.59116902376150   11.06959509583361
W   9.30448595981381   11.34774347385738   14.31066462252470
W   11.85750520001674   15.95783689997613   11.85572460357734
W   9.53850853164845   13.89860872395432   14.58696676239031
W   13.13426593349382   14.11021410730246   10.76436042779967
W   10.38532053229393   14.52963618511087   10.59700925839040
W   13.52787163398398   9.03031648905564   12.27418352439176
W   14.08989219340572   10.13058297602843   10.22107203996150
B   15.22369150422552   11.19818855237080   14.36761955309712
B   13.85091481926768   10.21916650480188   14.22940066806864
B   15.24435213588693   9.85371540076027   13.32347700125424
B   11.11502071742510   12.35988327253074   15.04025034466773
B   11.77840175142950   13.91941780295662   14.90420753949116
B   11.29629650121781   15.13917931292011   13.83935021154291
B   9.93992788892092   14.99259753992118   12.68757880325552
B   12.95043115891113   11.94620497408558   9.99486227981314
B   14.42836063843943   15.61469808185511   11.77890087094909
B   9.92832454513545   12.27704613907509   10.59995478608076
B   8.26167577691429   10.80930465621325   12.54288127580878
B   11.46589526677706   12.67455456007012   10.18058424999996
B   15.48275398436127   15.28300269692027   13.02820740728958
B   14.52872859768924   12.46641479195039   10.07586373371873
B   9.16816639256999   10.95936180078631   11.19907474504087
B   15.76597472276034   11.58673265918818   10.75794093102112
B   9.75643334978367   10.03223576025819   12.54634354994183
N   17.50004548359280   14.13054934642909   15.36192667350295
H   18.22130863749394   14.51937816371745   14.74543541451639
H   17.13934209587483   14.90248933165988   15.93209635659955
H   17.94616344002050   13.45009861569379   15.98236342608705
38
F:    ...  E:  0.0298200100000372
W   13.37483422240923   12.33524191512751   14.86703088052704
W   11.69614776611005   10.49032375484732   13.62071368842506
W   13.98040734248884   11.74279143021277   12.32903067061091
W   16.67115149392452   11.34033437474717   12.62477984795916
W   15.88143279688659   13.29453944515188   13.98185456045947
W   13.46679866072811   14.48427996304990   13.44517499088531
W   11.32254857408188   12.94406531435487   12.69869885508553
W   15.65671707615437   13.78009018805995   11.44338271296765
W   8.69940987453701   13.00027287637532   12.35955847712672
W   11.48809531113111   10.58568544330383   11.07036343761408
W   9.31257610073092   11.34474741205819   14.32469837588341
W   11.83928790113960   15.95664856522064   11.84753089472591
W   9.54150894380767   13.89585691911581   14.59341710709636
W   13.11355412839829   14.10720317369844   10.74916787368268
W   10.36395058798383   14.52051806763606   10.59887600111514
W   13.52282546298110   9.02748859531655   12.26576193699440
W   14.07304330527504   10.12581330963233   10.20861453410632
B   15.22634614148581   11.19735783224756   14.34585383373914
B   13.85273376230931   10.22204898581006   14.21764741076430
B   15.24364041736852   9.85203395087414   13.30545302911157
B   11.12492263448476   12.36429884725366   15.04244151948916
B   11.78652485231110   13.92418293166437   14.89523202370663
B   11.29442371032442   15.14427310194997   13.83636826442207
B   9.93055265861706   14.98951382323306   12.69252407069750
B   12.93028285205238   11.93703828896945   9.98597671799827
B   14.40723747775565   15.62722655653668   11.74436792856824
B   9.91708553574297   12.26801119681979   10.61116880046011
B   8.26134566570942   10.80480712650202   12.56305169063364
B   11.44868569947768   12.66696622847880   10.17839785517138
B   15.47536248285548   15.29295765632324   12.98686574293740
B   14.50644926222885   12.46609475626148   10.05015507028138
B   9.16154809680837   10.95121437726331   11.21510735601086
B   15.74872984012368   11.59180513020394   10.73020813187135
B   9.75588221410744   10.02816363533853   12.56188895730720
N   17.42388835790094   13.92901856997944   15.47811333098349
H   18.26007578704067   14.21451058401401   14.98609870346822
H   17.11002672853827   14.72191256321224   16.02768368940243
H   17.66264762664541   13.14321869073271   16.08641442853312
38
F:    ...  E:  0.114213810000024
W   13.37579245141022   12.34016196080871   14.85998965323324
W   11.70256926960369   10.49339669591783   13.62333835134814
W   13.98127081223538   11.74929466045841   12.32063307079220
W   16.66955560677748   11.34355734586222   12.59366242807903
W   15.87156611646234   13.30290890058541   13.94658378960105
W   13.45760494121317   14.48820131830185   13.42772062896471
W   11.31560793766173   12.94570539306794   12.69640193021092
W   15.65057542345999   13.79072197045697   11.40014593573266
W   8.69156629764947   12.99506537111348   12.37036077927232
W   11.48512501335833   10.58212159259475   11.07538730270223
W   9.31535133469441   11.34308518706793   14.33449680656731
W   11.82860001961416   15.95313823924231   11.84336816771576
W   9.54028634611674   13.89448943295799   14.59831873587576
W   13.09905848267585   14.10386748293387   10.73309214797356
W   10.34988456860374   14.51460172004881   10.59911100366140
W   13.51523073381241   9.02583841805579   12.27018147832779
W   14.06232423733187   10.11945998516413   10.20788581125583
B   15.23138617071575   11.20342137961413   14.32942784552716
B   13.85888672859487   10.23021872531355   14.20981159678313
B   15.24629165647605   9.86167840658888   13.28325098470014
B   11.12756930161768   12.36535308255758   15.04623459744070
B   11.78746349973918   13.92558778578916   14.89560545617551
B   11.28949857716733   15.14331241294244   13.83691293371704
B   9.92254800411759   14.98617213791032   12.69489305047754
B   12.91668684875844   11.92896601715794   9.98099597198026
B   14.39153873969975   15.62603278221846   11.71840873005775
B   9.90973049110300   12.26338627935147   10.62046523979870
B   8.26322003322306   10.79666672136861   12.57521335447035
B   11.43780459684864   12.66156788295313   10.17824178756157
B   15.46600413458807   15.29554357557948   12.95344169985516
B   14.49253578291300   12.46387282283976   10.03161163700709
B   9.16033210535612   10.94490206612453   11.22739697991473
B   15.73468304835165   11.59199698057786   10.70922625678612
B   9.76116147983800   10.02571926915388   12.57437681223877
N   17.33939284337060   13.72123045825950   15.56842270008685
H   18.29835733712570   13.88471308652956   15.24657059819561
H   17.08241443580994   14.54893045012742   16.14501018207171
H   17.30028212147110   12.82836365080511   16.08353704284679
38
F:    ...  E:  0.705521350000026
W   13.35803681758657   12.31241441438889   14.91457057869359
W   11.71894717604143   10.52029213794635   13.65209622379702
W   13.92824530625856   11.78005247780122   12.32643962357963
W   16.70044844079959   11.43689304177280   12.58566083231634
W   15.84771897602184   13.31729616659375   13.96696323749409
W   13.43139990275407   14.44254427326432   13.43792295469260
W   11.29785427663963   12.94338409626162   12.69775289911949
W   15.69923719471752   13.72440471036179   11.41272425676971
W   8.68045990646953   12.99725603027186   12.37250791348151
W   11.50293354530637   10.57788239113205   11.09687345943391
W   9.29557047473610   11.35141225256998   14.35378433686207
W   11.85061018855579   15.94252973172094   11.84394618974066
W   9.51918653812683   13.89217572787693   14.59494262953841
W   13.11939601701874   14.11266142491342   10.70518125636154
W   10.37887997386339   14.51642287767141   10.58971146888512
W   13.47800389504881   9.00114177555905   12.30725913179524
W   14.08134868920955   10.10291167305390   10.25839045811862
B   15.23400845727294   11.21482128479583   14.32698744365990
B   13.88256323749798   10.23402865515240   14.20253923907337
B   15.22913241041564   9.93200805979205   13.19864192888956
B   11.09407966316353   12.35364069324958   15.07532042934675
B   11.77039016505291   13.90910178278084   14.92472893642920
B   11.27032853397834   15.11078944389586   13.84405947360627
B   9.92677465499337   14.99079040321746   12.67315117121903
B   12.93737240643862   11.91982177600495   9.99384584368092
B   14.42539774246623   15.54972461364406   11.73086352135076
B   9.92185744215517   12.28061697008921   10.62872635719883
B   8.28270417338944   10.79350693340831   12.57918314191092
B   11.45598668635168   12.66226126382640   10.18292371380880
B   15.44712339152935   15.25012890475051   12.98990974042500
B   14.51416477851617   12.45852017073886   10.03993618031514
B   9.18633504148469   10.95052166960354   11.24053774341795
B   15.73916361289070   11.55545762182740   10.71402848207619
B   9.78473122506500   10.03474101829757   12.59422019989315
N   17.30748081513835   13.70708919109453   15.50124156116380
H   18.31105954529482   13.67331130636453   15.52887292125769
H   17.00792570297608   14.38548806153777   16.23149618928787
H   16.95296931251633   12.73073660387342   15.63510197909946
38
F:    ...  E:  1.58611977000004
W   13.34811670623633   12.30083474773324   14.92983655383884
W   11.70544198928118   10.53321557398977   13.63985901502521
W   13.89741152981645   11.77717697118973   12.33939979215127
W   16.68471142700000   11.50292014683240   12.65462818051919
W   15.90436830576978   13.35579003780154   14.17270281275294
W   13.43486838683360   14.46568016801881   13.45040303606087
W   11.29699662170980   12.95417467267176   12.69520783292465
W   15.70652779819915   13.69320606033084   11.48014759061476
W   8.67663279565790   13.00677167380972   12.36212523494662
W   11.49631867669285   10.57304368381211   11.07362004625028
W   9.27696118502396   11.35271409647025   14.35266268012593
W   11.86352232023497   15.94509853757432   11.85176940295569
W   9.51835601047293   13.88490317199255   14.59310036163531
W   13.13855385785077   14.11493656008551   10.71643526503514
W   10.39607994549940   14.50358286653610   10.60183316601881
W   13.47767934703949   9.00509859816116   12.29432045546258
W   14.12940868651375   10.12219885274335   10.27261445713839
B   15.22910716567358   11.22461957100530   14.35541450411445
B   13.86234729407002   10.24019145259922   14.21158436308082
B   15.21621060826405   9.93741559313391   13.22283443349891
B   11.09156717992398   12.34074810998319   15.06105890719753
B   11.77232694674981   13.89256732165451   14.90451510834750
B   11.28572934571095   15.11377579422694   13.83750952372582
B   9.93583660128946   14.99476828509517   12.68470769372302
B   12.94866908270798   11.90722313788701   9.98276440758100
B   14.45103177452027   15.53599013308540   11.75411835047864
B   9.93184308191025   12.27216454328412   10.62394514574231
B   8.27572116627191   10.81039885635105   12.56832933364284
B   11.46975127849295   12.65960457969203   10.17791177383004
B   15.44675926009306   15.23534831406693   13.01429807985659
B   14.52794842483757   12.46919788225016   10.05679974828170
B   9.18912180913267   10.94218496407509   11.22898171035942
B   15.76052693435020   11.57372199170278   10.72247930415129
B   9.77286116758341   10.04582862831386   12.59487836371999
N   17.33907704509136   14.08192366569085   15.44802003143599
H   18.35441408321534   13.97429742313440   15.36340965699193
H   17.11342314608118   14.73113935041048   16.20975838949185
H   17.17502858562629   12.50157833566790   15.23746432988755
38
F:    ...  E:  0.213748040000041
W   13.32087290852248   12.28542104034455   14.95637522432731
W   11.71529927403174   10.53022898193226   13.63846363672760
W   13.85294228684116   11.76523138307606   12.31280488392425
W   16.68457309234256   11.56645382549969   12.79831863161941
W   15.97890526398717   13.41220943904454   14.29880650531929
W   13.45524164565512   14.47388092304841   13.52143393631860
W   11.30082504987081   12.96409964832878   12.68908050395903
W   15.71138341945123   13.62886432443472   11.52876537960661
W   8.70761844273365   13.00520792923250   12.34936362952757
W   11.47895289297131   10.58350856648844   11.04148500850985
W   9.27898743538907   11.34406151492583   14.33509834177059
W   11.89329587965829   15.92090808340772   11.89777469705170
W   9.51731974822734   13.87324163930272   14.62369627460157
W   13.16321479827045   14.08609542008068   10.76376763229804
W   10.39348434632315   14.49905420577075   10.61974509665233
W   13.51341041694411   8.99901366337709   12.29268508549627
W   14.07420834658570   10.10448821524569   10.21069083132245
B   15.15999450663359   11.28206605812716   14.34959529011405
B   13.85391905698384   10.22665294499694   14.22734933319493
B   15.19925391626988   9.96458008544960   13.26286189755432
B   11.08332740290873   12.33765238346055   15.05572702107004
B   11.75191402928602   13.89275327301628   14.92740200086887
B   11.28039710873342   15.12075138632602   13.86012539550914
B   9.94257424248741   14.99784341256601   12.70802032221457
B   12.95327208651087   11.93127203848331   9.97290337390882
B   14.46509933382888   15.50578050816658   11.79070889573357
B   9.92896370732353   12.27451415128064   10.59231982693497
B   8.26775871537083   10.81002831494009   12.55426689931269
B   11.46681459356112   12.65934723342274   10.15226408748886
B   15.45636882380586   15.19279580841831   13.06272491517558
B   14.55789113747885   12.40481944208006   10.07498871025594
B   9.17056130985520   10.95522292147629   11.20321355416291
B   15.74786831235376   11.46021532778042   10.77203489649336
B   9.77110933528818   10.06063553112199   12.56316623812331
N   17.33821656822532   14.31570043057407   15.41153051907470
H   18.34111465322956   14.05715547797752   15.54080293479385
H   17.20098676619208   15.17269762389890   15.96104763022651
H   17.17617186433928   12.00181483519527   14.79899520224919
38
F:    ...  E:  0.275169870000013
W   13.35116859153011   12.32675515826120   14.95392915970765
W   11.76693654719034   10.51825850313473   13.63617120677965
W   13.90084545306209   11.78584432371247   12.33062884880231
W   16.70378382975304   11.59048610086509   12.69275927205221
W   15.97552399626603   13.47639501081092   14.24585079745198
W   13.48455779851027   14.46610586370862   13.52193927652098
W   11.31974086879328   12.93133083968472   12.70008141806666
W   15.70589041074532   13.64266660185232   11.48234215924594
W   8.73580514593437   12.99913863046723   12.35364316087773
W   11.49568650889301   10.56266708238919   11.05859245978183
W   9.29459050186912   11.34080174522931   14.34109600771668
W   11.89264779912054   15.89776903710398   11.90235907027825
W   9.53251670735824   13.87620430404860   14.63117854591328
W   13.14181214486995   14.05804391509264   10.77198574797010
W   10.36476767697195   14.51724184902448   10.61279912656279
W   13.59245578261659   9.05046599699676   12.34420303103925
W   14.06134817349565   10.10015094665176   10.22456862612797
B   15.26143645521572   11.33701069367944   14.40274423662929
B   13.94112904825499   10.29331632061860   14.28629792337874
B   15.27357349126072   10.04572426647197   13.28344838696464
B   11.10231899418686   12.34496177796577   15.04746013233071
B   11.75143556206508   13.91424185862542   14.93982159944017
B   11.27953281198279   15.12838688250276   13.87186093824308
B   9.94860748970614   14.99114424236967   12.71698204739227
B   12.93302600362217   11.91319674110993   9.99897997986023
B   14.43963809175153   15.52492004152862   11.76875631965573
B   9.93475004476106   12.26619463239512   10.60149253496787
B   8.26940852352323   10.80403630027049   12.56461463051891
B   11.45032569813699   12.66761377976530   10.14326803826157
B   15.48489250603268   15.20784653134767   13.00827556609133
B   14.53811213059856   12.39449208017728   10.05365676065581
B   9.15541560881617   10.96267625748580   11.20583242370198
B   15.75662908561588   11.46444956370356   10.71219659156566
B   9.78461189369278   10.07417402671421   12.56795524717819
N   17.33207214939578   14.25104827456369   15.46221324200536
H   18.32524767420921   13.98352179202105   15.54618994776453
H   17.23045520405111   15.17099279451006   15.92223551683049
H   16.55837824977020   11.64423169027911   14.84505669124964
38
F:    ...  E:  0.311949700000014
W   13.37426462722653   12.33412097124826   14.89956703263934
W   11.75616845300005   10.52169439433645   13.62906159954101
W   13.90785776743625   11.79297323321034   12.28028524036914
W   16.69078119414155   11.53928407766571   12.64326423050590
W   15.97682530407788   13.45705754855079   14.19941396145048
W   13.49004983749047   14.49186637582254   13.51373058956432
W   11.32944899705562   12.92755839454895   12.69661691496475
W   15.65198980828129   13.68000233668798   11.43423811105311
W   8.74580846459658   12.99395119717468   12.38086232740041
W   11.48507881788061   10.55902411807161   11.05743788846197
W   9.31483752536924   11.33079007970753   14.35557962411581
W   11.88281168979911   15.90566307637504   11.89269432327927
W   9.54773388467451   13.88842880425435   14.63539680856560
W   13.10394178666995   14.05409002784021   10.73656037844467
W   10.35297518584009   14.51653309536506   10.60510384423249
W   13.59589140536087   9.06017864494597   12.31412652310783
W   14.06308066599946   10.08545863821063   10.19563991499700
B   15.34874351767324   11.28265797505399   14.48132389811304
B   13.96461489503185   10.32908022774454   14.24839898758133
B   15.28053122551092   10.05921582542935   13.27783950209112
B   11.12048796112426   12.36196556878480   15.04594395120160
B   11.76389591985563   13.93321773195285   14.93393117888181
B   11.28232308964227   15.14992277961702   13.86038564190910
B   9.94733882536652   14.99199472707242   12.72204046549296
B   12.92215438137655   11.90739606666464   9.98831320381663
B   14.41270156142023   15.55155957188024   11.74339279389249
B   9.92539719051644   12.25950610488631   10.61445519258702
B   8.27899341926369   10.79406439378852   12.58797273798921
B   11.43464797296195   12.65437320005932   10.13362540480408
B   15.48169067461877   15.19170159337127   12.97329322326012
B   14.51847647015773   12.41909920018314   10.00919269087203
B   9.15060463524586   10.95691182246910   11.22390548283156
B   15.72551956588811   11.50227778757171   10.71080882160961
B   9.79139954534471   10.05775548882189   12.56965318461808
N   17.29416205404340   14.13939925804826   15.49522200528186
H   18.26141037537800   13.81968277969793   15.56944965461536
H   17.18191592718101   15.04519669169277   15.97402670580654
H   16.37745164520093   11.40341375854652   15.25491973835980
38
F:    ...  E:  0.161051390000011
W   13.40226118321784   12.35202706666341   14.87057846458611
W   11.76921530281159   10.54042524423982   13.61698868232835
W   13.91702020530136   11.80886512469180   12.25062949179676
W   16.66928267174022   11.51217234900212   12.63761117270660
W   15.96397583712902   13.39455577419831   14.13792133775876
W   13.47847069198445   14.50422705599151   13.48145189910233
W   11.31641506982022   12.94345062949920   12.68904823381067
W   15.63000443975135   13.71979496424553   11.37866670389388
W   8.73390074965175   12.99645746572350   12.39624822290255
W   11.48443450370712   10.56400642091821   11.05139668375720
W   9.33540184815933   11.32824203545533   14.36247446123046
W   11.85907385009055   15.91277619778159   11.88836727886778
W   9.55203389311275   13.89094292202933   14.64283650364257
W   13.09564444499049   14.06594365223470   10.71165609535004
W   10.34242032553941   14.50861522030605   10.60762744160964
W   13.59780488631310   9.08083056384635   12.30197524104107
W   14.06530621128072   10.08637883836114   10.18710596865206
B   15.40581303581687   11.18893648000089   14.59560785761541
B   13.93892291683358   10.32969837132341   14.23291257243801
B   15.27271137867507   10.04521542659391   13.27191642419616
B   11.13495540532946   12.36673931720675   15.05220816314894
B   11.78365764750439   13.92872699929496   14.91930801991784
B   11.27648497961647   15.14691295527486   13.86161603104147
B   9.92632818708093   15.00217044134950   12.72336287161309
B   12.91720713272586   11.91262846147684   9.97314009344609
B   14.39717819048354   15.56327591006395   11.73521389466688
B   9.91502400829321   12.25667591103712   10.61683706532975
B   8.28056005667587   10.79380497132327   12.60103258706014
B   11.42622711109970   12.64713960796760   10.13048996080699
B   15.47141025754815   15.20248974616748   12.95712156132345
B   14.50603413664077   12.43369072468847   9.97773698400234
B   9.14928788580399   10.95543667530024   11.23628358832340
B   15.71266558332863   11.54117185161146   10.70440111704757
B   9.79157547858267   10.04931677101305   12.57373999788391
N   17.23555336113956   14.01743555705041   15.50775681375924
H   18.16038487234871   13.62433970703661   15.68189344952469
H   17.12580529486414   14.90626590004246   16.00494843667467
H   16.22931048793981   11.03473490792107   15.50240524186835
38
F:    ...  E:  0.0988671100000147
W   13.41625022701106   12.33148509104536   14.85607447132039
W   11.75475957583338   10.54657356833976   13.60581828483128
W   13.92309186347281   11.81654118671745   12.24826344957591
W   16.65494965309083   11.47117136916852   12.64492122988564
W   15.94395993706571   13.31959526494481   14.11264359590907
W   13.47566433883282   14.49708866554025   13.45911285372527
W   11.30347578401486   12.95599567118201   12.68293229222309
W   15.62891655688647   13.73995279397314   11.36879988519325
W   8.72066816731821   13.00314078181561   12.40655912335535
W   11.47697871275844   10.57804528182364   11.04483382325244
W   9.34503703260858   11.32686132872239   14.36425343332010
W   11.84465909555244   15.91763293247732   11.89240873051435
W   9.55795714792368   13.88499535343141   14.65574497924933
W   13.09582288549962   14.08208499586332   10.70012388165728
W   10.33485410746543   14.50830695558351   10.61687039295549
W   13.56703981408377   9.06375524276763   12.27174112396766
W   14.07058819873621   10.10316814786530   10.17657242964171
B   15.41322401172351   11.06124452104518   14.65043661611353
B   13.89887839970293   10.28733886875831   14.21113093925507
B   15.23485914598921   9.99743699994623   13.24873010381314
B   11.14236780674359   12.35558449020264   15.04848240249614
B   11.80101186361752   13.90890004100348   14.90567490667639
B   11.27662025402478   15.13494321950977   13.86526222148179
B   9.91557726732716   15.00575638496480   12.73499945008974
B   12.91350032752446   11.92344986702974   9.96530290543648
B   14.40179531345310   15.56808397133209   11.73866627610285
B   9.90414252577626   12.26377169857272   10.61815050586192
B   8.27415589360968   10.80334539951666   12.60866337270399
B   11.42065671052655   12.65371770489549   10.12879155113748
B   15.46804986063226   15.18886041255776   12.97430176197472
B   14.50016127186784   12.45189282641856   9.97515403783279
B   9.14660396069560   10.96154130703260   11.24604181010330
B   15.70818922745304   11.56470624642715   10.70578755003383
B   9.78024222750757   10.04321771669340   12.57667554056737
N   17.17196925729510   13.89536674048237   15.53691359442619
H   18.01101624296648   13.41371160064182   15.86193156491914
H   17.09265617635457   14.80920288003078   15.98458721663102
H   16.09255310085102   10.71617143174210   15.61282224721030
