23
F:    ...  E:  0
W   12.20915973400328   10.69534396531690   11.99405451694128
W   11.96045512928077   12.93587798149625   10.57169685897182
W   9.67488945774511   13.78606449964363   10.84123551197936
W   12.01973656002833   11.44117152801917   8.36317927266414
W   8.23712852540412   12.85722711325580   8.92632006754059
W   9.86878521514772   10.36590409642341   13.03509747127503
W   13.09405246699869   9.13848646140332   9.72043513022147
W   8.23178311064983   9.68578544444995   8.52480639310232
W   13.87236971543090   11.28123213476782   10.13537415490244
W   8.37716220009987   12.09390916943712   12.26340758295005
W   9.88072055560455   11.06811447637791   10.19474993110077
W   10.91451981602533   8.68548896144651   11.01657960813159
W   8.30563339834671   9.11657572342480   11.29016611071756
W   9.70482592080661   11.62526025419650   7.38929026772949
W   9.10077523994560   7.56928524574716   9.51292809536003
W   10.83940098450375   9.18986915215803   8.49413455464221
W   7.09300304324932   11.01706532350992   10.28800797332869
B   10.59990520526513   12.27188092489860   12.23003206168480
B   10.46081394364339   13.02293814516956   8.88139401089483
N   13.61013902823673   10.46342082002068   13.76882904561118
H   14.49351072518032   10.94486311926356   13.58206738296199
H   13.20796947495493   10.84638741541002   14.63012032334221
H   13.81718098190768   9.47176847662204   13.92001410640475
23
F:    ...  E:  0.0559401199999741
W   12.28748705194730   10.66706574536603   11.89834365699626
W   12.00604957311612   12.93060001626274   10.54064347773281
W   9.72959106695556   13.76632709757561   10.84698050377117
W   12.03356129593330   11.44219545259435   8.32959126263835
W   8.26969674919804   12.84257338337151   8.95241067891921
W   9.93125755388844   10.31839185809316   13.01480130371662
W   13.12342062647194   9.11947869647811   9.64386188989016
W   8.24283725901072   9.65968359068283   8.55128066404690
W   13.91735597597543   11.25987215653409   10.06383920828419
W   8.44060371160278   12.05719393179130   12.29053191893787
W   9.92275633090505   11.04538799900417   10.20435182547630
W   10.96719028227131   8.64894413735281   10.96755213355981
W   8.37018778066179   9.07112763534186   11.30099862581543
W   9.70889167238127   11.61799731459458   7.40277643502020
W   9.13276653834346   7.52954240629581   9.48481990777001
W   10.83497098921412   9.17911831484667   8.46010423262452
W   7.14782905771649   10.98162590573387   10.32921799315974
B   10.66219280786627   12.22453636230340   12.20809871498138
B   10.49054203835723   13.01771228061812   8.87615146990961
N   13.44669327664545   10.54586150447000   13.82858858296801
H   14.35287543937941   11.00392194181045   13.72427853860878
H   12.94338097017244   11.07319438005714   14.55047680036123
H   13.61178238444481   9.57156832127993   14.10422060727006
23
F:    ...  E:  0.114729449999999
W   12.36004127562955   10.62972399365977   11.81434677642786
W   12.05476423924605   12.91355975006695   10.52128741244381
W   9.77943966522399   13.73377365334280   10.86435001611802
W   12.05559266894200   11.43838462661710   8.29951875606223
W   8.31366941201213   12.84224449796235   8.97249873399464
W   10.00036116763506   10.25986863878430   13.00146959371181
W   13.15899688439118   9.09782946782439   9.56312720059385
W   8.25920551822027   9.62735514104697   8.57682678319521
W   13.96640029880074   11.23500326645967   9.98916981203964
W   8.51614978844548   12.02182993745787   12.33148930686666
W   9.96654333249911   11.01907691308609   10.21614207395930
W   11.03077695999585   8.61378691424954   10.91833881170511
W   8.43211489289503   9.01867228386953   11.30771528298626
W   9.71999052278333   11.61130873915446   7.41719316058916
W   9.16863407944837   7.48720491178988   9.47042746358906
W   10.83660452597179   9.17088486759925   8.43170381855380
W   7.21985765796745   10.95670124167065   10.36570534804694
B   10.72525637331042   12.16914055984322   12.18969862398898
B   10.52587614805064   13.01210163273063   8.88089510853334
N   13.26908979054754   10.64833036443319   13.86786161090525
H   14.18536144014308   11.10441375555617   13.88474714951859
H   12.66159654151303   11.25572072693293   14.41247325940717
H   13.36759724878683   9.70700454832128   14.27693432922138
23
F:    ...  E:  0.253816109999974
W   12.45535131073457   10.61524372205730   11.71789825727283
W   12.10091140044629   12.94713462737132   10.51035443694891
W   9.82190935571568   13.70274646583794   10.88735324000648
W   12.08905535562109   11.43096748530362   8.30465590608401
W   8.35348156833323   12.78473356790434   8.98749127256474
W   10.06027200831693   10.18412041913979   13.00561057005217
W   13.18661536463269   9.05766315249363   9.49968874729915
W   8.25456372553613   9.61421304028785   8.59960670004899
W   14.01945786531917   11.20581131133026   9.91793722714594
W   8.61507936421669   11.94686599273276   12.36957678431042
W   10.03846045276362   10.98989915287378   10.21574316215827
W   11.09602180901171   8.61106331999613   10.90096937261510
W   8.46658570177734   8.99915894453279   11.35237264820523
W   9.75611527705989   11.60668455500291   7.43371951695794
W   9.19130096891803   7.49986261228519   9.48681078248719
W   10.85575899292027   9.15600262111491   8.39892859894443
W   7.26625762152169   10.90232915258214   10.38568033412776
B   10.80441707852361   12.12191168406499   12.17032770492636
B   10.56686577655006   13.03491854340343   8.89021274624715
N   13.15424437409162   10.75207356447661   13.84350442487110
H   14.01866772981388   11.22901297873157   14.04254647090551
H   12.37666470344525   11.29472908979943   14.24255720071417
H   13.02586262718931   9.88677442913590   14.41037432756346
23
F:    ...  E:  0.906718909999995
W   12.49277028904572   10.62550472763876   11.83723028619099
W   12.08702383371694   12.92320615477309   10.51188035615266
W   9.76333832020289   13.70340287998311   10.87383284977527
W   12.06943556245704   11.43081849757615   8.34146984097574
W   8.34524658833845   12.80800697596259   8.91144035183946
W   10.21602505586658   10.38284458595461   13.15512136180377
W   13.15695110322363   9.07635721646665   9.54995165673145
W   8.26297753820428   9.64400912178554   8.59775884467795
W   14.00403658386629   11.22036857981234   9.95628355761577
W   8.59947860771932   11.95053011358440   12.40371287947510
W   9.98523510701290   11.01253901570906   10.22701359973378
W   11.06534536598710   8.66962275128285   10.95423291611587
W   8.45306526605518   9.01512191579981   11.36974521832725
W   9.75775056286460   11.61460273129405   7.40849314458259
W   9.16586881622456   7.54196497518407   9.52338724556292
W   10.86282674437105   9.16725390971665   8.43012918694179
W   7.27746614884738   10.96049761343158   10.43005428620284
B   10.78962753583945   12.16400472237649   12.14819600286710
B   10.54438794025676   13.01553789828446   8.89485752095797
N   13.42238601103432   10.52581426577138   13.65501099154567
H   14.17617052118907   11.11036663792232   13.99789454741709
H   11.78045331018063   11.33303059013441   14.15006632395410
H   13.29605361995501   9.67851455201441   14.24615746301109
23
F:    ...  E:  0.330646309999992
W   12.49827070198168   10.59675582613454   11.91802762722216
W   12.10809714530197   12.91701879632697   10.53191306594594
W   9.78356189051662   13.69987931879663   10.89299499360541
W   12.08515804642617   11.43528770817291   8.35834376382994
W   8.34174783205654   12.77773265933542   8.90969020408807
W   10.22505041414213   10.42825587923512   13.18380818261582
W   13.14438400147372   9.08177142587377   9.56268706516427
W   8.26256802688660   9.68090427862039   8.60702533484388
W   14.00211160857086   11.22315125377216   9.94822096826779
W   8.60876756218898   11.95788901233254   12.41165335976509
W   9.99185150917481   11.00770167357300   10.24772375451615
W   11.06102710482681   8.68396570466417   10.99433481599897
W   8.44686522315254   9.01521207693578   11.38182293527378
W   9.74786413054029   11.61596738792107   7.39995337414098
W   9.17634775475558   7.57787684972034   9.53457928345917
W   10.87826056968001   9.18529101797849   8.44137717815787
W   7.28048622041294   10.96492047135744   10.45209377156339
B   10.83080929967473   12.19542271848738   12.19004734032386
B   10.54362532336028   13.00447961037955   8.92442277288703
N   13.64610794247297   10.24088376045051   13.52170090884797
H   13.96346193962620   11.02877098078062   14.10312124932838
H   11.43558345218491   11.83853516141994   13.89458597751635
H   13.51191273305155   9.41624686019009   14.16379250509589
23
F:    ...  E:  0.215609860000001
W   12.49763569670304   10.50444666011164   11.84129635231081
W   12.10989182203629   12.84366746706673   10.59377676522790
W   9.88989292633036   13.66451230226050   10.97550550032006
W   12.09719737471275   11.43941986240906   8.34747659349142
W   8.35290303143280   12.80786081320040   8.96791415167685
W   10.13245447605300   10.25106781123041   13.07710993499776
W   13.18201859695368   9.06694705976468   9.51785692665607
W   8.24674089264077   9.64967591308213   8.62991942264940
W   14.02393865604367   11.20912941004787   9.93979162419187
W   8.70281037854867   11.94209140863937   12.47468476710795
W   9.99918539152372   11.00597969724433   10.27066902793026
W   11.07356684561938   8.60758815210273   10.91733462579414
W   8.44730317359423   9.02251120847779   11.38077399104592
W   9.72160835474691   11.61299622425354   7.44073777085113
W   9.16971097279521   7.55587408170914   9.50486116083776
W   10.87520117099389   9.20703814193539   8.42533391025104
W   7.29935000514776   11.00507819649796   10.46261573486191
B   10.92891500113233   12.27895794597272   12.47096325915816
B   10.55661659583656   12.98422885067379   8.94131181619745
N   13.45614476075373   10.24209513111960   13.57949448172477
H   13.83596072011375   11.02264157552147   14.12822616369412
H   11.38926559282951   12.29772271945215   13.58292292133283
H   13.58560799591655   9.35238979968520   14.10334353014904
23
F:    ...  E:  0.0731788800000004
W   12.51308893392228   10.49947294965372   11.76648858628778
W   12.16593110551804   12.81353250602959   10.55220027766545
W   9.90704953203098   13.64226359903867   10.98524491448510
W   12.10639171213885   11.41518468570540   8.30364237781943
W   8.37597675833843   12.79616230772362   9.02465383779596
W   10.28458590325886   10.18971875299474   13.02429584125602
W   13.23055170469272   9.04836916504263   9.45518129631999
W   8.29224605212119   9.63082541040195   8.63819918510763
W   14.06163540577632   11.18520204611396   9.89523413307308
W   8.74323347044498   11.91070602414294   12.48887103733911
W   10.03361298135965   10.97948325042114   10.25995289499666
W   11.13153273395481   8.54728395382804   10.85052605848674
W   8.51749286752715   8.99033919618412   11.38100011061349
W   9.72618755848723   11.60768354065167   7.44842931494106
W   9.20334552474327   7.50946480023362   9.48350628222586
W   10.89147990303172   9.18168824144882   8.40012890350147
W   7.32967853221343   10.97940295406331   10.50587491792446
B   10.97428287573957   12.29073111369824   12.50694831372196
B   10.57888874410542   12.96638714929598   8.94977518282498
N   13.10569774247662   10.28297342770037   13.70074605369979
H   13.46242007862161   11.09478624775452   14.20960353401416
H   11.49413164761293   12.60152567546262   13.61291282499995
H   13.44447866434274   9.41073343486880   14.13050455335793
23
F:    ...  E:  -0.0984767900000065
W   12.55609994239679   10.51450719435990   11.70703733511047
W   12.19448801034832   12.82639945574068   10.50547495336755
W   9.93025264996917   13.61004567971682   10.96865837934145
W   12.11544550516145   11.40819076860195   8.26268654160396
W   8.37987651548450   12.75619044990203   9.05187213667647
W   10.43431538326585   10.19048993840198   13.04733867308719
W   13.27784190102130   9.04662505208307   9.40838732832101
W   8.34516580056891   9.62088937182382   8.65337580028562
W   14.09981753342536   11.19709324645209   9.84081506063327
W   8.80901321285057   11.87288117499118   12.50381811580322
W   10.09150319755805   10.96149782225904   10.27451847165988
W   11.19286223507721   8.54335069708678   10.83571025342984
W   8.59208513568689   8.96336008679159   11.39667394181835
W   9.72925201444358   11.58958832481452   7.43917284402068
W   9.25309400749118   7.48672261691912   9.49569292760070
W   10.91877577691575   9.16312928518054   8.37715045086576
W   7.36730164064824   10.93049625670980   10.55281884818639
B   11.08682191606504   12.30380990414477   12.54334003543698
B   10.58644861706665   12.95146559250427   8.93433643730994
N   12.73587967295948   10.29414217116241   13.80093650408025
H   13.09709042398732   11.13783136022822   14.26051752132031
H   11.53426483122639   12.72501475240130   13.55572745248285
H   13.24622450884241   9.48019923018291   14.15786042001446
23
F:    ...  E:  -0.155009930000006
W   12.58420212454945   10.51111980908766   11.71341965560049
W   12.23130166033829   12.77865903954332   10.47404834936731
W   9.96019218437567   13.61683305480863   10.95153550676729
W   12.12119709175057   11.37395951230293   8.22808554046390
W   8.43176964681734   12.77335092843081   9.09945093093741
W   10.50402926737400   10.23233405355439   13.01299895185276
W   13.29971586616837   9.00799017268917   9.42456642494830
W   8.40663269068483   9.55270328740890   8.61677816264672
W   14.10612646548298   11.16246785365202   9.82400923400704
W   8.80867149014120   11.83425911169326   12.42907068306571
W   10.13290536528314   10.92961897295183   10.24256400452858
W   11.21359666018513   8.49159917807992   10.79285427137077
W   8.67307297863130   8.85153003941081   11.35193063936456
W   9.73561463934983   11.61225126818712   7.45246873792023
W   9.29692624808695   7.38747628691539   9.40361445377447
W   10.94844876858914   9.11154049425780   8.34850611341781
W   7.40915916685798   10.79684657844520   10.53216358694374
B   11.02654056730670   12.40647533426099   12.59652775956341
B   10.62973824148125   12.96104984630615   8.89281380375682
N   12.62462125669442   10.38732933947773   13.87725821506315
H   12.93080515656158   11.22335009248957   14.35303532903137
H   11.45183652853604   12.99857598668045   13.60135327953434
H   13.04681636721232   9.57260019182493   14.35486679853219
