35
F:    ...  E:  0
W   9.70264266141996   11.96521308948804   11.29637161391822
W   10.11358086523176   14.62509303859221   11.07764474794943
W   8.96411177758293   11.83691539290446   13.94984561521591
W   11.22882494183705   10.66131980243086   13.35791649517202
W   11.03698113668972   13.28508404828033   13.35791226926238
W   13.29359320639432   11.92605215929264   14.25024901142867
W   12.51961836798718   12.20383781670670   11.30318844165905
W   14.93179956474349   12.22963090480036   9.87581224730785
W   10.92937142086613   13.00182047944377   9.14213365806596
W   14.27099322921443   14.39131933655834   11.04546342614412
W   13.88261857627187   10.00884794876750   12.77128352481124
W   11.18353491634108   10.40046880351628   9.50823319413303
W   8.47924097719934   9.80411746965289   10.38338900506874
W   8.82862315837359   11.41319971982572   8.60928825742340
W   13.78165470923545   9.96878857518891   10.06418599691377
W   15.05813478681597   12.46822241871272   12.51696783770267
W   7.08236326318384   12.00979043549749   10.34222970116892
B   8.69828916273010   13.46265208848213   9.68106581743204
B   8.07428987520837   13.81149460622025   11.23964400523213
B   8.91639224683871   13.75362010486238   12.76674724544120
B   13.28468919971377   13.77602516988023   12.98633319108373
B   9.16191138435149   10.04610215251355   12.59698216985734
B   7.73811319723436   10.94583340577201   12.23601368866065
B   12.20615208501174   14.49108002214186   10.22588221780277
B   13.17237703498431   13.43685308994775   9.28569223018068
B   10.41253973573930   9.65582475886676   11.51041451777674
B   15.39218456797384   10.61579453348745   11.34205064242096
B   12.89156261136009   11.78491946925111   8.98428227093988
B   12.11450457598800   9.75571112625586   11.47118991129648
B   12.21180419953888   14.59575859193077   11.94364005390299
B   7.61433709835828   12.62876280474694   12.40886983989923
N   14.90090788533231   8.29593217537499   13.83022987184903
H   15.87455116291264   8.57427626223788   13.98562436565449
H   14.48149738867816   8.07795739988866   14.73726412886547
H   14.91596906079399   7.44144083061611   13.26571882049491
35
F:    ...  E:  -0.00956633999999212
W   9.69500590940060   11.94839467807804   11.31741890340252
W   10.09931122108496   14.60865654713251   11.09969165578444
W   8.95775286772179   11.81439900641315   13.96939505402287
W   11.22233379257108   10.65435218706347   13.37605689184510
W   11.02480355823673   13.28094595607515   13.38148043791073
W   13.26776108108782   11.93341135575079   14.28169074656364
W   12.50883860567385   12.21999281859133   11.32085850570279
W   14.93103746305626   12.25587231483997   9.90011376393154
W   10.92558926815819   12.99951506886586   9.16066065076737
W   14.25901202766027   14.40694179272644   11.07730971321288
W   13.86281207655303   10.03581219893487   12.77918061346125
W   11.18695013738395   10.40478669635968   9.51945714462666
W   8.47686155784049   9.77923856540684   10.40287094520084
W   8.82950974110721   11.39062049562860   8.62930165330123
W   13.78048643882224   9.98539329175073   10.07803599445777
W   15.04123034485740   12.48215215900612   12.54661129373455
W   7.07702775358239   11.98036121131839   10.36210181049418
B   8.69090847110927   13.43722954543988   9.70041735828558
B   8.06267992934278   13.78325879693724   11.25816171236067
B   8.90134016831115   13.73063573357865   12.78748778500891
B   13.26835179567164   13.78449312536888   13.01449939380865
B   9.15971379126368   10.02435820981412   12.61500440460039
B   7.73302994852191   10.91784227154764   12.25745860141040
B   12.19426976657565   14.50095491849406   10.25067866411803
B   13.16568657666543   13.45351292157979   9.30658637347033
B   10.41061627299619   9.64593811343885   11.52109874387384
B   15.38582892380301   10.64081817689784   11.35561360819591
B   12.89783955978469   11.79969982628604   9.00182512163709
B   12.10588735456246   9.76277211549236   11.47955356452363
B   12.19486538427785   14.60177238035152   11.96941223973462
B   7.60496270743209   12.60020440418823   12.42883388209429
N   14.94816921575048   8.31380607465424   13.70261952977979
H   15.93146058536900   8.55876178336863   13.55123998187804
H   14.78077221341378   8.19745055714534   14.71041731612949
H   14.76705352248771   7.41540473361161   13.23661597280596
35
F:    ...  E:  0.188741730000004
W   9.68903895252398   11.94144549191811   11.33303078464206
W   10.09570213328925   14.59002945448838   11.11634191459222
W   8.94047617836174   11.80538373964512   13.98385563142795
W   11.21027321572843   10.67080435591432   13.39536678039466
W   11.01424653916274   13.29011562258682   13.39677102454691
W   13.25405785944208   11.94202529933640   14.31519056908641
W   12.50961816572914   12.22951439712025   11.33907866391751
W   14.93508959710098   12.24487311079609   9.95126554176758
W   10.93523965624430   12.99459870575640   9.17453757075354
W   14.26140001202869   14.40759388134299   11.10438063721125
W   13.81812507489888   10.04030671228650   12.80977399491852
W   11.19448839957003   10.40404156090147   9.53052795383752
W   8.47977093108778   9.75999442991683   10.41403557339744
W   8.84874456553453   11.36807935584295   8.63876275922862
W   13.77949201384748   9.98987102021345   10.10365233263242
W   15.03188248556366   12.46706815180513   12.57201626595032
W   7.08212740945327   11.94901209738798   10.36827435939897
B   8.69400233112324   13.41357755353454   9.70984030677973
B   8.05412741023778   13.75972648948575   11.26367016438768
B   8.88306879172607   13.71618292589321   12.80151194393557
B   13.26644763438394   13.78734488234245   13.03778781357178
B   9.15702727839778   10.01480760841940   12.63237586989903
B   7.72883129609908   10.89842711097225   12.27097828226976
B   12.19773948252953   14.50344239346154   10.26941582913395
B   13.17805534898432   13.45357592538735   9.33283750581142
B   10.40718426381814   9.64983257693709   11.53597977020196
B   15.38376427281540   10.59963413723395   11.40689459687448
B   12.91267788992345   11.80153740242299   9.02052691087214
B   12.09134664161842   9.77426287231965   11.49284927218673
B   12.19533929041398   14.59953408811355   11.98764539018427
B   7.59285285731661   12.58158500110770   12.43809501635404
N   14.94819877841363   8.32479433086744   13.59614606547620
H   15.75107953341578   8.73000897750375   13.12042881747363
H   15.03813592478855   8.29098564004918   14.63163347820285
H   14.79010781656482   7.35574272882659   13.25428064081617
35
F:    ...  E:  0.888230190000002
W   9.68587497912934   11.96611764390764   11.31807744112390
W   10.12036270723192   14.56379978219877   11.10770864718136
W   8.90571416876950   11.82712628090634   13.98419479477224
W   11.20398583872749   10.74958391050492   13.39256040115795
W   11.02081787267696   13.33620354067499   13.38617380994689
W   13.32207261166729   11.93028161553178   14.29999110430845
W   12.53931607576924   12.21456287302769   11.34125689387648
W   14.95115777005965   12.19130284958215   10.01752024448204
W   10.96940107957262   12.98567506720714   9.15234036617154
W   14.29838708945950   14.36402210766064   11.08997093707746
W   13.77363699376647   9.95994183059388   12.85764467455650
W   11.19593677667784   10.39877060201265   9.53973440923406
W   8.48311594033398   9.76714028667037   10.40232527843788
W   8.88637713805561   11.34731023983480   8.61197880720711
W   13.76360955823577   9.95525077152285   10.11521195999493
W   15.07056403779409   12.41597619202568   12.57284888219532
W   7.11788128883475   11.93598188161121   10.33839741414345
B   8.71990833147526   13.40823373633191   9.68422912231359
B   8.05916513884960   13.76718853185411   11.23614047270043
B   8.88005352212438   13.72050874187996   12.78839773492529
B   13.29664955337309   13.78442877987615   13.02949178657809
B   9.16381272029301   10.04302417772779   12.63354114651709
B   7.73286698961429   10.91168956307715   12.26487093929114
B   12.22600325449863   14.47833625572126   10.25121871508056
B   13.21789095447965   13.42432686173788   9.33880575497056
B   10.40581615362237   9.68067434421572   11.54985479489989
B   15.36377454368802   10.46314225617467   11.53832951862612
B   12.93950408146026   11.77359700292512   9.03062400739888
B   12.08587430916022   9.79737224714204   11.50407409757443
B   12.23513585900112   14.59107312575666   11.96954630503474
B   7.58704193775623   12.60246586802274   12.41942438880940
N   14.78622358694153   8.29713516426473   13.64577142872673
H   15.46222992263474   9.07400993932551   13.01918961593178
H   14.82696327617714   8.25187060305774   14.67468762135286
H   15.05263397022462   7.37163535757106   13.24362651553708
35
F:    ...  E:  -0.0538127000000372
W   9.69230374543079   11.95305451271040   11.32707993363424
W   10.10077744462844   14.55688628136334   11.12537341606401
W   8.90240140828602   11.81163115339144   13.99613395088388
W   11.21627601767736   10.74957220443328   13.39160235687027
W   11.01319503814469   13.32895260168059   13.39974816635488
W   13.32374766665648   11.90942205297172   14.28088305336383
W   12.53534364700661   12.20865337067732   11.35951955090732
W   14.94595224277300   12.19295169690121   10.03860441156001
W   10.96594098863005   12.99750452653656   9.16182440225507
W   14.28949096935590   14.37555786275433   11.10679479116855
W   13.83044774653964   9.86096266822435   12.92367277419454
W   11.19571053671081   10.39950032913664   9.55088716561836
W   8.49197917514929   9.75394737584358   10.41819823354868
W   8.89388965998903   11.33292750639686   8.62501590327644
W   13.75858419755557   9.98216716412084   10.12593073412512
W   15.06510515767546   12.42173698535256   12.57452299240786
W   7.11443727431712   11.92636018810006   10.35135636584549
B   8.71238520606119   13.39657754111852   9.69875693789062
B   8.04973859514285   13.75354295511173   11.25146186034640
B   8.87221829075852   13.70370670841528   12.80339525353869
B   13.29042153045070   13.79626765271790   13.04573840266151
B   9.17336511330549   10.02892154424507   12.64680469655596
B   7.73847569914476   10.89249930638643   12.27440670206838
B   12.21534934980241   14.47444074957405   10.26494841728531
B   13.21020325682751   13.44281477759155   9.34995475837074
B   10.42047248135813   9.66359885290438   11.55638133892150
B   15.42272741808879   10.40478978552462   11.63380745591577
B   12.94207401613428   11.79137885096978   9.03798153229770
B   12.11934610115124   9.80308869927344   11.52665333755988
B   12.21937033184078   14.59750065675397   11.98661531827551
B   7.58495657159093   12.58156984738699   12.43253856825950
N   14.54496916043707   8.19017461748214   13.73544779893198
H   15.61463231688777   9.41151183979779   12.43008712320841
H   14.90751570645288   8.24189744621058   14.69388909366207
H   14.97595597017673   7.41368972007669   13.22374323430804
35
F:    ...  E:  -0.401735270000017
W   9.69970266602332   11.97145725326916   11.30570045961639
W   10.13248572258258   14.57980383785435   11.08889917089295
W   8.91330009250540   11.85479548005690   13.96099426861934
W   11.22195768574516   10.73459478506470   13.37986047979424
W   11.02262627159700   13.33421972654690   13.36708015219844
W   13.31206341390426   11.86941170162670   14.26961494744496
W   12.54840769191983   12.16714650101279   11.35491181755976
W   14.94492319687059   12.14483989891332   10.03324974217265
W   10.98920708865337   12.98680223195680   9.15417092624788
W   14.31059990323862   14.34806881401996   11.09096172158175
W   13.88654447443443   9.81066354238547   12.94324342067200
W   11.19799466239942   10.37668003500925   9.54216685461105
W   8.48610334736981   9.78148399235845   10.39158063943370
W   8.91109109637935   11.34902493655030   8.60555929552388
W   13.74060798168887   9.91798346776831   10.15165460121060
W   15.07055005811304   12.44380379276082   12.59613456350264
W   7.12047436046677   11.97120136202130   10.31803196627154
B   8.73199369734600   13.42453449530225   9.66670022547473
B   8.07436338526307   13.79564623351001   11.21498911951513
B   8.88934118667938   13.74754336050825   12.76254448832708
B   13.29968313359873   13.77632609258353   13.02476431696736
B   9.16779249310678   10.06484305297769   12.62103484339874
B   7.73862497218277   10.93570488946698   12.23707162456888
B   12.25216593412331   14.45464493805773   10.23839182369340
B   13.23636197943853   13.39664873662339   9.33474002035118
B   10.41610096515942   9.67904288783590   11.53782261064390
B   15.41050986983086   10.46132161936742   11.57173862704762
B   12.95191836470232   11.73951459729020   9.03467872891059
B   12.12721824599456   9.77155708750167   11.56504500868955
B   12.24230669180222   14.58800304963891   11.95924454517063
B   7.59448154571296   12.62775320012014   12.39189038116307
N   14.38885069845279   8.09619249190900   13.84510644111512
H   15.86875131547777   9.76294731707114   12.51426773038111
H   14.46301757716964   7.99907500916561   14.86281661491611
H   14.98763826220195   7.38647961403035   13.41309785444824
35
F:    ...  E:  -0.627054410000028
W   9.69981554077346   11.95153507892886   11.32421803831774
W   10.12406185915336   14.56914045436941   11.11618900065291
W   8.92296101185399   11.83263754967320   13.97935569158700
W   11.23874413423147   10.70951509129655   13.38288426966094
W   11.02161978494586   13.30413640279609   13.38527147662902
W   13.32834015579807   11.86264224482191   14.26498726498761
W   12.54743646312900   12.16387020054716   11.35831164220764
W   14.92867789685397   12.18747712727494   9.99382530449996
W   10.96336243519274   12.99335985950431   9.17603937061727
W   14.29018285703441   14.36654458288203   11.09201989304315
W   13.92645899832572   9.85339113717970   12.91601452158080
W   11.18679155640560   10.36840927570533   9.55660412468698
W   8.48749806733682   9.76911948389326   10.41229215579320
W   8.90207583193338   11.34614258484063   8.62276652260753
W   13.73484211691975   9.93988822259319   10.11037715720283
W   15.07960292461931   12.46898445927394   12.56298589502940
W   7.11711084613793   11.95376856032600   10.34136567894288
B   8.71893489691881   13.41691713187496   9.68999186357849
B   8.07036983547865   13.78142601897737   11.23888742462357
B   8.88402951037182   13.72684080593687   12.78696176846422
B   13.29225970621038   13.76542761387254   13.03769456222545
B   9.17470629029152   10.04400508965373   12.63583659560133
B   7.74005277203319   10.91832277199238   12.26529595998457
B   12.22902884868927   14.46847217788395   10.25789236508330
B   13.20050372946854   13.41851633331675   9.33385170584053
B   10.42999262326570   9.65260824861709   11.55784557681669
B   15.42595163723839   10.51240219736395   11.49989314654669
B   12.91981851514391   11.76078612479867   9.03633863716544
B   12.14966864718533   9.75641835464686   11.55972528523613
B   12.23184258640933   14.58512216164968   11.98471239377608
B   7.59355908416864   12.60870162723422   12.41256587523897
N   14.45646804745124   8.20238598031629   13.89317188188631
H   15.91854685245157   9.58432251223591   12.17238371000397
H   14.31948425649839   8.00615945042191   14.88771808370081
H   15.09495971221639   7.50036311543683   13.50348518831687
35
F:    ...  E:  -0.718104970000013
W   9.70557343176721   11.93120561389374   11.34606303270735
W   10.10351434652388   14.56293256844887   11.14048568166989
W   8.93334559471274   11.80027188889374   14.00071342294012
W   11.24992260082758   10.68265541210877   13.40174532294168
W   11.01930566894365   13.27364658660521   13.40503505333530
W   13.32934501322702   11.87779067295458   14.28431443486052
W   12.54209459003379   12.17772625745035   11.36779130287913
W   14.92388678041161   12.22363079865647   9.97543782738648
W   10.94366228017676   12.99873052589217   9.20186045286654
W   14.26852369863506   14.39251978656474   11.11671282806736
W   13.93986882262555   9.90338438914145   12.90118219718194
W   11.20271677495336   10.36682789332973   9.56536936072574
W   8.50710031011701   9.74458927472618   10.43223160731115
W   8.89932769533673   11.33557275125694   8.64874603375839
W   13.74986528777804   9.97698905915018   10.11573404255333
W   15.07738723622977   12.48989833401045   12.55576568452450
W   7.11180005443884   11.92554481100181   10.37024939146204
B   8.70077701272126   13.40044564256207   9.71930126795328
B   8.05921586312201   13.75455372106553   11.27126918853548
B   8.87769075623437   13.69892331582108   12.81563208892210
B   13.29071840573265   13.77090910313122   13.05860334915436
B   9.18846057727346   10.01474211603669   12.65246178430306
B   7.75128858327975   10.88706350109754   12.28430829359741
B   12.20664625088211   14.48318185537460   10.28126400334639
B   13.18086899615746   13.43823463005166   9.35396543505523
B   10.44642916974775   9.63266325497625   11.57048579034663
B   15.46251082691714   10.57891443343208   11.45305683417834
B   12.91335244903587   11.78266964811638   9.03989289841641
B   12.15544360735803   9.75651531129473   11.56260449094017
B   12.21075068915402   14.58169560416702   12.01269289618002
B   7.59318529332679   12.57379148159488   12.43917374447668
N   14.52878227939473   8.29048570687094   13.88670142273069
H   15.80802001419119   9.41105590545452   11.77237423348851
H   14.38199717003409   8.09110927040300   14.87776780468619
H   15.08638190083572   7.53888890660139   13.46876682865352
35
F:    ...  E:  -0.777445230000012
W   9.70547241913420   11.92564649968907   11.36229256589150
W   10.09903047321960   14.54484306094617   11.16306245328668
W   8.92155131371367   11.77661040807643   14.01640734402238
W   11.24491517317818   10.68644764004920   13.40891863730531
W   11.00856979889372   13.27629102158110   13.42151606220115
W   13.32232901553419   11.88930320796534   14.31560852060063
W   12.54581460201776   12.19237605750529   11.37664554788685
W   14.93648004299444   12.25972162771806   9.97651159495420
W   10.94583735605138   12.99325763915634   9.20809518153724
W   14.27131708290732   14.39918698710196   11.14067830006287
W   13.92772756692727   9.94308701522188   12.92294934604853
W   11.21818235490379   10.36446067477335   9.57007610326897
W   8.51121929819595   9.71759489747946   10.44993502230080
W   8.91597205501526   11.31179814398057   8.66957278744140
W   13.79105250635505   9.99858349758767   10.16388012437217
W   15.07873775872129   12.48932443569787   12.56968983410953
W   7.11963450257295   11.89709851813734   10.37604724544481
B   8.70062215278850   13.38184859915661   9.73373137318361
B   8.05046676444139   13.73223895362213   11.28583467971215
B   8.86325679342951   13.67903124135095   12.83430252102578
B   13.28873143867466   13.76831925181931   13.08038337732596
B   9.19178015170323   10.00235966653744   12.66103717503741
B   7.74893383509321   10.86205829235368   12.29558500685537
B   12.20365894494334   14.48119161022449   10.30282638152725
B   13.17954327156441   13.43944544574840   9.36520409262255
B   10.45589180146529   9.63837300335176   11.57269866960686
B   15.49286324939413   10.61954894751285   11.43542519253339
B   12.92542533935958   11.78159819223230   9.05044977286478
B   12.15820926702959   9.77490260107133   11.57511437223704
B   12.20844067853315   14.57120670251291   12.03383899076464
B   7.58746895597222   12.54873158478273   12.45197812693492
N   14.56487365153502   8.34073953055897   13.88655244071501
H   15.67303123898325   9.36193077033753   11.35340121493013
H   14.46768651524000   8.15390587782036   14.88475150281800
H   15.02503266165244   7.54669842847831   13.43475847070474
35
F:    ...  E:  -0.824266410000007
W   9.71458357017166   11.91093310677559   11.38143635056931
W   10.08426800742654   14.54057597261428   11.18477373495279
W   8.93174900298273   11.75003281843352   14.03272085873218
W   11.24380352252716   10.67087094642172   13.42217058976327
W   11.00880379297241   13.26354799639892   13.43674645667187
W   13.31105883016082   11.89851216365721   14.33969670609284
W   12.55217327032787   12.19459774838028   11.38905769353428
W   14.94049592531447   12.29823915054821   9.96651106948498
W   10.93513167812102   12.99614809047547   9.22584124627485
W   14.26989455907357   14.40981749243951   11.16803241611089
W   13.93063154367886   9.97698852142953   12.93659771766891
W   11.22463858455180   10.36256331592523   9.57988303247451
W   8.52158470492265   9.69581740747011   10.46254853752248
W   8.91759181149714   11.29609246308415   8.69218904833609
W   13.81497049084745   10.03049073501825   10.17784093252881
W   15.08442138340995   12.48824062870295   12.55840738347371
W   7.11974350858809   11.87249146896468   10.39251070992405
B   8.69583011249673   13.36685321676089   9.75568636640416
B   8.04149446093316   13.70831576795040   11.30770771951621
B   8.86122674909562   13.66099570222501   12.85296908576858
B   13.28991990463908   13.76367019249591   13.09896420119337
B   9.20143745923893   9.97857291252115   12.66920127733071
B   7.75850880737740   10.83640207795537   12.30560128522090
B   12.19076299330903   14.48627030524854   10.33068875807313
B   13.16900210327115   13.45493182570946   9.38327674847241
B   10.46868310519186   9.61954409410056   11.58256317362195
B   15.50953955673329   10.62195299164744   11.38637320003310
B   12.91638313040816   11.79724931666458   9.05178351108378
B   12.16846567436410   9.78393784895240   11.58362730007973
B   12.19933027185420   14.56046585669668   12.05644202719067
B   7.59244829014609   12.52095440361346   12.47122336701732
N   14.57613255652210   8.37698449571857   13.89964486541064
H   15.65525664315806   9.41072050969396   10.95239267146788
H   14.47900458796014   8.17730405826378   14.89347043166164
H   14.97078943886267   7.56867442917794   13.42117955847451
