23
F:    ...  E:  0
W   14.03065093799179   11.89517642795637   14.01197788291978
W   13.91853351370988   14.20986161643305   12.67156275328708
W   11.62667833282808   15.03022552357166   12.83846904369231
W   14.05962246988483   12.70124800066373   10.46514616560815
W   10.32496279578265   14.14861052993280   10.79419311396454
W   11.75882085614243   11.62847088726325   15.06302679965632
W   15.04074180806989   10.32963423962037   11.79883588154188
W   10.23961167209925   11.00393096654626   10.46487643292274
W   15.81496386443060   12.49069129122171   12.29648030265743
W   10.29635546048769   13.35641139420104   14.28145461160317
W   11.87469673678856   12.32179337617258   12.22553087641423
W   12.81391209409919   9.90132023882818   13.00630064660151
W   10.21626648645729   10.37871524089650   13.21879384871811
W   11.80593862234060   12.92212832098228   9.36595233203825
W   11.01353518654088   8.86036840192994   11.43268566160415
W   12.83489774802927   10.47214577897265   10.49154545727817
W   9.12739822744905   12.33380662092445   12.20553986223188
B   12.49630897549168   13.53416123342899   14.27880280804849
B   12.52405846554146   14.30006769975491   10.90743962525233
N   18.08385672436696   12.77144650897121   12.38614341184305
H   18.47756767299291   12.83762958847291   11.44233064317388
H   18.34547358006986   13.62365777322909   12.89196228202174
H   18.52932723218172   11.97883817267813   12.85776291194487
23
F:    ...  E:  0.0267745600000069
W   13.95687771123032   11.89515566546103   14.06123447541613
W   13.87290231221040   14.20662580968377   12.72561385511788
W   11.57317786425556   15.02400530188723   12.84914638039741
W   14.05609392595232   12.70363073848435   10.51961915606957
W   10.31642315647360   14.13702072880422   10.77759639280784
W   11.66776867148944   11.61975574658483   15.07041009411972
W   15.01252130681257   10.33238714116783   11.86587180992874
W   10.23469426225357   10.99101866740262   10.44112620891121
W   15.78378541909315   12.48109221075465   12.36554710748370
W   10.21691436451495   13.35150815869589   14.26538227424204
W   11.83198910975934   12.31513514406096   12.23959110817978
W   12.76694935938056   9.89474573502151   13.02944438309356
W   10.16937498549907   10.35567743650383   13.19629697161306
W   11.82855130224377   12.91621023751721   9.37771101276070
W   10.99863578576675   8.84892307908519   11.41011891750275
W   12.83232831961240   10.47076653204525   10.51833820990917
W   9.09280129805465   12.31056301790548   12.16809809432147
B   12.41302012934341   13.53131380140571   14.30781989047797
B   12.50966127618015   14.30137511369374   10.93586060600331
N   18.07782480998796   12.52114106535109   12.32479662177495
H   18.38961998974574   12.20999191938125   11.39802244677858
H   18.50541246410824   13.43858308606760   12.43961431761350
H   18.43615403839928   11.89975458975682   13.06727266879808
23
F:    ...  E:  0.170335510000001
W   13.92387127277967   11.89367295104280   14.09333437845764
W   13.83973780702371   14.22800932075573   12.76264396015215
W   11.53784807938640   15.01031982291657   12.85022879126150
W   14.07450525243365   12.71817371783115   10.55696826650905
W   10.32438432484052   14.12109278442983   10.74581232022008
W   11.63468191579407   11.60197556369654   15.08035529976473
W   15.02268287095920   10.35311791472484   11.90186266385671
W   10.25637593747121   10.99144377422121   10.42746431000531
W   15.76514870889011   12.50987447947596   12.44317644490540
W   10.18953395814380   13.33457941094320   14.27079841760729
W   11.83694725916673   12.31116053841904   12.24331580892233
W   12.76404940469969   9.88853726251408   13.03156148231113
W   10.17551341371924   10.34374317879662   13.17724188435168
W   11.86042450844545   12.91400153674547   9.37002822869067
W   11.00696081073579   8.84468183798037   11.38491980335295
W   12.85408019153613   10.47857883242674   10.52477449294327
W   9.10579857651038   12.30944739753395   12.15041375489104
B   12.38019833720006   13.51783280708801   14.31844664737608
B   12.51439305555648   14.29886888113908   10.94309441524890
N   18.02031965106754   12.36052542421442   12.33543973848017
H   17.88210430273399   11.67296358152520   11.55969300604745
H   18.58506611648502   13.16252346761420   11.98531898154281
H   18.46750273159043   11.95670597343542   13.16662389620811
23
F:    ...  E:  0.917227190000006
W   13.99774013385847   11.90867564416625   14.05588823269654
W   13.87962158500254   14.24573342072709   12.73664461628652
W   11.57261046969121   14.99721028215733   12.83841813246258
W   14.11685510925134   12.75985768965468   10.55792475021240
W   10.32788107046473   14.09820919572253   10.73797867352129
W   11.71964724544259   11.59966187730475   15.07829478413286
W   15.14335803973287   10.36952636466692   11.81671582848446
W   10.28333409215611   10.98706400213243   10.44275718253809
W   15.95861212514154   12.54629371035793   12.39820479008209
W   10.26950520177424   13.33013007414754   14.30540431773971
W   11.88142231799257   12.32484870711292   12.22509827551741
W   12.83400184722410   9.91961912284577   12.98242072276010
W   10.24965290694319   10.33629745426167   13.18205343829877
W   11.89186087878466   12.93010399640776   9.35752837218310
W   11.04174324004017   8.84374702873057   11.37701980899009
W   12.90598422753986   10.50275577869423   10.51460395884716
W   9.15296049467680   12.31012023403393   12.17624926738182
B   12.44466053142433   13.52755077721143   14.29309546500262
B   12.52979562167254   14.31173139113583   10.90999139451937
N   17.98944398558246   12.78699782471049   12.87198399385670
H   17.13166822588133   11.60111319787661   11.33817753097152
H   18.53474237284097   13.22206541555997   12.11487862415114
H   18.45873130386304   11.88899648332426   13.02965770871928
23
F:    ...  E:  0.402182920000001
W   14.11719960455944   11.92843427381978   13.97648326183757
W   13.93354640031428   14.29005423718214   12.69450908018743
W   11.57855702861880   14.98560983573828   12.82465859535563
W   14.13133980843291   12.82565820515555   10.50092508873066
W   10.33829843126411   14.10606082522679   10.70667433120546
W   11.87708594500369   11.56808498168780   15.08208357795970
W   15.29465659981386   10.54640394533579   11.68478539330889
W   10.33020756261964   11.00949814551375   10.47125333217731
W   16.02357420976589   12.70712100524807   12.43033150632253
W   10.38664048087088   13.28928542722255   14.35480699678615
W   11.93952192986589   12.35179198871469   12.20797063919752
W   12.91778593962497   9.94177104695751   12.96229248045951
W   10.36086231447624   10.36369359815819   13.21084957351790
W   11.92764472801183   12.94096528445520   9.31965094308810
W   11.10106551960782   8.87022556422140   11.39680092052887
W   12.98333048706619   10.54167957704830   10.51153709134768
W   9.22538652348433   12.38365486590955   12.19754466607316
B   12.55460309178300   13.52451415606451   14.27154547340084
B   12.54403181804405   14.33533685482293   10.88967400626881
N   17.93771929674882   12.87153570021541   13.04723466521058
H   16.58954799526528   11.56311636629032   10.86274923794993
H   18.38903372562936   13.65473048356025   12.55000766544523
H   18.58610883735161   12.09692678793170   13.23135378786484
23
F:    ...  E:  0.0954489200000239
W   14.14979818016291   11.88332792131401   13.97987000061382
W   13.94178807864134   14.25457329076496   12.65652719828537
W   11.62974110227926   14.94164946797001   12.81906772675143
W   14.12039965210145   12.73337402772037   10.44101122419329
W   10.36179209023426   14.09152817162901   10.66442678808116
W   11.88536347355136   11.55406361952980   15.10654105461788
W   15.10050336913535   10.30454080718212   11.73230963629043
W   10.27465904326989   11.03113721484391   10.46219109753445
W   15.94160896310331   12.58868069107453   12.34172640080130
W   10.41823386921591   13.24297216555778   14.36138584628972
W   11.95373976701430   12.32637196097300   12.20858129344816
W   12.88052810187673   9.94514773494611   13.01245563068936
W   10.26272008169057   10.40321442146774   13.22449192928335
W   11.90544534343276   12.92449870428866   9.27830760991651
W   11.09685410993892   8.91900489648383   11.43054355358970
W   12.91436960152065   10.51126683779731   10.48328569267000
W   9.21809010813446   12.38922004524860   12.19704991199607
B   12.59325470523775   13.47972947792433   14.27270914980309
B   12.55340053575447   14.27301185550974   10.85848678020471
N   17.89222820811281   12.92515735261863   12.76615542774248
H   16.66066213680890   11.28138148249411   11.36805778708792
H   18.30648206123006   13.82211319102387   13.00479977059427
H   18.64828902241861   12.22882043819106   12.69445500066734
23
F:    ...  E:  0.0495338500000173
W   14.09425406352516   11.95585071780061   14.00383597101018
W   13.92111057371368   14.25884179287900   12.67049939101935
W   11.55942309562696   14.97944636968148   12.81339412081959
W   14.09647438710117   12.77765121674336   10.49200076028091
W   10.31524991814409   14.07807664873915   10.75737788292703
W   11.86598270766484   11.60901890649562   15.08993508406847
W   15.15022855768266   10.46926381444425   11.80730813789363
W   10.32758217148073   11.03439885374310   10.45727391337001
W   15.96094511741190   12.66660796840835   12.37569365447336
W   10.31115645724806   13.23695746847974   14.25919689924020
W   11.92657044746126   12.31968127267512   12.20077148502578
W   12.84096645755000   9.91944044956496   13.03023521087439
W   10.27302402821981   10.38346586247807   13.19314448813039
W   11.85343024167595   12.94452070975752   9.31774796980318
W   11.14057319776539   8.89343790401430   11.40626626131903
W   12.94768398487057   10.51016731809901   10.49186928752878
W   9.09214178861770   12.29902837320670   12.20952355963501
B   12.51093815443949   13.53315453587543   14.25939595385374
B   12.50649575905139   14.31669419954952   10.89600441256981
N   17.92873730512384   12.91603677615070   12.70725038548626
H   16.89913192264609   10.76950215029892   11.37337832885051
H   18.43654894582828   13.75563882200469   12.98638970926163
H   18.59399773986706   12.14592777699867   12.55658538353857
23
F:    ...  E:  -0.307322199999987
W   14.03276502080656   11.98682296334788   14.03826777190384
W   13.86928123777312   14.28216867768691   12.69331420549413
W   11.51828509694648   14.99956958335720   12.82883811100903
W   14.07412181052665   12.82215694902562   10.49812524558672
W   10.26502044561412   14.06938800078436   10.80065077811794
W   11.79482661501810   11.61503981013689   15.07509599893568
W   15.24353633813652   10.57092584806361   11.81679638360039
W   10.34437495210408   11.02258674605681   10.45139387411150
W   15.93116294231853   12.72977076548380   12.39364051396226
W   10.23399488262751   13.26865006592495   14.21759088182846
W   11.88954580480953   12.31373323928299   12.20941207185045
W   12.91154330365355   9.92698854573396   13.01928493340639
W   10.30105521722440   10.38185331737121   13.19726346876877
W   11.84266028194802   12.94038294545519   9.34196845594153
W   11.19627796382426   8.89393711437379   11.41806356631527
W   12.97017035350745   10.51984214010599   10.48989137381435
W   9.04171228558960   12.27799381543995   12.18525570483041
B   12.43712991603001   13.54762292060841   14.26560608986313
B   12.46564150303972   14.32645266400378   10.92097804732432
N   17.90807984017619   12.83246226423122   12.64114366204027
H   16.95058959271776   10.16976022395927   11.44778873880817
H   18.47499190586397   13.64068094501932   12.89051010388380
H   18.50944453065124   12.01301899114019   12.49358837685200
23
F:    ...  E:  -0.499285909999998
W   14.00574048091460   11.97104194492651   14.05449401233890
W   13.86397614304925   14.24704418821381   12.69703765991862
W   11.52296227977038   15.00387726136870   12.82937964496165
W   14.06873838759238   12.79813018430995   10.49601024581525
W   10.26184823259072   14.07343468262763   10.79729661780584
W   11.74359992449368   11.61883479529354   15.07377458721139
W   15.20874269454755   10.48875244732836   11.83727499551961
W   10.32776397594601   11.01771766689895   10.44444305113009
W   15.91390047365384   12.66344410094646   12.39005150134446
W   10.20583817728645   13.28658407513239   14.20944304702456
W   11.86431529558782   12.30870969213297   12.21571987722240
W   12.90268218755868   9.92592722533261   13.02485087968548
W   10.27847117616290   10.38353846295923   13.19861404408134
W   11.83923356982845   12.93476108467926   9.34732481738247
W   11.17860617036799   8.89404470050945   11.42261204847213
W   12.95318967385668   10.51091224794567   10.49242228602634
W   9.02894017370885   12.29204887385588   12.16803317596187
B   12.41124806937316   13.54271841363250   14.27166109018031
B   12.46561761576486   14.31571887807457   10.92445206742721
N   17.89301670546890   12.73722825023252   12.58578263010545
H   16.74627316152642   9.62240715445701   11.53203159594796
H   18.43974853014730   13.56290836880398   12.82472897666466
H   18.51260055383414   11.93178099258727   12.46316952350457
23
F:    ...  E:  -0.550257879999975
W   14.00309061217632   11.92696313688209   14.04269421992648
W   13.88292240398762   14.19819537430482   12.68506847588932
W   11.55755560622088   14.99940281366350   12.82366280861476
W   14.07050636429706   12.73768108607524   10.48690246360107
W   10.28252316832504   14.08476402817017   10.78536426105437
W   11.72378611129453   11.61256004760782   15.06776782677078
W   15.12814250815403   10.37257449749612   11.84489620314593
W   10.29531441096059   11.01579848163699   10.44233489288401
W   15.90248729759423   12.57038700018229   12.37345672229767
W   10.21779597505022   13.30184108702059   14.21900641576842
W   11.85562155177617   12.29809300583177   12.21506241461081
W   12.86045961461527   9.89981346372009   13.02242455759490
W   10.24066301727005   10.38766824958817   13.19950775602728
W   11.83682063794114   12.91657084970718   9.34625251885477
W   11.10097540073029   8.88686951421156   11.42388813040491
W   12.91029553231074   10.47756021731666   10.48948549559669
W   9.03526139129360   12.31620198515119   12.16604448674133
B   12.42570104577112   13.52477252855777   14.26888725075589
B   12.48866215379699   14.29086743644189   10.91587790302670
N   17.88353105983589   12.67612346386790   12.55824795247431
H   16.44285509703722   9.19387686460345   11.60134551839904
H   18.38398999325496   13.52951598062909   12.81434837486380
H   18.54509163841184   11.90425867514756   12.47458803963740
