38
F:    ...  E:  0
W   12.42645476245714   11.63051132528586   13.67518777518901
W   10.84270494222280   9.77032373051329   12.34056131485745
W   13.11334048282233   11.05206806333156   11.08526496311431
W   15.82638628337713   10.71314868924491   11.47405170785739
W   14.91865384966771   12.66207049616837   12.74369844084526
W   12.49768318176756   13.79327239484506   12.20181180089674
W   10.44167490306821   12.20059109951293   11.42080959542464
W   14.78253620199772   13.11374535059175   10.26620177685744
W   7.81452414362173   12.20105891287600   10.98850445762277
W   10.68632552365077   9.82788913451627   9.79128160384851
W   8.41750272846038   10.56523067931174   12.98523814964782
W   10.89482024278142   15.21265895865379   10.55062708595774
W   8.56843852549141   13.11091119523239   13.24374294479884
W   12.23867687134297   13.39910007481270   9.47631783976091
W   9.49949625274919   13.73317858961942   9.26664348490200
W   12.72980378961244   8.31791242927502   11.02905795586873
W   13.32163455700631   9.42345081325402   8.99606860215616
B   14.32117578178527   10.54605908658256   13.13922193110272
B   12.97830209714177   9.53753923568508   12.99296006826145
B   14.39301898638950   9.20123658730432   12.10619443261096
B   10.17035687173485   11.61682400096748   13.76456298274153
B   10.80286350786177   13.19290556260986   13.60050214114334
B   10.30400864924832   14.40354386127301   12.53365490305519
B   8.98443485933198   14.21603606243650   11.34480133411906
B   12.13565862001900   11.20604544168798   8.73567910802493
B   13.47832685305196   14.93215795116419   10.50237010451412
B   9.09358260432624   11.48167481003795   9.28019709397083
B   7.42123321287416   9.99519622563026   11.19980194607282
B   10.63090888196125   11.90179371846841   8.88746404665312
B   14.50887538420144   14.64935001334360   11.78251253210500
B   13.69312899522988   11.77338552708001   8.84309506416838
B   8.35137991560032   10.15611821070286   9.87516883119837
B   14.94046408543535   10.92749464291811   9.56007373694656
B   8.92996233508966   9.24655409667141   11.23694774889512
N   12.81746371087406   11.49871960460217   15.91344794109519
H   13.55901048082659   12.14703160326177   16.18274265622789
H   11.97952079198290   11.72399858742714   16.45553328052831
H   13.12080492457522   10.55435202473847   16.16313740859744
38
F:    ...  E:  0.0354472299999884
W   12.43011612037250   11.60101125668812   13.66902253060139
W   10.84948094426022   9.73708608988070   12.32133728490589
W   13.12463425085397   11.02416353486103   11.07698773257379
W   15.83801903618203   10.69196124004194   11.48066133344837
W   14.92607881069270   12.62990556486457   12.76345776535796
W   12.50542115172004   13.77275050899196   12.21516279931278
W   10.44957872987994   12.17858874115927   11.41979134225298
W   14.79962405170970   13.09211285324971   10.28361043297076
W   7.82805785977466   12.18798303245420   10.98096731620185
W   10.69926994844085   9.81667313461665   9.77362463116648
W   8.42350862358231   10.53281445952074   12.96976945830602
W   10.91441487512184   15.19917503725266   10.57096521359003
W   8.57350853289729   13.08179457238332   13.24785767640596
W   12.26053356709978   13.38661307328456   9.48650232024564
W   9.52395006345399   13.72862878754458   9.27106216913524
W   12.74705995487441   8.30018346466934   11.00405404906356
W   13.34144683945771   9.41267533808239   8.97133467106877
B   14.32222031352441   10.51422629536717   13.14063595775867
B   12.98034478152644   9.50594087112061   12.98108499980682
B   14.40334524015755   9.17535952261350   12.10135830222056
B   10.17033651352565   11.58446100318597   13.75693792187754
B   10.80717374019562   13.15898361333300   13.60578680406200
B   10.31370053074125   14.37707475495459   12.54438257366513
B   8.99763777570922   14.20280049168158   11.35494467473773
B   12.15598003267521   11.19836581807559   8.73052677125927
B   13.50054562686160   14.91149928201373   10.52619821175241
B   9.11626919850674   11.47645553779497   9.27910496815725
B   7.43301507053969   9.97888573392246   11.17825623151685
B   10.65168936952284   11.89716903271868   8.88274924919084
B   14.52334315774688   14.62088554829997   11.81352451632001
B   13.71309070056573   11.76642033737040   8.84565347086661
B   8.36783565077410   10.14826587821315   9.85999423710512
B   14.95526567404266   10.91119340344424   9.56031747371797
B   8.93878353101477   9.22334341694949   11.21501301089344
N   12.71729656516628   11.63909827169007   15.93829558373237
H   13.25239360127692   12.49377751714539   16.18287841082520
H   11.81403009179610   11.63283034780557   16.37071969708872
H   13.26613826539391   10.84398142439256   16.26060699847598
38
F:    ...  E:  0.0619383800000151
W   12.43019640290451   11.56559613472449   13.66445585127216
W   10.85463978528565   9.70409285605445   12.30594965601025
W   13.14081013881676   10.99523934720655   11.07476178423362
W   15.84391553859544   10.67224903227085   11.49396124097289
W   14.92661722799467   12.59692466775675   12.79039280545644
W   12.51289578431605   13.74699932467936   12.23031691552332
W   10.45981279763952   12.15662925693371   11.42228560381302
W   14.81612406481552   13.07442540098797   10.30765507610719
W   7.83884139955377   12.17677058210566   10.97517579383682
W   10.71229472014330   9.80649629140837   9.76462278303608
W   8.42466281204220   10.49959152861109   12.95528526981925
W   10.93442254093565   15.18552155378277   10.59696183352209
W   8.57644150421796   13.04932273066861   13.24959509188335
W   12.28102861010323   13.37699084501675   9.49758810494988
W   9.55114583903557   13.72448818869183   9.27747587081571
W   12.76333545939246   8.27738303466909   10.97953116361239
W   13.36460754870894   9.40581702516895   8.95786165199567
B   14.31992969430966   10.47512382251181   13.14966109667254
B   12.98034213851370   9.46916337836350   12.96914618293158
B   14.41361865721342   9.14439727440353   12.09905395781727
B   10.17072973983828   11.54477644788733   13.74311815367969
B   10.80884432146526   13.12075376833572   13.60819944263832
B   10.32096329666806   14.34909828168459   12.56105875509900
B   9.01372176890171   14.18417588228670   11.36462759312756
B   12.17716697328515   11.19149255059480   8.73577600181122
B   13.52577800666324   14.89371875176559   10.55368577003633
B   9.13513972976585   11.47461830779047   9.27779324464279
B   7.43922178969157   9.96748867670865   11.15732067298350
B   10.67357214914425   11.89115286714915   8.88734569297658
B   14.53816943582958   14.59224420900027   11.84882654178379
B   13.73534414609551   11.75908171572198   8.85149075393908
B   8.37873418695128   10.14362775068383   9.84322699770107
B   14.97733697758790   10.90066632651779   9.56145245102078
B   8.94397314589300   9.20604810785401   11.19188580147086
N   12.63108668438776   11.78483494842501   15.92946910894894
H   12.89202757906468   12.76117795964365   16.06275068696833
H   11.74139146735714   11.52740075535215   16.35411714341812
H   13.38625472850962   11.23955920822208   16.34125624511092
38
F:    ...  E:  0.201236470000026
W   12.42694044935720   11.51675453029786   13.66339301975018
W   10.85904361854600   9.66974982313431   12.30593875172460
W   13.15787165042505   10.96675977617198   11.08257034031241
W   15.84741036715035   10.67054542561336   11.51424633106068
W   14.91920958207449   12.57577573712150   12.82259457587245
W   12.52518073847724   13.72261948866517   12.24176716265868
W   10.47008785426355   12.13272139151640   11.43428500407860
W   14.83443559779935   13.05593436524391   10.33125305031460
W   7.85305805611245   12.17216906438878   10.98415551265805
W   10.72412881187681   9.80304638312516   9.76685790808865
W   8.42188309538137   10.47013865906132   12.95315488409259
W   10.95403188066198   15.17862785113550   10.62849043547257
W   8.58377443232405   13.02196324039999   13.26270727656601
W   12.29874298129798   13.37009701578851   9.51626888443478
W   9.57316727883576   13.72818675978282   9.29946893546438
W   12.79418203072933   8.26841635195069   10.96306156634342
W   13.38006283736980   9.40539535073329   8.94096628565964
B   14.32333458246443   10.44428423837332   13.16958133589200
B   12.98972124498372   9.43023744661409   12.97030727321817
B   14.43493484226318   9.12259100870540   12.11162785395660
B   10.16894574528636   11.50437610960337   13.74201309534740
B   10.81260712483006   13.07958384629652   13.61184882193233
B   10.33437395786568   14.32018919916582   12.58408326051244
B   9.03394233044482   14.17331687812846   11.38822799126041
B   12.19262681435736   11.19399245565994   8.75377496891703
B   13.55006501733187   14.87909459739143   10.58296903339633
B   9.15329436539201   11.47929779928817   9.28954126749943
B   7.44432635173109   9.96202771926372   11.14803200108482
B   10.69038814451201   11.89541740765401   8.89817985250447
B   14.55894334703235   14.56958989667512   11.87419258034048
B   13.75349813881463   11.75722948628873   8.86458463822008
B   8.39085657350523   10.14613113282246   9.84054358297682
B   14.99250241080238   10.88950132056840   9.56883393647950
B   8.94914546753050   9.19654520713094   11.18139575332192
N   12.55288181644882   11.84352634213461   15.88716509300110
H   12.48410800726617   12.87057711886145   15.66459851203860
H   11.75787932985485   11.48154533468889   16.43714860193801
H   13.44355191623827   11.66718303219511   16.35530941324746
38
F:    ...  E:  1.17353508000002
W   12.42457102700138   11.54003967764757   13.84458726691593
W   10.85481912191808   9.68733248363579   12.31581187127467
W   13.14184014381711   10.98661681446951   11.10746223494700
W   15.82691949898856   10.72440816083869   11.52817538830104
W   14.87501358067039   12.59092061809533   12.83634317679744
W   12.51555395320265   13.75459976176031   12.23434936120499
W   10.48366238239768   12.14020921325015   11.45571110683902
W   14.84777546718162   13.07328883486608   10.30588274050319
W   7.85374912778378   12.17440927961404   10.99808426265324
W   10.70585931177775   9.82340991884402   9.77679623060092
W   8.39484083051658   10.49236072392254   12.98392043722488
W   10.94478281690258   15.19577437342884   10.64539379164906
W   8.58231263701913   13.03563805491102   13.27772701043551
W   12.29337044198525   13.38301241039902   9.53589072663240
W   9.54785276418038   13.75050211220199   9.32405913074541
W   12.81623991285155   8.30096688639842   10.98959694133681
W   13.36929929511388   9.42768030153652   8.95195415478706
B   14.30665995662513   10.46759754803306   13.20687948233678
B   12.98518908748917   9.44590842621021   13.00152179520180
B   14.43128726605904   9.15425753792155   12.14961740060548
B   10.15927415819748   11.50816503761596   13.74843279453357
B   10.79453021848223   13.07402787091407   13.62188001653840
B   10.33487293857339   14.33823482371678   12.61083274133940
B   9.04403289937368   14.17397576845362   11.41436018201940
B   12.17746850023711   11.21691442710196   8.78032135016145
B   13.53969244279407   14.88883190571651   10.58036685231922
B   9.14572689530406   11.48580219054565   9.30396278456203
B   7.43793875654758   9.97409086911214   11.16764626146720
B   10.67856896743849   11.91744530249134   8.92682392620621
B   14.55670702179953   14.57767298819565   11.85706294582016
B   13.73643229985316   11.77486078465224   8.88337267321849
B   8.39439568966127   10.14017920445161   9.85395898526100
B   14.97227173021843   10.89997102229643   9.58319119925923
B   8.93814171121801   9.21974958183069   11.21266727743704
N   12.50663100866957   11.27899967930224   15.86531504033560
H   12.81015628598323   12.95236103488496   14.94175790787755
H   11.78225725677306   11.70673357062209   16.45840291842151
H   13.42444138703231   11.35818959175130   16.35501842386699
38
F:    ...  E:  0.547253570000009
W   12.43135679574670   11.54642982317817   13.97541503172071
W   10.87239384917238   9.72280954108520   12.34220915798830
W   13.11609707715612   11.07033299575894   11.16662134835439
W   15.81096969356826   10.80542584137327   11.57111882395976
W   14.83903993918985   12.64238918112372   12.88088616891385
W   12.52970432501534   13.70441140206425   12.19564391763137
W   10.46229032766633   12.17434376191420   11.41144776348765
W   14.88109030548815   13.07110955737471   10.24530482889717
W   7.86194195479386   12.15121284717093   10.99956393837756
W   10.73732795486932   9.84466400711771   9.80301133206024
W   8.37730389189987   10.52504101972183   13.00800330189668
W   10.89951569806959   15.19223731247851   10.60777612435025
W   8.62787769630779   13.06173299019436   13.29661917700202
W   12.28593949537216   13.40242987643907   9.47969155649834
W   9.52241139549266   13.74651202434273   9.29661423030453
W   12.83139780634663   8.33558409551270   11.03127486671798
W   13.34724663375193   9.43039384074244   8.97827438914422
B   14.28206547848118   10.52722392354614   13.25965494897659
B   12.97277668718970   9.50344940097130   13.04666952756488
B   14.41829785996967   9.22947778298658   12.18235568938959
B   10.17809507878803   11.51713070849630   13.70755129779333
B   10.83223700153141   13.08097428541649   13.63404370826141
B   10.35300328566882   14.31265259685348   12.57761202687271
B   9.03018369025001   14.18206333178583   11.40320706220260
B   12.17597766658115   11.24212895867681   8.79573438129841
B   13.52778069028189   14.86162971288909   10.55828940369351
B   9.14546390234533   11.46829844738374   9.28319847531366
B   7.44048097692133   9.96518314531584   11.17716680418429
B   10.66424014542045   11.92807148362416   8.86077028050280
B   14.56772758446953   14.56085295126499   11.81110004463884
B   13.73524315468109   11.78412964768587   8.88436991880528
B   8.39843690755746   10.12707607408385   9.86096348651503
B   14.92519665081643   10.87334561358121   9.63202659888373
B   8.95686832326480   9.25681150231058   11.24197110547804
N   12.50044278723424   11.09874229081793   15.92916160232146
H   12.73033153867036   13.33563456510428   14.54918508448506
H   12.05261577089266   11.69548014720652   16.61597337508632
H   13.31376877071614   10.65772210404596   16.33465801206528
38
F:    ...  E:  0.225806620000014
W   12.43897302179324   11.48368183578766   13.90879090018794
W   10.87265716381932   9.68676175207219   12.37768830537189
W   13.12680669068304   11.02904467028459   11.16785261908215
W   15.82986878420780   10.80798399892378   11.55166142260378
W   14.84766900819302   12.65457039880187   12.83043011373450
W   12.56572663445823   13.75601176550683   12.06379028448829
W   10.47599394275376   12.17092623504771   11.49793861011848
W   14.91545090766831   13.07147977890064   10.22458678462305
W   7.85272630802977   12.20310426220310   11.07120899428183
W   10.72475114808188   9.84752224688808   9.85400621503322
W   8.37951572466761   10.49630899328182   13.04432789081913
W   10.90781090689766   15.27312191308986   10.61338298565776
W   8.63284620592341   13.06341794682967   13.32155262523912
W   12.28958539370619   13.44050752337096   9.50534221501304
W   9.53321508238418   13.76114990300677   9.36402138130679
W   12.83848753855016   8.31895691114347   11.02782703400628
W   13.35069446541166   9.44049243437467   8.97605419051426
B   14.31206208210918   10.50773605910945   13.22988270255805
B   13.01042116718813   9.45316347754974   13.04891955502676
B   14.44026582231193   9.21384408303832   12.15984740790132
B   10.16534920793323   11.45364669437273   13.73756574715231
B   10.85132848970590   13.07387392381789   13.62052926873944
B   10.37402580585340   14.37548633714310   12.58396078822973
B   9.03794387877041   14.21207449395596   11.44649798041766
B   12.16290123769156   11.24260762471309   8.85834114227632
B   13.63114232102599   14.90947083095297   10.45227650595328
B   9.14262615443960   11.50911058155937   9.35837940797682
B   7.44049972610323   9.99929039436401   11.21991552334557
B   10.66640848517270   11.95027164479537   8.93548443935857
B   14.61053452866554   14.60474404072771   11.75738287307576
B   13.71946143135679   11.79621037791186   8.89675745995921
B   8.39864018630449   10.16883580314091   9.91906796004946
B   14.92558601346142   10.88642033323141   9.62433572092762
B   8.95512349316329   9.24771208709620   11.26446404635142
N   12.66933726154147   11.13092615902777   15.88138585236728
H   11.98475012448652   13.28450244483355   14.33686712827369
H   12.24920390244983   11.65314193647806   16.65340241183389
H   13.30474854467504   10.45702689430647   16.24941229778243
38
F:    ...  E:  0.157001330000014
W   12.48901234926395   11.49759769744668   13.90897009607005
W   10.87633325395898   9.67992265838786   12.36373750748651
W   13.15047266131150   11.02346417295909   11.14120344084654
W   15.83890389897130   10.74091212926583   11.50378609483480
W   14.91011752897277   12.61310718205628   12.81348591475695
W   12.57334325337668   13.67393377955278   12.07295488791563
W   10.45394003701718   12.18778554155780   11.46736545681789
W   14.90833665199777   13.07258366754976   10.22930827857462
W   7.82040798443939   12.17836901224232   11.04854846032731
W   10.73131341857890   9.84530202550270   9.86265535982469
W   8.40268081480497   10.46785530728012   13.03286731475903
W   10.96162250320389   15.21909841192376   10.65345194390902
W   8.63093577808644   13.01070172566214   13.30511440039481
W   12.31875237428022   13.43229358047525   9.49264547788164
W   9.54222387894857   13.76567229274282   9.35252246929109
W   12.82875722321231   8.30181459811554   11.01520221267010
W   13.36435431778793   9.44316608254194   8.97297057994378
B   14.34233993512239   10.48935942963242   13.19268564758109
B   13.01184266828975   9.47144626172294   13.03184551108938
B   14.42862169098148   9.17782324502508   12.14658100889999
B   10.19058879296252   11.43081950265252   13.68731359970173
B   10.86287507646999   13.07579707250168   13.66576746756656
B   10.37385910219394   14.33915464517983   12.57098292051841
B   9.04029255835634   14.17503371541274   11.43932288450701
B   12.16775465309415   11.23563864596067   8.81930601161286
B   13.61976227623813   14.90932902890949   10.50395536574316
B   9.13449044606708   11.52450695744683   9.35702452357796
B   7.44084825850089   9.97700283671183   11.20340021196125
B   10.67351211162339   11.94863545067360   8.95526274612927
B   14.59315710044998   14.56828268494753   11.80550716466813
B   13.72933508609536   11.78730748303141   8.87031959031470
B   8.39795620657241   10.17525006334515   9.90754625492870
B   14.96313258366205   10.90061957896736   9.57245791364545
B   8.96056776862113   9.22874977355423   11.22748383469374
N   12.75034545875153   11.26628103524625   15.86979855971735
H   11.54006209031908   13.33550095238331   14.67250113133061
H   12.28982511051141   11.87304375262259   16.54654407317590
H   13.32246188854379   10.59197681044890   16.35274247396886
38
F:    ...  E:  0.148672739999995
W   12.52707443185238   11.45850354134700   13.85563471361751
W   10.88485704857344   9.69034088089069   12.34192773634022
W   13.17477381549566   11.01742991198106   11.11624116077607
W   15.85550428280918   10.68762456230427   11.47642483031542
W   14.94151456856818   12.55931565661375   12.81053862571068
W   12.55729475984909   13.60854946902808   12.15231720855736
W   10.46367889324685   12.13620755806029   11.37806723302974
W   14.88998316079708   13.07152068334775   10.25549367864059
W   7.83286800327337   12.16288863746082   11.03435879176734
W   10.73889409803777   9.82544294767752   9.82250410290982
W   8.45482940791714   10.49005901279325   13.00049668904599
W   10.98618548416638   15.17674045739001   10.68187864575962
W   8.65896451923505   13.00580927893795   13.32060897671439
W   12.32992090209157   13.39739078328181   9.49088539207284
W   9.54042559974027   13.75500664148874   9.34444526269695
W   12.81191629112412   8.29354172181660   10.98496360884380
W   13.38005205938612   9.43716921650439   8.94622002434125
B   14.37956861598506   10.44092730876350   13.17852735971347
B   13.01882034846208   9.46275575047505   12.99480536270922
B   14.43534423155343   9.14516733022739   12.10481278053567
B   10.25386743162765   11.48514111830610   13.69625597360730
B   10.90305411950248   13.16441225587644   13.86993580084832
B   10.40518246309488   14.23734624597894   12.58372229176157
B   9.06690715044644   14.12702716896099   11.45623584775598
B   12.17465671405737   11.22305633891220   8.78209860424038
B   13.56521309856358   14.87930433853468   10.56826468455070
B   9.12655341690211   11.51338118915101   9.32296860817793
B   7.44817338896209   9.96683757164520   11.19421599475313
B   10.67566952147416   11.93535940334334   8.93774068948666
B   14.56896746392118   14.53832698711227   11.85088837734163
B   13.74159733116270   11.77873118939397   8.85833319624406
B   8.38869302174028   10.16699191163748   9.88305772747223
B   14.97978361412676   10.90052269737078   9.55441648711278
B   8.95922644485344   9.21794947354882   11.20087908223578
N   12.74547085819068   11.37415694493596   15.82643755445737
H   11.23343226398613   13.58577318321582   14.94916215561057
H   12.20228994601151   11.97374296132462   16.44988641517745
H   13.33393002085199   10.74468646200427   16.35948711670305
38
F:    ...  E:  0.0505184600000348
W   12.51803725412197   11.47765914901642   13.84473991579731
W   10.89619013238935   9.69259302631650   12.31980520233545
W   13.18935243472284   11.00337160772703   11.10722411995191
W   15.87809865763267   10.63838393026850   11.51190012829152
W   14.95627930649479   12.52405953865457   12.82867993458894
W   12.54484842951214   13.60643500743076   12.23284933413722
W   10.50599932033873   12.09815607534527   11.36152572986779
W   14.89237760290197   13.05454588983437   10.31063873613896
W   7.86316103807677   12.12006444033771   10.97148415842116
W   10.76527481261513   9.79233069572438   9.78083615986393
W   8.47598941226104   10.49623148237755   12.96920629026163
W   10.99173279279340   15.13890877878863   10.65895053488820
W   8.64633463141280   12.99829559600099   13.28271173915251
W   12.34681263457578   13.36695544021222   9.51113249444231
W   9.56633676543578   13.71911559721211   9.30628382920175
W   12.83208037523033   8.28046287935913   10.97494486159776
W   13.41696489591161   9.41352261064530   8.94011031000409
B   14.37938249708069   10.41768235004371   13.19285298058643
B   13.01559937489000   9.45783205159077   12.99448313681208
B   14.43790280876154   9.12420398509549   12.11585201102293
B   10.27426276676819   11.51651241886811   13.69645594674378
B   10.84906664777639   13.21693332262524   13.95658091820475
B   10.39436964166386   14.19889838251296   12.56982805582545
B   9.08071461488242   14.07900599896644   11.40844638964551
B   12.21470566668778   11.19594208499370   8.76187613157578
B   13.55044692771787   14.84822788746530   10.61520140092893
B   9.15712796090443   11.46410463526756   9.27310844542650
B   7.47527108116081   9.93563462783767   11.16100784904010
B   10.71132984967957   11.90148482512534   8.92799146915639
B   14.55691100668096   14.51829840093075   11.89792811172117
B   13.77881404830926   11.75770734477351   8.87782134488546
B   8.41498356677883   10.11964352391194   9.84052685573307
B   15.00858922171149   10.87509046890441   9.58768975786839
B   8.98862480391945   9.20377821076634   11.18066118684832
N   12.71516083306712   11.54075530986538   15.81019322917061
H   10.85567186782899   13.71059664366169   15.08057551016028
H   12.14580230834439   12.15509203713114   16.39468183897843
H   13.34453080059755   10.97662253604898   16.37835274236151
