35
F:    ...  E:  0
W   10.67080836702588   12.15078364956246   11.76327844665136
W   11.34292819570840   14.76707497028688   11.65413933486006
W   9.82812124502780   11.96839664165674   14.35885022320221
W   11.92492000824880   10.57554134664479   13.77677521319571
W   12.06645703473020   13.24946889990238   13.87883506827471
W   14.02885067085219   11.64092345014333   14.81230945339346
W   13.50118755689456   12.05615297515303   11.86224057735731
W   15.89813188695360   11.88854989496412   10.44360633747892
W   12.03229338101076   13.14188533019380   9.68294392709030
W   15.46353720538280   14.06941021054783   11.70106068055006
W   14.49783045404269   9.81220874772897   13.15150252202936
W   11.95580001060130   10.50304107789733   9.93061833212468
W   9.15131672975453   10.12324022718622   10.69852117000352
W   9.79761334860704   11.76133205971551   9.02529742820610
W   14.52020756515825   9.76131196152336   10.51124165156938
W   15.96687843447923   12.01060964841786   13.09022301600634
W   8.08948811007019   12.49016673307431   10.71802241370693
B   9.86123193536287   13.80626574968321   10.17518439511872
B   9.22665474520832   14.14388565765167   11.72972279892808
B   10.01158090342744   13.95055357710125   13.27510560922452
B   14.36577686496769   13.50101069512433   13.59080083460100
B   9.82752523984161   10.22271868294656   12.93145377014391
B   8.54784424579182   11.30599664609513   12.57347439770250
B   13.43204935238377   14.43501444205564   10.84187827160321
B   14.29554802734948   13.30597776006054   9.88884910245591
B   11.04093220563523   9.73696741066808   11.85346315484104
B   16.19738484863221   10.16493415243478   11.81509401344923
B   13.82627855411397   11.70122675916927   9.51505600780069
B   12.73573506617866   9.64291777416938   11.84180754022039
B   13.41370173147082   14.46814103157143   12.55648165617035
B   8.62117012896229   12.97883986805230   12.83303481400253
N   7.95581292246644   8.22924025620392   10.27426733374443
H   7.75542106580411   8.15741616709779   9.27236394376904
H   8.44209966601062   7.37204228739753   10.55690634929809
H   7.05664232398013   8.25651329005403   10.76535024336221
35
F:    ...  E:  0.0712530000000129
W   10.68513853431823   12.14090754518487   11.73296823275598
W   11.35146155748643   14.75701672848801   11.61643902364811
W   9.83440319046796   11.96180487212198   14.32885510826385
W   11.93780439652483   10.56719423561746   13.75794274467038
W   12.07585910885305   13.23431203238983   13.84674556862270
W   14.05413938819810   11.62977273552999   14.78349399424481
W   13.51415155197024   12.02942547240425   11.83890586663164
W   15.90663667708870   11.86047042261045   10.40765867505236
W   12.04724448749215   13.12408377582483   9.65176014730928
W   15.47432053630374   14.04230495497346   11.66500722596320
W   14.50862075572584   9.78810634210262   13.13637855847095
W   11.96298881803889   10.48559087234045   9.91789337846687
W   9.19683206175310   10.13531499494518   10.65017912613084
W   9.81662432508424   11.77335790325674   8.97226490612375
W   14.52379864583102   9.72772885820636   10.48875239971233
W   15.98250493235826   11.99738394919492   13.06836017225086
W   8.10873285042837   12.47959048756830   10.67433831113615
B   9.87497413972592   13.80103136024300   10.14390495228552
B   9.23694345348906   14.13419270642472   11.69775257716058
B   10.02270353457565   13.94284947742046   13.24184178064424
B   14.37464134480905   13.48645628008310   13.55617432061136
B   9.84352545747168   10.21477479386326   12.90695665169722
B   8.56483960434871   11.29425122289688   12.53673393754475
B   13.44388747423994   14.41121680803238   10.80763966996979
B   14.30628863478807   13.27796636932857   9.85449235196080
B   11.05604897794237   9.71484123271307   11.84001699616371
B   16.19406706069882   10.16097013814426   11.79338319964006
B   13.83456159264188   11.67245678669388   9.49077810777905
B   12.74949046771141   9.61929737719881   11.82887534302424
B   13.42174605065495   14.44895697687243   12.52010709871754
B   8.63254879592437   12.96747009742744   12.79502317202165
N   7.86937253900507   8.30212059931908   10.45447737898977
H   7.42691548643086   8.24655768879088   9.55238375026474
H   8.33394519723058   7.42526733513580   10.62404386067084
H   7.18199840252411   8.49471659878803   11.16723144353624
35
F:    ...  E:  0.348922469999991
W   10.68906852305313   12.13202644613316   11.72032919623445
W   11.35142829859697   14.73900978756563   11.57696437926084
W   9.85091776391605   11.98043101536638   14.32072267732890
W   11.95417884501592   10.56799499864912   13.74379888122474
W   12.07918735180277   13.23388147757300   13.82092789956066
W   14.09014507962612   11.58834973593505   14.75168144265808
W   13.52476630624198   11.98853802567617   11.82057604449749
W   15.91540556664857   11.87343119497689   10.35023304402128
W   12.05243160921523   13.10195948173088   9.62913376050781
W   15.49315533744383   13.98780521333314   11.63568573386895
W   14.50729896564490   9.74784071415634   13.12916334122657
W   11.95213301158783   10.45687761321389   9.90654014849177
W   9.24155920589632   10.12688550877177   10.63515859661197
W   9.83207849646799   11.71703290523496   8.93911751998819
W   14.49270223453451   9.67868787869932   10.44381192712949
W   16.00182059417971   11.99504190829447   13.05813297897423
W   8.13183581291632   12.43228676402431   10.65214730009396
B   9.87574618769501   13.75152759818983   10.10548444135436
B   9.24137350081947   14.11492493111089   11.65911216446234
B   10.03330313670710   13.94397809490152   13.20564921740193
B   14.37164054706116   13.46796092440220   13.53485144223764
B   9.85676053347567   10.21356128799589   12.90992601484948
B   8.56966921482377   11.28240728756589   12.54720660786244
B   13.44800335891393   14.37578433399610   10.78029313703250
B   14.29406902680007   13.24889453424717   9.81215631586828
B   11.06848999995860   9.69674349441356   11.85163432639928
B   16.12865243771347   10.22039727987564   11.75167005116087
B   13.83671930147530   11.63140440367715   9.46879333806339
B   12.75560031894594   9.59999405669817   11.81896086398830
B   13.42514593626954   14.43212836385806   12.49524915121871
B   8.63750270158929   12.96183877463756   12.77537508206119
N   7.86395054249190   8.39370775981982   10.52448581625802
H   7.13138330009332   8.31564455053778   9.84038513426038
H   8.19451501795864   7.45334190263722   10.76819300020306
H   7.45712196655262   8.89743978423633   11.36620905577465
35
F:    ...  E:  1.26192445999999
W   10.68027572796912   12.11544444919453   11.74319356905752
W   11.35228312783476   14.73835138160626   11.59718372150725
W   9.87234271897867   11.98685010347449   14.35912424395278
W   11.92590988240611   10.54701761681754   13.76065202514193
W   12.07643392981249   13.25195155278540   13.83607762754689
W   14.02866870901754   11.61042780290778   14.77782990870450
W   13.50479025229763   12.01401704717937   11.82074724168141
W   15.88994416318640   11.85274084349335   10.38293385764090
W   12.01771448278853   13.11506008830479   9.63164900121525
W   15.45805642592787   14.03928514895561   11.65326875983868
W   14.50193450755748   9.76593661838438   13.15604815955590
W   11.97091059858409   10.47828874332868   9.90308470890827
W   9.09316467132352   9.97896128673579   10.77569288108108
W   9.80652699770706   11.71290480133208   9.04647203536635
W   14.49310109690898   9.71496859985427   10.47646390597529
W   15.93624411533965   11.97982129209590   13.06777076733299
W   8.10087896957049   12.39722797297007   10.70409781798736
B   9.86457315351021   13.74739065777529   10.12903017524615
B   9.24320277117318   14.09994684807323   11.68023932297815
B   10.02784617915478   13.93813871980960   13.22726296985585
B   14.35768350803487   13.48196636119399   13.54212972992103
B   9.83949019640647   10.22008985185825   12.93077353337276
B   8.56216317233604   11.28160360842890   12.60472493050903
B   13.42907313348623   14.39681844134019   10.79460451620765
B   14.28714382350123   13.27116976684220   9.83677134102831
B   11.05439798413211   9.72839350289678   11.86452637889822
B   16.16606264618469   10.17687587507121   11.76680663974017
B   13.82444985679823   11.66910032899374   9.47295208232893
B   12.73711026464218   9.61510642740918   11.83338383147210
B   13.42209092885321   14.47148693151711   12.51356660137658
B   8.64592145432482   12.95727850692826   12.80405570181592
N   8.15615936910778   8.20084829191118   10.21683655405911
H   7.26353351582572   8.17152930795083   9.72585540999823
H   8.31550951960367   7.28272216591448   10.63692207345869
H   7.44416817784872   9.34003908880071   11.07702800737481
35
F:    ...  E:  0.263017120000029
W   10.64383206412786   12.10711479094709   11.76535679573371
W   11.36427208158762   14.69664850150262   11.58617065862706
W   9.87023095813406   12.01548401183667   14.39957796397874
W   11.90969527915614   10.61233318648745   13.74265196202290
W   12.07375657901972   13.29365753727622   13.86141906400466
W   14.08732296915988   11.58641360194605   14.76718065329497
W   13.51834137014538   12.01248200962876   11.83360654161719
W   15.90817283992217   11.87069478509157   10.37056326284517
W   12.02354818298044   13.08621626722864   9.63507569031171
W   15.47327006438226   14.03933694409085   11.65170746999631
W   14.47094522535117   9.77519171058193   13.14836128149648
W   11.93560000395810   10.46013661496036   9.87489193080673
W   8.94045593741507   9.87377254708281   10.88097556462329
W   9.74177662708156   11.65933549894606   9.09874885918533
W   14.47721485805121   9.71177579636166   10.46771612806031
W   15.96206128262813   11.99362979494508   13.04139600169482
W   8.06822846884996   12.32878143599572   10.74310326101562
B   9.87692188759569   13.66977318303198   10.14057466713635
B   9.22551157270360   14.07582804012801   11.67467746927767
B   10.00514950970242   13.95723627149720   13.22654170356984
B   14.36526489590388   13.47346322221235   13.56757937979779
B   9.82392908286668   10.22330490173781   12.97632739232939
B   8.58981882786610   11.30279077052839   12.68034355908483
B   13.44016751047841   14.39498905446724   10.79465045182928
B   14.28699432285422   13.25328546849618   9.85085177725457
B   11.00600425259798   9.71782323509376   11.86242513606235
B   16.13937185238171   10.18405443387228   11.76667302233385
B   13.82757952689991   11.65361611319918   9.47431731370281
B   12.70651421014058   9.64632693768333   11.81623973775717
B   13.42864531880081   14.44480072878367   12.51931458780353
B   8.63157895669928   12.96716832054194   12.83566792907502
N   8.35061971051262   8.15070928360021   9.99709019914042
H   7.39785957964462   8.09272838298131   9.62960554738929
H   8.53595346018564   7.20874128461889   10.36942216998995
H   7.24315076234963   9.81011536475252   11.29895489928682
35
F:    ...  E:  0.0562119500000335
W   10.64705377753015   12.08635825315079   11.73606669798455
W   11.34712216553716   14.66338952220736   11.57235771072112
W   9.86899583267918   12.00494152222622   14.38756185268653
W   11.92741869658864   10.58031430200263   13.73222842157884
W   12.05832997999853   13.21377581849925   13.83761592470245
W   14.11469265885002   11.58115350396404   14.75224171599257
W   13.48767575837215   11.99772228732773   11.81161428544755
W   15.89379478227815   11.85301279434443   10.32254381149893
W   12.02240656030739   13.09729936029194   9.60434183297185
W   15.46078850093249   14.00536110348998   11.63896779941413
W   14.49645858950312   9.74220865193737   13.15916336781696
W   11.95061212907833   10.47683223919567   9.91713095438167
W   9.01577393789885   9.86098154124296   10.85027929686275
W   9.75522428100767   11.65653586591846   9.06388428793515
W   14.47628493127792   9.68717848156254   10.42660609371480
W   15.97049381876571   11.99192762283479   13.07874815803911
W   8.10494019550305   12.25315489749748   10.69619995774298
B   9.86276727212988   13.67016569495255   10.09620317316118
B   9.21219748971802   14.06519770359698   11.64262671708571
B   9.99019667467919   13.91001911708117   13.21864413753406
B   14.34823831241569   13.45439195281696   13.54826358809133
B   9.85460133028700   10.16894612351300   12.99078143947896
B   8.62869220625178   11.26686284210186   12.69888112190826
B   13.42853643941705   14.36612803751021   10.79307408649813
B   14.27993519338064   13.25855796985871   9.82007025393551
B   11.03057152717049   9.70559370062267   11.85708018382133
B   16.09194960469978   10.23004679528514   11.74964790095948
B   13.82783543253981   11.65035617427681   9.46384876816465
B   12.74266165053727   9.60837496505144   11.81971280078466
B   13.41849991815922   14.43117300357162   12.50434531752801
B   8.60420545118826   12.94787401279449   12.80307465316658
N   8.20506991837829   8.19322517076785   10.11895671622611
H   7.26963093074070   8.11112490392129   9.71057760446252
H   8.52758989900086   7.22856018432555   10.28653767467587
H   7.42851418533168   10.33101391239378   11.63988172516128
35
F:    ...  E:  0.0124004900000045
W   10.64644911074660   12.07624052036797   11.70791768504036
W   11.29969500090858   14.67779998540326   11.60266286917843
W   9.83578940866061   11.89761560921190   14.33235545885644
W   11.94733637804033   10.54345372287495   13.75076062457584
W   12.04325527517054   13.21481967755053   13.80806305837281
W   14.03964131783253   11.58868867833021   14.76977843574902
W   13.50992925854023   12.01525713575957   11.80791899705856
W   15.89329158594483   11.86312876446433   10.41626683450039
W   12.01266449398799   13.07289214013924   9.66095594310099
W   15.43790984177944   14.03850380076377   11.63830760552814
W   14.50881194630765   9.74224560086527   13.13468859278483
W   11.98710309269594   10.44597355590743   9.87064159259404
W   9.15751176667209   9.86217560570001   10.71913742639181
W   9.77100394100360   11.63641362084652   9.00999102107196
W   14.51390901744865   9.71775336109671   10.44427909363076
W   15.93497783488195   11.95910753840939   13.04732770188748
W   8.11487052404853   12.31597083500373   10.64272442055736
B   9.83090559872010   13.68326854778833   10.09339301620412
B   9.19079351733273   14.01892974895752   11.65571284750204
B   9.96770406719449   13.83982865775981   13.21778838030374
B   14.33966032182173   13.47278349273661   13.54526463213713
B   9.87423187851743   10.17932502833966   12.90376484807590
B   8.49285115864435   11.16065733410993   12.57389938915419
B   13.41358126733160   14.40037729927576   10.78100515835433
B   14.28353504842928   13.27265219032319   9.82623980492541
B   11.08544004769400   9.72944165943781   11.80434295126073
B   16.16314161732644   10.09629037800726   11.77400746779595
B   13.84183599460228   11.66166481813442   9.44423313257295
B   12.77077179827227   9.64705839623467   11.80156788216790
B   13.39693043407618   14.43560639156797   12.49967927648979
B   8.59308534067482   12.88833458047880   12.77944295873118
N   8.18881841631553   8.21941605538278   10.17292361506041
H   7.30953425274301   8.19446769091354   9.65203133596412
H   8.47987752399787   7.25283598841366   10.34705815778483
H   7.47291195377035   10.52878162157911   12.11362781677150
35
F:    ...  E:  -0.028649200000018
W   10.70409717428676   12.09988715565639   11.66707067201177
W   11.32039424894235   14.66782964236850   11.58059593032185
W   9.78497565388919   11.89086586716362   14.29957837022441
W   11.94133342355549   10.56364696060722   13.69363642504603
W   12.02744804667585   13.18379288566071   13.82759348042462
W   14.07953326530313   11.59547681200416   14.77010621573178
W   13.51783427768021   12.01888824481634   11.79499363797231
W   15.91828655603318   11.83745018186164   10.34562096501089
W   12.06297129645841   13.12817910046756   9.59889877014246
W   15.46068556528167   13.99824524950830   11.66373836612521
W   14.50986540927875   9.75535304268829   13.15424335935459
W   12.00222129888997   10.46749224807561   9.85604075775617
W   9.19347919756394   9.89100562159672   10.66367584791521
W   9.83555332008057   11.64144024747441   8.97842623086908
W   14.51964113302061   9.71074967142897   10.41978910950207
W   15.96196114202704   11.97503514975974   13.07394885734357
W   8.13199607011839   12.33104056493088   10.57646227108961
B   9.85549825765467   13.69454513403521   10.07207615309723
B   9.21821951962589   14.00754344866814   11.63826083465140
B   9.93670169577623   13.79028453765514   13.20671662001083
B   14.34076963705215   13.46505878903148   13.56554926088615
B   9.83950176372360   10.18389476605394   12.84535462271627
B   8.36704256213362   11.06663860103367   12.63288706143032
B   13.44595593419827   14.38834121310748   10.79435808525254
B   14.31726427011697   13.27598317620968   9.81705193231286
B   11.08993194400172   9.75715092314307   11.79114890818928
B   16.13604102080281   10.17696588752517   11.76014707584720
B   13.85249473650303   11.67501598989960   9.44182773350188
B   12.78999074239526   9.61080676878457   11.78821343271720
B   13.40248600730908   14.41678732245521   12.51337815912687
B   8.58600925011874   12.79159966485881   12.68753295482985
N   8.16324870035323   8.26977061079905   10.19564468017011
H   7.29768609599446   8.24158549423557   9.65381972929311
H   8.46621640881143   7.31508775646680   10.39612464734243
H   7.27242440647797   10.46632130210411   12.58524887391862
35
F:    ...  E:  -0.185373379999987
W   10.70694804298286   12.11094466455092   11.63520963272012
W   11.36083815664652   14.62539942545024   11.57426985317243
W   9.78960785164665   11.89905828211239   14.28665517602142
W   11.94250014836430   10.58741369633264   13.68550370007215
W   12.04436702976041   13.22074345809360   13.78757545327938
W   14.13354766859615   11.56876605757306   14.70991300015444
W   13.55199716995100   11.98608002434083   11.78710158148414
W   15.93124199517509   11.83305870283188   10.30901325504737
W   12.08272875129038   13.12496701645566   9.53240800261899
W   15.50151414520535   13.98746489152614   11.62032083931907
W   14.49159929218232   9.70377552570958   13.13383023599252
W   11.97791623392649   10.46953132402985   9.86142899619916
W   9.11058217030434   9.90476913769712   10.73857997000869
W   9.92875981740930   11.76579731733478   8.89280832399184
W   14.50190481501990   9.67886897229078   10.40616122146917
W   16.00154869137575   11.97483002760939   13.08494047393735
W   8.19199121320033   12.21667137755711   10.55882257453640
B   9.89713957577095   13.71431200358987   10.04882508409034
B   9.20544430319273   13.98587512838368   11.59565301409231
B   9.94101789789038   13.81734609470895   13.16232096099142
B   14.35802682229042   13.46614579005732   13.53210426658726
B   9.83863759214327   10.23247886140510   12.86140334608302
B   8.27049833941467   11.03161728022797   12.69911139735501
B   13.47423273751722   14.37774857055588   10.75617485821764
B   14.33215704644591   13.23596818982127   9.80538902617276
B   11.05763268201484   9.76924073326659   11.77662316696709
B   16.08845387589662   10.22428819144950   11.77589077031000
B   13.85943314984225   11.64061416539128   9.43708959157857
B   12.76096543566025   9.58875322171631   11.78234298896063
B   13.45080082192264   14.41688063901362   12.46941368437986
B   8.61759120795917   12.78593029791907   12.67594631279224
N   8.09893188091997   8.29317575015622   10.22378887628377
H   7.18768954681970   8.25153394578445   9.76809685410087
H   8.45581262724517   7.34804527294738   10.36571703649857
H   7.20570129614661   10.51166599424536   13.00932650664844
35
F:    ...  E:  -0.302280119999978
W   10.71227332732830   12.10111627166689   11.62638758643522
W   11.39854062090575   14.61390484409255   11.51200986672003
W   9.81823791649668   11.95125932115705   14.28832783824645
W   11.93141671743543   10.58125352475269   13.69789862257158
W   12.08657764729354   13.22470842462744   13.75072025603012
W   14.14749068228283   11.55619183059777   14.67770837414878
W   13.55340899420148   11.96274593087731   11.75863933677041
W   15.92379918856301   11.81183106731604   10.28755978474213
W   12.08550485379232   13.10598219856497   9.49248606063067
W   15.52531619607259   13.95784454036688   11.56048877849286
W   14.47804526248378   9.69284987157319   13.11361219689760
W   11.94992155780510   10.44960608891837   9.88230714958559
W   9.05753351418497   9.91103360561967   10.79067113775186
W   9.90973673447441   11.72841143111694   8.90186858799674
W   14.46601395463207   9.63905542411512   10.39887634576928
W   16.01522416728688   11.94031084020995   13.05339161762432
W   8.19488606462194   12.22643531139470   10.58382566162183
B   9.91591827391400   13.69780081136441   10.01785271240096
B   9.23865517187438   14.00962881538954   11.56202088674280
B   9.99697558343623   13.85011345617268   13.12608204942352
B   14.39300657780762   13.44702343412095   13.47711115019835
B   9.82233132135747   10.26316067185106   12.89157008685875
B   8.25405609576057   11.10264773018829   12.77322960278667
B   13.49602465407564   14.35294777277193   10.69018972252313
B   14.34377542052182   13.21172813583084   9.73605443207236
B   11.02129562327309   9.75331311469809   11.79381504468636
B   16.07860687671763   10.18387037043829   11.74076548497881
B   13.85615023734992   11.60524264360105   9.41467769165348
B   12.72252866664417   9.57344664765934   11.79155735746684
B   13.48127185599468   14.39220567459287   12.41024530409377
B   8.65148625269179   12.84296313714116   12.67599538045096
N   8.04271308610281   8.29944243612153   10.27265009653048
H   7.07482065027395   8.24363767442819   9.95635514122067
H   8.45120461846122   7.36206381648278   10.29168724349919
H   7.25501166601783   10.70398316231577   13.35112144251385
