35
F:    ...  E:  0
W   10.55478461553025   11.62608624660113   10.92243202027500
W   11.09990156061843   14.25876862560147   10.77145716659049
W   9.58725822532652   11.51378819512037   13.54587567424788
W   11.85310217006406   10.24640267600761   13.12273072739990
W   11.78166353365838   12.87201592061205   13.10201821379481
W   13.85497393644594   11.41476439408247   14.19486452190936
W   13.41300477696419   11.70475855970922   11.21197310230804
W   15.89311524316536   11.66034177568323   9.95518182333128
W   12.01101871008350   12.60254425286471   8.91430239923101
W   15.25398822632099   13.81561518209762   11.07042222880804
W   14.48307429802153   9.52907441862940   12.62326765556209
W   12.08393394546225   9.97144363393675   9.25064783629810
W   9.28727866275099   9.48738915449985   9.90971270988391
W   9.91724734065410   11.01880970271896   8.17729852059183
W   14.61647055266543   9.41180887090343   9.99992515567789
W   15.81719800726278   11.81967341506446   12.53174862804008
W   8.08544776935203   11.75046541361259   9.76364261863012
B   9.76942894278794   13.14824039458103   9.24913048838212
B   9.02758501095208   13.52354740637760   10.75867915268072
B   9.74612259175698   13.42532874756514   12.35578707117670
B   14.09820118020549   13.24201926627068   12.92768084000955
B   9.81258320517998   9.74324158116895   12.19581271648726
B   8.46670705893970   10.69498126180520   11.72181388941231
B   13.25245830363705   14.02353033533019   10.09264116623433
B   14.23485176761110   12.92498111457581   9.22650427422071
B   11.11265927129547   9.29119372181836   11.19709937172100
B   16.19763033728342   9.90410743910143   11.35396889904850
B   13.90978017328162   11.27820489395327   8.89952000850323
B   12.78829046181073   9.28766226212349   11.25932686183997
B   13.13024263198331   14.10073398701447   11.80555260576001
B   8.41325614004892   12.37718554561989   11.90083528969826
N   8.56253295293955   11.43125953821039   15.57963132152324
H   9.13652028840093   11.93066854512886   16.26569499901515
H   7.62795328757594   11.85358929745305   15.58503045074035
H   8.46949485209930   10.46553425629345   15.90754962310268
35
F:    ...  E:  0.0450591000000031
W   10.57569110372768   11.63315002647764   10.92690969769397
W   11.11484889170154   14.27457235047302   10.78824221993809
W   9.61658605814615   11.50597965056216   13.54797474500782
W   11.86720409949459   10.23828821873391   13.12828090654585
W   11.79789498876405   12.88196492421639   13.11512651650048
W   13.84734932495794   11.42058965787506   14.21997353633485
W   13.42673858374203   11.71275311206564   11.23578769496785
W   15.90863688916327   11.66887106169406   9.99123258048163
W   12.02932480623407   12.61608329518296   8.93515552120164
W   15.26712027313703   13.82620947500113   11.10223297274348
W   14.48477341280820   9.53617580521009   12.64688349480654
W   12.10415145234057   9.97934324381558   9.25833317941627
W   9.30502218559146   9.49582284755163   9.90789521038360
W   9.93364863529261   11.03824314179115   8.18530569984471
W   14.63716684397671   9.42205342615785   10.01914873047069
W   15.82128776548816   11.82459639468853   12.56458290923036
W   8.10063994755151   11.76638870642759   9.76991240824229
B   9.78622819052081   13.16460149289611   9.26429702459875
B   9.04432905867139   13.53597311698949   10.77530692659163
B   9.76413153994506   13.43261229770861   12.36779451112084
B   14.10695270543755   13.25146838270797   12.95269430929603
B   9.82866013795626   9.74015941515655   12.18788298357893
B   8.48717738028638   10.69950669903477   11.71540554578313
B   13.26858813733022   14.03682233003259   10.11695636762234
B   14.25318056589248   12.93629140839861   9.25627539099869
B   11.12991670145878   9.29090522305045   11.19572251709415
B   16.20689062364170   9.90725229263821   11.38922234606674
B   13.92638673219915   11.29067979438235   8.92440138697689
B   12.80405975041832   9.28630775429600   11.26414076288244
B   13.14136046872675   14.11600658832313   11.82976913803658
B   8.43277956682327   12.38138817378486   11.90751978164599
N   8.47869971589427   11.37479676173977   15.47205303401572
H   8.82361088675180   12.05822218172087   16.18027659611392
H   7.48495695811491   11.57138986872675   15.29328399901247
H   8.54376564994968   10.43429091262427   15.91377938689084
35
F:    ...  E:  0.122857329999988
W   10.59196152849697   11.64574314195069   10.93706692817820
W   11.13030369304369   14.28980582884704   10.80776968425741
W   9.65231741376281   11.51565658443779   13.54640150608210
W   11.88145895569493   10.24021982420468   13.14119911856447
W   11.81227987244764   12.90030544334016   13.13115948237769
W   13.84589103405564   11.42604464665111   14.24736580522859
W   13.43910544770128   11.72325187306300   11.26204562914503
W   15.92526665474492   11.67756194508556   10.02830786057746
W   12.04978038733719   12.63107302940681   8.95713501426900
W   15.28177750124423   13.83542640320831   11.13826841486787
W   14.48851403012470   9.54215053630212   12.67274462884589
W   12.12378012121968   9.99156887585074   9.27466546994360
W   9.32182634425684   9.50695772701078   9.91454721864560
W   9.95007970290370   11.05637502012157   8.19839303926761
W   14.65186414169245   9.43223000266663   10.04313241571918
W   15.82801145236538   11.82833181470313   12.59948875644183
W   8.11280555873135   11.78624117400603   9.77493250866851
B   9.80222805226846   13.18072520800566   9.27991465865099
B   9.05798978013550   13.55217510071068   10.79045213851114
B   9.77604678840999   13.44619835743806   12.38028573005476
B   14.11655360358789   13.25880440444680   12.98198628625144
B   9.83901399019645   9.74784994901898   12.19016446470373
B   8.50386056341759   10.71121230289882   11.71267137297311
B   13.28635995924339   14.05032327636710   10.14544411529976
B   14.27291163487490   12.94959093625887   9.28943322784019
B   11.14307755503176   9.29916194821703   11.20528076103506
B   16.21452381053496   9.91108623953470   11.42326681386126
B   13.94654864028439   11.30464187168811   8.95336448992633
B   12.81612465600664   9.29405809496236   11.27906263534659
B   13.15508306340446   14.13067992268307   11.85678102608429
B   8.44491289354373   12.39182548643320   11.91623523965456
N   8.39345060121427   11.29956965938850   15.39410970536674
H   8.42062336093396   12.09766627641120   16.01411274861523
H   7.49362676010194   11.23639088721583   14.94507824215997
H   8.57980047912288   10.45885623960011   15.91749289472074
35
F:    ...  E:  0.66824280000003
W   10.57303187024267   11.66336048418848   10.94985989018076
W   11.13022774057243   14.28316005393788   10.84000347082848
W   9.66669910234247   11.54200991680006   13.53613612295890
W   11.88184462329582   10.25947130937827   13.16725508416374
W   11.79558932256945   12.92772971216607   13.15025371482532
W   13.84734402714422   11.42186783666873   14.28079128002004
W   13.43209777007618   11.73604229567644   11.29712659605097
W   15.93263906812653   11.68094464816890   10.07390922610007
W   12.06643751642324   12.64321511727154   8.98173860581571
W   15.28331535624953   13.83689462635507   11.19035208641814
W   14.48443903251042   9.53531477091846   12.71421792476195
W   12.13665107055069   10.01322049004234   9.31407219723072
W   9.33111221235273   9.51836172690402   9.92096191862161
W   9.95663004386843   11.07181303624741   8.21472997441132
W   14.63818552951002   9.43884973352885   10.08741293291753
W   15.82640171095114   11.83167173224045   12.64032877120698
W   8.10007032698492   11.81860620652374   9.74484773890953
B   9.80217225573767   13.18819122727871   9.29223226206756
B   9.04179374021082   13.56408530234587   10.79584438876163
B   9.73149785665778   13.45097255022193   12.38867475347505
B   14.10683698489120   13.25707438365830   13.02907963341951
B   9.81116376325184   9.76968061391295   12.19529167703646
B   8.48493146658981   10.72341068767719   11.68258395414088
B   13.29664003661986   14.05872885125881   10.18725343694271
B   14.28517428754669   12.96084213736253   9.32951005899370
B   11.13117159783537   9.32762106729731   11.23667211913558
B   16.20385787537384   9.91737780345850   11.46827109089637
B   13.96890029061319   11.31852540166261   8.99051084131396
B   12.80469898529568   9.32269232588733   11.32343869287971
B   13.15529180431063   14.12897820379328   11.89472974931050
B   8.40002852823763   12.39598477675925   11.90035993602527
N   8.48339801998666   11.24086328006866   15.31025083047485
H   8.12753371136119   12.05397743165410   15.80950770641209
H   7.88162580081528   11.01694579347448   14.48502283123710
H   8.55032670303027   10.43127449734670   15.92652853419122
35
F:    ...  E:  1.07216222
W   10.55043539384083   11.66123452845041   10.96862765157607
W   11.11215524860349   14.22788604323959   10.82504116964830
W   9.42561220228025   11.47954437760938   13.66608376976644
W   11.88090977947806   10.26724611377815   13.16186953770365
W   11.77067081126917   12.91100054163317   13.13670709569587
W   13.83208921984628   11.40184589436660   14.24533560845021
W   13.41299521438277   11.70732446712246   11.26941093408859
W   15.91705534174774   11.66702886400355   10.02684067863885
W   12.04254189613349   12.61799192323172   8.96141114360465
W   15.26213370253938   13.84104682502955   11.14666102494400
W   14.48372506477312   9.52623036537938   12.68893016263036
W   12.12789570381856   9.99729154151063   9.30251020478080
W   9.32277287444268   9.50785015402667   9.92266696415395
W   9.91202171163615   11.06516413868697   8.21889454333686
W   14.61582063084763   9.42775589366436   10.04929934024548
W   15.81155400017857   11.83480734682828   12.58170570141630
W   8.05500445297504   11.80814518725779   9.72617616438281
B   9.76696834043348   13.15673823809516   9.28034489387240
B   9.02766542691651   13.54526390314923   10.79129893894833
B   9.68288431701080   13.37522435226116   12.41798488695834
B   14.08871563934322   13.24949548860397   12.98758186087289
B   9.80994050797492   9.78350376765450   12.20787781733486
B   8.48284073414619   10.70489620130060   11.65817720411238
B   13.28319194405221   14.05397372010044   10.15463878389412
B   14.26774727456742   12.94520223088257   9.29654028008501
B   11.12095300986368   9.32477615158875   11.24209095567368
B   16.19294415792085   9.90770772827004   11.41547538455038
B   13.94651503461082   11.30359458919876   8.95854185122712
B   12.79243817670847   9.30841775620839   11.32516230520590
B   13.14011370289873   14.11221281799924   11.86469170500067
B   8.37669299914812   12.37374570245441   11.85701499911745
N   9.01398780334547   11.28594325390901   15.67415641903070
H   8.65348928791638   12.09426698978628   16.18988095294112
H   7.76174568658177   11.38439785230929   14.17189536381831
H   8.40553273990487   10.49100508254581   15.95823373442892
35
F:    ...  E:  0.773890279999989
W   10.55211891734216   11.66921792254057   10.98697922753759
W   11.12278612850065   14.23721720873705   10.85417248482345
W   9.36362188262057   11.45474334695160   13.67841271593482
W   11.84720024630228   10.32312387059127   13.18549527051101
W   11.78870827147359   12.94430273833392   13.14529297849943
W   13.81909332315367   11.39208612778693   14.27494802410934
W   13.42264198922146   11.71517258186534   11.29111361045289
W   15.92669738160406   11.67703178171154   10.05654156630843
W   12.06003089551069   12.62369577147038   8.99326171259734
W   15.27596655614153   13.84633334183313   11.16979808665563
W   14.47500538218471   9.53542403438675   12.71602291893675
W   12.12838385240594   10.00286745662568   9.33388049986826
W   9.32002759376917   9.49748054408441   9.92194467117904
W   9.91194201035642   11.07306785167053   8.24282056120697
W   14.60384338259634   9.43891140825316   10.07416609793874
W   15.81471536938190   11.82824218171940   12.60083547672894
W   8.05384499180010   11.84520055213997   9.70125052476693
B   9.77970558376050   13.16049885146093   9.30123092996458
B   9.04091680457337   13.55299175585026   10.81151482809261
B   9.67677821144920   13.35433343257479   12.44978130316335
B   14.09558022210048   13.24917769546146   13.01087167230923
B   9.79715375473489   9.78713753345275   12.21988833064455
B   8.49728854417290   10.71256993511580   11.60125461341724
B   13.29620378337480   14.07325877400878   10.16518403114528
B   14.28125898240213   12.95615825425557   9.31924316522763
B   11.10180230289991   9.32729895772269   11.25798481425864
B   16.19252750229534   9.89991151618021   11.43683603452227
B   13.95602413533304   11.31325558368774   8.98396719936635
B   12.77229218096283   9.33709129501617   11.36437718833194
B   13.15936565217842   14.11973543296177   11.87791903272899
B   8.37655556612403   12.38152239066917   11.84502406871667
N   9.02663025444518   11.37655395142685   15.66884322894267
H   8.55044364902148   12.14388351243491   16.17077321686288
H   7.68412435576848   10.97991586805158   13.58553708941910
H   8.57848037217411   10.52034657110197   16.05259285696712
35
F:    ...  E:  0.429208420000009
W   10.57659805045512   11.68071435871125   10.97003166238800
W   11.12367398629512   14.26765833588402   10.85093554101366
W   9.44088291911441   11.51279879378083   13.67694495261932
W   11.84327808769410   10.34164603406512   13.17655951231626
W   11.80822901168848   12.94312497109978   13.14467926217929
W   13.86560570109146   11.40284198020722   14.27492325587398
W   13.44188750220432   11.71294071591646   11.29542781875626
W   15.91576848381126   11.67113066513950   10.04809529235352
W   12.03860578827543   12.62694997255541   9.00156676576612
W   15.28659854763881   13.84441564152046   11.15126217765276
W   14.46982623561569   9.52696758659010   12.71404604936393
W   12.09270735955714   9.99778458754083   9.33064097610121
W   9.22325923945804   9.54383663324692   10.03113843265265
W   9.90171763570057   11.05726984821085   8.26592069356556
W   14.61127533501430   9.43897330842112   10.08970366554057
W   15.81144029668998   11.81886289579673   12.59701480598469
W   8.06015336149264   11.78414722785190   9.81501620531336
B   9.78029192239480   13.17133992500231   9.29576085646808
B   9.05133146774732   13.56157762465259   10.79145090298749
B   9.73109608008475   13.40396605173414   12.43620747644938
B   14.10856850792839   13.26160101134775   13.00889004234043
B   9.82658192097484   9.82814333914958   12.23618394352506
B   8.34014938429774   10.71655629165455   11.88156076451832
B   13.29090004059945   14.06579678491889   10.15737119469634
B   14.27199981765789   12.95170059325823   9.31481761200783
B   11.08408766198290   9.34726245883084   11.25703038108621
B   16.19938772174481   9.88641659164206   11.44696765224768
B   13.92788476238384   11.30751701857634   8.98661874281743
B   12.75977268503111   9.35278128579523   11.35849889367867
B   13.16976251127365   14.11411332049705   11.87042564216752
B   8.44087966308307   12.44169475410181   11.88031679321177
N   8.91862793532463   11.38387351561812   15.61540785809253
H   8.55283905281611   12.15052664574221   16.18901609754757
H   7.79820744181072   10.73248754777073   13.14044964349882
H   8.58588391320328   10.50034171530380   16.04887846535487
35
F:    ...  E:  0.00544301000002179
W   10.63248301021249   11.69566533574745   10.95710805536307
W   11.14184987417475   14.28015438108055   10.85463138465586
W   9.53193526315455   11.55458083203186   13.69894162479689
W   11.82976291784408   10.32089385772671   13.16627938328151
W   11.83708916813605   12.95502361287447   13.15507620570918
W   13.87804051865539   11.42195652360284   14.26904928517014
W   13.45562895927211   11.72715390451256   11.30480294295724
W   15.92832343252122   11.66399526471917   10.05639300017130
W   12.06173713604827   12.63901061229767   8.98181212079200
W   15.30716780146449   13.84640562871868   11.16160871507506
W   14.46427500858164   9.54037059042770   12.70669378698383
W   12.11675855576424   10.00431235728486   9.31391519964869
W   9.24568026676922   9.55739042734385   9.97030773673722
W   9.93405042377967   11.08803651940778   8.24084259728001
W   14.63674438665493   9.44073564915035   10.10474324943651
W   15.82429814613595   11.82733461360350   12.60890760575037
W   8.09890936020907   11.75521199239085   9.85297238129689
B   9.79114643326592   13.17541149099270   9.30114823929020
B   9.06838185394349   13.54787586085796   10.80817391370780
B   9.77841947532703   13.42537603423548   12.42830860558863
B   14.13062435680300   13.28335423279787   13.01476296052616
B   9.79223980321125   9.87243919937522   12.23148011024565
B   8.20611091410990   10.72169503369356   12.08224082300321
B   13.30690041541489   14.06281165400568   10.16394719199059
B   14.29460190800865   12.95436511197334   9.33011553324564
B   11.08504791457333   9.36257129238645   11.26485188291487
B   16.21728069820976   9.88239908234855   11.46718018915297
B   13.93956916182466   11.31163836168954   8.99218429320963
B   12.76458850447145   9.34744823952520   11.34154934712255
B   13.19150960727323   14.14548972605066   11.87683556928754
B   8.49072020326427   12.40162092255377   11.91941953098015
N   8.81522523507682   11.39094492702530   15.53719013652734
H   8.39467304126968   12.14820685027036   16.08701808000289
H   7.41448991507561   10.48599947776903   13.03811342013200
H   8.74349636163550   10.51188043166384   16.06115493010319
35
F:    ...  E:  -0.244172149999997
W   10.65583243177387   11.70342318695218   10.96973889041872
W   11.15159823774121   14.28882187030419   10.87991250374441
W   9.53060218847731   11.53926436257635   13.68409989243231
W   11.82364659471059   10.32263716009321   13.17727327736557
W   11.84001490702007   12.96089953816154   13.17333196804054
W   13.87571276389696   11.43248976418815   14.29466606007278
W   13.46809787389356   11.74063563245647   11.33211350225657
W   15.94444084095440   11.66924551011615   10.08557360418813
W   12.08595877443994   12.66709099549385   8.99631175358148
W   15.32483952936723   13.85269368657504   11.19852363477493
W   14.46886480803475   9.54807138731919   12.73733843026203
W   12.12360460386331   10.02335215902136   9.32768130947198
W   9.27744955712189   9.60003547325517   10.00384986427870
W   9.98405025081420   11.11978933955781   8.23606674983526
W   14.65229124446832   9.45377186615096   10.12799911266551
W   15.82927422275612   11.83533575020619   12.64472144125594
W   8.12028224197421   11.78227001259558   9.83406384980875
B   9.82529800673660   13.19467327987724   9.31844258724380
B   9.08227961350881   13.54718338672406   10.82792464959623
B   9.77910386986826   13.41083884449672   12.43496693239631
B   14.13747849104558   13.29419748422164   13.04925375349912
B   9.78946402178937   9.86593956421092   12.21578664707285
B   8.18592080869531   10.65297432060447   12.02902925509816
B   13.32611727767644   14.07351709206824   10.19855136866816
B   14.31719609916897   12.96827950553660   9.36022780407083
B   11.09881289646912   9.36757843074252   11.26851344240604
B   16.22261449990212   9.89111705801882   11.50321004483613
B   13.95563120746387   11.32816009613549   9.01822889758746
B   12.77938628896833   9.35277843584977   11.35701881703901
B   13.20499018697999   14.16077980246599   11.90920833857329
B   8.49837086361719   12.37139791009722   11.91506946332796
N   8.74479644199509   11.38052427412876   15.49046532753066
H   8.15058364232098   12.08653201488924   15.93295932397473
H   7.22935069753136   10.27541176330924   12.70350139383600
H   8.86580404709082   10.58804907373291   16.11413614092732
35
F:    ...  E:  -0.325811310000006
W   10.65831600008379   11.70498165435611   10.97784650256279
W   11.15796102342487   14.28404479505025   10.91568113476359
W   9.48656298746562   11.50450472570655   13.66212513400882
W   11.80746038948308   10.33397640359915   13.18897769448131
W   11.82307958873437   12.95478186902530   13.19789284933745
W   13.87005325714645   11.43596954873584   14.32618666187848
W   13.47786865247598   11.75157786667309   11.36277783509329
W   15.96442071823030   11.68557628005235   10.12506055795716
W   12.11176085712198   12.69495133096725   9.01631319790692
W   15.34156777578320   13.86184857921149   11.24344021142424
W   14.47437022503614   9.55562611441650   12.77969292569325
W   12.15303817098907   10.04559698985726   9.33998267653724
W   9.32291294498285   9.60938027623647   9.95766166931312
W   10.04602860455007   11.15086827675290   8.22208839392840
W   14.66770203547067   9.46713438756296   10.15698082885753
W   15.83111395165293   11.84627922106433   12.69221872895620
W   8.14681758371438   11.80174089623334   9.79302933697386
B   9.84990564142939   13.21273936149698   9.33595681027272
B   9.08709480570609   13.54742093701427   10.83557785931049
B   9.76218254708626   13.38023401987988   12.45349462915953
B   14.13464214561893   13.29586774730268   13.08870036357790
B   9.79186578292056   9.84658521601622   12.19266426951494
B   8.19283714628283   10.60605593922997   11.93434634411041
B   13.34407435129824   14.08728479186719   10.23969260824740
B   14.34208670401934   12.98986390490134   9.39524372440310
B   11.12251445471127   9.36644760614153   11.26688744908620
B   16.22653876876447   9.91021553011404   11.54312378356619
B   13.98103956236809   11.35285798751605   9.05073345373220
B   12.79945052231273   9.36628066780109   11.38433446791776
B   13.21351011547988   14.16438875497624   11.94937386510977
B   8.48591140850229   12.34266858113404   11.90270084144778
N   8.67461151748333   11.38087110705851   15.46412047635919
H   7.93933349060536   11.99607130942897   15.81622545008841
H   7.15476055593873   10.13149076925378   12.36555333055165
H   8.90636574526304   10.68357658550261   16.17307396600724
