35
F:    ...  E:  0
W   9.45123410892702   11.55777252842974   11.80148998855509
W   10.00681732972023   14.19536789889208   11.66389040287932
W   8.53682927082539   11.42523208929646   14.38450487911452
W   10.76469978836817   10.14751043781764   13.94435773951837
W   10.69831143357681   12.80412866296832   13.98062305916521
W   12.74476398693804   11.35113659294634   15.04698320955436
W   12.27454128299174   11.67352703450382   12.05135307243664
W   14.85800567403017   11.64559148096969   10.70158565802758
W   10.90402046447100   12.54960741325069   9.77559929156678
W   14.16296577443644   13.74907514309343   11.92996133514572
W   13.41339694482697   9.53788088136332   13.44821741169420
W   10.99279854810079   9.94683076218729   10.10877114546949
W   8.20231795433602   9.45545426605969   10.75274333510759
W   8.76447043236408   11.05145988395867   9.04467555409628
W   13.53683530169977   9.42241459949971   10.86415008449924
W   14.73539589928320   11.83514633860652   13.42750553761045
W   6.93926747067184   11.73719907401167   10.63532916515396
B   8.65661798844400   13.11860335858883   10.13842172458932
B   7.92635897493167   13.47754630931858   11.65175986344899
B   8.64718233698432   13.36199646490549   13.23574325417743
B   12.98813470783320   13.19446189976951   13.80124738887054
B   8.72221377240114   9.64277055650888   13.02239205754810
B   7.38001419403651   10.61751034720371   12.56038838145245
B   12.15859933546909   13.96620685012854   10.97453560099372
B   13.13881570385418   12.89255829214070   10.06738042322269
B   10.02580858018862   9.20018157131475   12.02474512413259
B   15.14946603568858   10.04471908745714   12.17362984534322
B   12.82736187267767   11.24850734916740   9.73605327875382
B   11.71325051667535   9.17735537075509   12.09299747030306
B   12.04065891868610   14.07333517411061   12.67819741436725
B   7.32811088601976   12.29943087022021   12.76291197784849
N   16.68047993427699   11.72955288767861   9.36513945573876
H   17.47194868840915   12.06460646493745   9.92350705977245
H   16.92664784600079   10.79830911651368   9.01738000403296
H   16.58141807399129   12.35677297356214   8.56158883794562
35
F:    ...  E:  0.0281979299999762
W   9.45632609776417   11.57492492338942   11.78953486138843
W   10.01390091615608   14.21324297537118   11.64210135120315
W   8.53276251525286   11.45462962247642   14.37154845049978
W   10.75424806679841   10.16943044697014   13.94563246830380
W   10.70141629979586   12.82886834524120   13.96306299126989
W   12.74237616211806   11.37488142167155   15.04365131185333
W   12.26893949517037   11.67970976944325   12.04739254212040
W   14.84222933698126   11.62108286189927   10.69397966632969
W   10.90543807315223   12.55673209394532   9.75999492866634
W   14.16583725082092   13.74953139047969   11.91011992434014
W   13.40294854670793   9.55229631063627   13.46278104893023
W   10.98015786036909   9.94616676605470   10.10934960671409
W   8.19981933783364   9.47119699093899   10.74294741911508
W   8.77337829245257   11.06000395109878   9.03016196334203
W   13.52587401214245   9.41181841746024   10.86832728028156
W   14.73051566940174   11.83658335580196   13.41501441780482
W   6.94798677124839   11.75227497128718   10.61480548992280
B   8.66276120073286   13.13490016710711   10.11787779759989
B   7.93311634739506   13.49761147154373   11.62994457918347
B   8.65166296957645   13.38613581253481   13.21468148666854
B   12.99569939429459   13.21240676209478   13.78304747424523
B   8.71392291997951   9.66509976175257   13.01930440568978
B   7.38137359550755   10.64237743050465   12.54499002728370
B   12.16445116779830   13.97027135672483   10.95406862401258
B   13.13698488160919   12.88455246186243   10.05522321852849
B   10.01897583729815   9.21011708881522   12.02954076071398
B   15.14308137308689   10.02733524047836   12.17831346202691
B   12.80734164945559   11.24137627340734   9.72972787190210
B   11.70484330785528   9.18791194389498   12.09781164326967
B   12.05005461490103   14.08928734619287   12.65557427979868
B   7.33457071967396   12.32372709781733   12.74143756726149
N   16.68437136551265   11.66141648037352   9.41922721786937
H   17.43811588919872   11.75427617777485   10.10639555681954
H   16.85146175428319   10.77980243228843   8.92686981021531
H   16.73281633981119   12.42778011280207   8.73531852696238
35
F:    ...  E:  0.0934696400000234
W   9.45933308689422   11.58989850128150   11.77723838686847
W   10.01897086796800   14.23172529074374   11.62368239254116
W   8.53206689631431   11.47924813171855   14.35823860815748
W   10.75180345459510   10.18858040506551   13.94152495360376
W   10.70541747598214   12.84826977134045   13.94602355048629
W   12.73969899041164   11.40145337131384   15.03608108542496
W   12.26715131736676   11.69004209481746   12.04008044381658
W   14.82228169022510   11.61325066745673   10.68030665025797
W   10.90221810316916   12.56462644685289   9.74674278021711
W   14.16667685562618   13.75586116363780   11.88898118176821
W   13.39766069956957   9.56892403346734   13.46587357306422
W   10.97235339968206   9.94603723165257   10.10726564854245
W   8.20289979863766   9.48376350561603   10.73510790182107
W   8.78079100374665   11.06448144842332   9.01593520322565
W   13.51794982248969   9.41182693490789   10.86692282455827
W   14.72868832582154   11.84718335935609   13.40050789165635
W   6.95687592050694   11.76444576645987   10.59890395078252
B   8.66920339472442   13.14791190153220   10.10010552170512
B   7.94057935634853   13.51599876283628   11.60901214189378
B   8.65794230579261   13.40759853868526   13.19615264365562
B   12.99897735567053   13.22970787910378   13.76661137685295
B   8.71446868212377   9.68599089919420   13.01385904206479
B   7.38470787761480   10.66433246419954   12.53443938378817
B   12.16423511145281   13.97840173537260   10.93495373355373
B   13.13046294732465   12.88285819212819   10.04116913005321
B   10.01743664509168   9.22022032526164   12.03006290014628
B   15.13639010632675   10.02828360715610   12.17439442070989
B   12.78885592805764   11.24122207034315   9.72287741109368
B   11.70238627168645   9.19655539227781   12.09966117043461
B   12.05616023890240   14.10234517029370   12.63410421465596
B   7.34033877005848   12.34559458852171   12.72312589718639
N   16.68573003133868   11.58658762091250   9.47218091965419
H   17.31782822808092   11.42968122742078   10.27008249262045
H   16.82380835054484   10.78754859736487   8.84504210805940
H   16.89741072198947   12.44930293541893   8.95250849721569
35
F:    ...  E:  0.343860029999973
W   9.46989729230316   11.59800635823210   11.76729697262862
W   10.02521405936924   14.24080412630227   11.61213818232664
W   8.54114113646991   11.49268729445965   14.34990697347610
W   10.76177614037892   10.19940945816390   13.93632205401865
W   10.71473110561862   12.86142052528609   13.93724275300070
W   12.75243965776895   11.40754453200831   15.02620908814161
W   12.27290358200615   11.69888387468427   12.03470914658071
W   14.79678919376634   11.62882577842753   10.65955918411508
W   10.90229503755908   12.57809928555406   9.73381744056632
W   14.16887698553378   13.76889454809960   11.87565299781986
W   13.41857097926384   9.58653532960611   13.45430305069739
W   10.97673889127705   9.94777011942217   10.10553515809133
W   8.20850503267911   9.49062728325915   10.72710612735878
W   8.79252770577294   11.06353777985784   9.00593406194484
W   13.52469846710483   9.42322273621522   10.86225602288152
W   14.74276219575691   11.87343299691748   13.40070451975008
W   6.96613196720489   11.77031804135838   10.58801099259377
B   8.67714537818961   13.15422054844665   10.08929764999158
B   7.94669737414139   13.52524128918343   11.59582896499139
B   8.66680916426066   13.42069719257801   13.18227707131065
B   13.00916128135415   13.24205652371808   13.75752113424308
B   8.72445401756502   9.69779469878736   13.00691211820851
B   7.39490682187103   10.67597467355723   12.52419331105098
B   12.16588564062949   13.99093316900750   10.92531372783274
B   13.12422611071461   12.89907572248256   10.02399935485814
B   10.02812027107399   9.22358490584804   12.02674209146379
B   15.15448232044217   10.07079112691396   12.16054948161150
B   12.78086143438646   11.25290674868888   9.71674495743810
B   11.71308113876941   9.19226836430344   12.10085991820984
B   12.06451858098211   14.11284562617804   12.62712441227504
B   7.35088747404324   12.35765788157095   12.71370819586147
N   16.63673281091970   11.52143000751318   9.47556037974537
H   16.99048865920957   11.16112819937782   10.39979635130453
H   16.88723076755889   10.80060650654515   8.78390806109421
H   16.99807135619061   12.42052677958028   9.16271812465372
35
F:    ...  E:  1.31577857999997
W   9.47538581236903   11.58758543634850   11.77574220539335
W   10.02632352535548   14.22141178565766   11.62562430944133
W   8.55199339265711   11.46745297531188   14.35562854517893
W   10.78346113240631   10.18151127440887   13.92693372829406
W   10.72502412626308   12.83676797161694   13.94846681406165
W   12.78416019920792   11.38115817285598   15.01368393744444
W   12.30122537103025   11.69709472346186   12.03917316336132
W   14.84604408608930   11.66261126393857   10.62348782179191
W   10.91506945908101   12.57002569250855   9.74490906583427
W   14.18180997556908   13.76337621003070   11.88468532793858
W   13.46239531752216   9.58319780457517   13.42766443602629
W   10.99748858037786   9.95852280691536   10.11170605819521
W   8.23062156168103   9.48388714505317   10.71687226720640
W   8.79056274037796   11.05924486615742   9.00395671074388
W   13.53796847042143   9.43278341445170   10.84210201186621
W   14.77395091255938   11.89276918189342   13.43395834210139
W   6.96585987456907   11.75646927311528   10.60342712555671
B   8.68118949484425   13.13507448911043   10.09970332723860
B   7.94666860601280   13.50442909819179   11.60801142378052
B   8.67364191532645   13.39812357958839   13.19468688482769
B   13.01759263506802   13.23237343402301   13.77352910241502
B   8.74366192984397   9.67993564546519   13.00517644634101
B   7.40460284390950   10.65393957431440   12.52883941286346
B   12.17495467458144   13.98179144206816   10.94054109605886
B   13.13259766685614   12.91593424251468   10.02459989117071
B   10.05069041176470   9.21457388195025   12.02221067525105
B   15.18651577482322   10.14316897194504   12.13200748365857
B   12.81405704165843   11.26172407258551   9.72901023886412
B   11.74372972788175   9.18230455290591   12.09877555060789
B   12.07155936113762   14.09868489651871   12.64354658905117
B   7.34946902115695   12.33620501404241   12.73030841080880
N   16.51031709130016   11.60922297407749   9.30664620102705
H   16.67686610516362   11.16982297173260   10.61684041353786
H   16.99355848299636   10.82548425644245   8.89894825524338
H   16.82874271027295   12.47109693635828   8.91835675895585
35
F:    ...  E:  0.817164880000007
W   9.49048300853486   11.58906576230068   11.77473674466061
W   10.02993726045621   14.22298962566806   11.62065562646688
W   8.54901093858263   11.46904674511598   14.35821937611654
W   10.77811678089784   10.18147986820869   13.92113224873065
W   10.73035358748082   12.83169110539748   13.94378896465332
W   12.80153020030233   11.38122245338483   15.00396661937409
W   12.33144926211220   11.68555912053566   12.04662696892110
W   14.98453277784981   11.65404563011853   10.57716945883078
W   10.92827759817787   12.56738981894092   9.75092494575187
W   14.20270998614090   13.72377489927424   11.87560863166942
W   13.44916719150874   9.57273426746127   13.44543232612611
W   10.98663656893975   9.96637520620007   10.09833236898464
W   8.22632653378080   9.48245645426329   10.71067135403165
W   8.79559893154825   11.05830270254394   8.99942827199118
W   13.52695711481092   9.43906161158667   10.81975615666705
W   14.79798753684805   11.90290038309508   13.46391154679070
W   6.97129803315282   11.74921685557025   10.60559358173389
B   8.68701400457909   13.12682268219964   10.09770483495752
B   7.95031999455182   13.50093809641823   11.60787563791154
B   8.68029797663936   13.39613558037299   13.19304490329534
B   13.02282721230870   13.24269361292891   13.77180770319449
B   8.74163130804430   9.67590628027815   13.00344453292428
B   7.40778548601386   10.65223367047194   12.52868734713615
B   12.19566979340387   13.97286311072435   10.93594770165154
B   13.14923702152922   12.90185951426906   10.02859703037679
B   10.05155204361265   9.21097477674476   12.02046608588314
B   15.11965298534736   10.16217647571888   12.16544954532941
B   12.82800456688770   11.25201282331600   9.73498634917939
B   11.74604923070983   9.18073090757592   12.10051280987785
B   12.07717625963001   14.10108578426413   12.63900991977847
B   7.35411937099054   12.33594882135324   12.73147790741879
N   16.32417329563386   11.63931452529779   9.04436503315553
H   16.65818495502474   11.14435383805329   11.03815691178700
H   16.98992859272871   10.86235160555455   8.88605362120827
H   16.78576262337610   12.51404541692807   8.80621696557135
35
F:    ...  E:  0.0693848999999886
W   9.49683514878636   11.57437264881414   11.77887508751134
W   10.03123821902554   14.21204727948342   11.62713714564453
W   8.55660014113941   11.44649231298415   14.36350886549215
W   10.78170128183615   10.16625955882720   13.92502465734461
W   10.73188146024310   12.81374674873380   13.95054821166508
W   12.81057053753656   11.35326065485657   14.99977787540097
W   12.33887535860241   11.67774439379698   12.03943063491894
W   14.96653227376749   11.71618831309513   10.52402778637355
W   10.93585767671351   12.55893499825015   9.76103208292536
W   14.19699522764076   13.75551294765351   11.88782398342691
W   13.49660897414489   9.58086518799795   13.43738051598562
W   11.02758581908991   9.96020703979636   10.11546948822280
W   8.25183600857849   9.48501447152710   10.71318878578831
W   8.78458289613384   11.07621030335906   8.99977418640288
W   13.52343763677233   9.43995506422202   10.82752183369199
W   14.78185212354052   11.91406846862753   13.47628692681872
W   6.96376382357080   11.74192065483673   10.61932377638904
B   8.68828236384858   13.11900568685940   10.10897879740883
B   7.94946983193053   13.48714257486343   11.61769257171721
B   8.68409514050537   13.37953085426113   13.19881858212348
B   13.01182495161838   13.23930327179568   13.78324665897964
B   8.75168023323417   9.65733763635391   13.00165716634501
B   7.41395380724780   10.63629339453904   12.53605335814846
B   12.19346715071685   13.97214571359048   10.94383203989044
B   13.15878487059049   12.92142859822703   10.03141306838709
B   10.06510934480820   9.20296310016409   12.02394512146895
B   15.24616806476926   10.25244168227740   12.07757027752445
B   12.86957132130077   11.26987031740552   9.73295557240690
B   11.76226045660037   9.16777666899518   12.10260775016340
B   12.07392048107993   14.09661376516692   12.64700399533827
B   7.35592246200860   12.31826802404051   12.74207502165754
N   16.31519516962134   11.71617822236568   9.03211426159501
H   16.45021344820221   10.88505661876945   11.28104825252993
H   17.03778991358251   10.98799192986304   8.87535241613100
H   16.64529641334884   12.56761092573621   8.56726327631899
35
F:    ...  E:  -0.559995590000028
W   9.48475820015900   11.58270504055163   11.77326973581144
W   10.04005569514845   14.20323606274949   11.63173745752569
W   8.56123088253545   11.45834953510504   14.35550849314311
W   10.80831506010797   10.18479465538978   13.91937798226669
W   10.73827409306196   12.82900645593469   13.95282351768480
W   12.80036843442405   11.37117293020921   14.99579936737380
W   12.32642386370731   11.71649416095040   12.01494927603747
W   14.94535218346187   11.72687017050484   10.52318025900212
W   10.92910334305951   12.56054944516811   9.73471816533769
W   14.18968444435220   13.79118473287311   11.87288958668932
W   13.50987080906184   9.62168887993330   13.38580128061883
W   11.00797893907805   9.96056045231107   10.11495286866533
W   8.24614460290614   9.49078482723610   10.71456200903508
W   8.79149623424411   11.06705694655478   8.99437021037775
W   13.50906162766804   9.46473390661157   10.78213952027074
W   14.77497936205173   11.93103779378111   13.41401847434790
W   6.96779033132034   11.75181896253106   10.61037316670429
B   8.68679168653898   13.12689867333084   10.09899410058450
B   7.95753077977036   13.49395416462794   11.60989222151471
B   8.68337638028781   13.38639359695996   13.19935237921772
B   13.02463465119867   13.23759843939517   13.77629613820985
B   8.76195062300741   9.67762389530722   13.00612374085201
B   7.41168042849753   10.64720676485563   12.53608091552581
B   12.18126487965520   13.98085397385559   10.93424301586225
B   13.16046385361940   12.92786682147512   10.01227861868181
B   10.07685786658379   9.21710873264307   12.02664051083372
B   15.24593665284824   10.18990095569360   12.05040009658237
B   12.84859108506197   11.28856298913029   9.71128860182572
B   11.77794531790193   9.16741888545089   12.09618194925007
B   12.07809029069102   14.09606739617246   12.64601664716873
B   7.35189128257397   12.32981857858710   12.73338607598007
N   16.41163227556012   11.81109391991813   9.17393595213529
H   16.32534605382393   10.45277297728074   11.39240879395526
H   17.07032794954958   11.03211121515513   9.01650082733641
H   16.66455986861728   12.57446309390187   8.53926807572839
35
F:    ...  E:  -0.632671469999991
W   9.49615412511676   11.60754522624511   11.75091300029339
W   10.06425473100819   14.22498642670977   11.59162278558211
W   8.55153818719002   11.50492291264824   14.33303530504519
W   10.77436411138679   10.21326188101216   13.91899375546687
W   10.74247156942038   12.86374444514640   13.92209809221584
W   12.78763963812182   11.39809538447016   15.00080777254849
W   12.33029010477157   11.70978140300140   12.02037139465074
W   14.94883935310293   11.67919134840308   10.56466120319026
W   10.95744010253850   12.56017610651692   9.71753961254948
W   14.21721024532019   13.76588290128911   11.86820486102825
W   13.47181315018930   9.61648356167797   13.42367003899679
W   11.01273378162253   9.96850344918304   10.11656804859239
W   8.23692956513343   9.51508817272818   10.70878620782897
W   8.79875902321857   11.08047982172269   8.97695200208280
W   13.48628562137515   9.43317088730239   10.81600220729660
W   14.76385369346815   11.90451218918304   13.44174904233137
W   6.97709583655250   11.78472634273962   10.57675673189232
B   8.71293259457645   13.14340803207565   10.06496344774550
B   7.97785944953944   13.52847971552269   11.57139682512562
B   8.69349900839903   13.42376940331591   13.16358291455746
B   13.02940731800829   13.26396151020461   13.76057024227645
B   8.74081345664762   9.70623086842231   12.99467680968088
B   7.40917641410237   10.68840321806398   12.51285621778308
B   12.21747098806422   13.97783023693185   10.90521708964546
B   13.18853952750390   12.89996622911727   10.01328269043395
B   10.05100115886240   9.23009950132103   12.02736629502608
B   15.19751637485218   10.14468387065897   12.12149180836759
B   12.86649444104521   11.25901437939753   9.71553568602141
B   11.74355485615255   9.17611415814260   12.10430650949064
B   12.10318511560925   14.11872158100092   12.61029768185064
B   7.35936621547977   12.37237852846287   12.69652992772907
N   16.46146245301002   11.79416671440442   9.28655576296453
H   16.19291545031832   10.18891962195094   11.29520074432450
H   17.06760649040650   11.00282416335294   9.04325016533514
H   16.71928588002142   12.60023583980764   8.71394715218940
35
F:    ...  E:  -0.657969729999991
W   9.50469158658272   11.62015507387204   11.73159140538031
W   10.07923789852395   14.24773169982693   11.56341932876601
W   8.55090377286611   11.53570397628233   14.30553403829695
W   10.75672822472931   10.23525586015318   13.92414644900411
W   10.74605348143997   12.90535101607724   13.89345793075610
W   12.75626083713899   11.44209009474107   15.00908695140100
W   12.32731138095664   11.73212545490488   12.02461541400128
W   14.95274424800928   11.65482340716643   10.58903838173649
W   10.97490928237291   12.57079078715737   9.70670230723485
W   14.23610495158888   13.75351629513364   11.86542309323835
W   13.43276916236818   9.63005926879024   13.44571798620546
W   11.02293739183397   9.96372643375306   10.12468621834539
W   8.23988563646937   9.52143037505700   10.69664176732273
W   8.81628004122577   11.09331896840279   8.97167313543585
W   13.48784881623288   9.43972797286330   10.84897248027012
W   14.75727687841751   11.90039143126508   13.44428281922437
W   6.98951281747873   11.80862077176160   10.54281404659122
B   8.72929891396434   13.16313813938469   10.03932277490129
B   7.99194470501251   13.55526432408170   11.53940425566323
B   8.70149011098946   13.44695160579775   13.13346598313020
B   13.03085887056530   13.29277713246780   13.75597885012728
B   8.72483098163873   9.72970081584682   12.98331691191790
B   7.40713679436999   10.71501430246719   12.48194675032343
B   12.23509970540639   14.00133482605781   10.88660128597534
B   13.19946292087220   12.88706966048072   10.02400724042344
B   10.03926290932025   9.24825674001733   12.02538037837584
B   15.19996293570394   10.09622736550090   12.17283824673421
B   12.86445901056330   11.25145064625706   9.72209499080500
B   11.72764076309254   9.15676310229679   12.12691503881752
B   12.11268902995018   14.15477522546683   12.59256528032852
B   7.36879243359238   12.39898796006013   12.66184304947625
N   16.47508123006382   11.77126784485559   9.33239176984826
H   16.09778562485338   9.82231319984675   11.32493417481642
H   17.02784393182391   10.97805560130029   8.99518597639300
H   16.78466275211877   12.62559265274163   8.86376332086874
