23
F:    ...  E:  0
W   12.13522611433393   9.86292038105472   12.42944041798573
W   11.99897236741737   12.25206451864466   11.17890951085684
W   9.66887137303301   12.94643529860948   11.31541510551191
W   12.16342638026038   10.63584284520277   9.02065590735919
W   8.42256408036662   12.05096509516964   9.21465179362965
W   9.87679334574781   9.54200610911776   13.54792082366175
W   13.13756833369411   8.23851749856734   10.27757350648432
W   8.28699170012339   8.97554065184470   8.95866719736696
W   13.93918674929523   10.36190156787959   10.76637678583933
W   8.39118212366593   11.23457846955249   12.80536808132905
W   9.94334520137446   10.24953502669976   10.70686150444246
W   10.89081594994410   7.85046176070313   11.49347186572791
W   8.26405078610888   8.35158659263191   11.70676501769186
W   9.92573857334425   10.83815063726576   7.83810317389458
W   9.07929903225063   6.83534907433633   9.92381149400332
W   10.91221817803049   8.42169349578981   8.97665922752143
W   7.18064679894515   10.31052945219915   10.69752204478088
B   10.58824837726467   11.47061879237044   12.73201346976397
B   10.61745363801295   12.22308954896409   9.41777303749019
N   13.37450876873016   14.01388136046963   11.59245690509449
H   13.72880135631330   14.42041746278351   10.72094618634171
H   12.86399823953056   14.74719474999731   12.09308477275668
H   14.18401296467096   13.74064004260467   12.15947260292414
23
F:    ...  E:  0.0281159900000034
W   12.16345593470127   9.85268879147999   12.39402838281629
W   12.01486595205492   12.24378525047497   11.14655714706531
W   9.68733247712756   12.93121944472813   11.27765967359831
W   12.19540304167526   10.63007159757399   8.98544842979829
W   8.45607837090566   12.05884786211279   9.15534254557885
W   9.89751151690654   9.52480376804611   13.51791108036466
W   13.16422277647780   8.22925131427306   10.24365091058038
W   8.29828199509187   9.00420180631504   8.92349883304220
W   13.96407346418770   10.35228141220410   10.73710389595087
W   8.41799022070269   11.22124937768897   12.79230492391844
W   9.96382840928065   10.24842147159288   10.66953113308721
W   10.91270861942609   7.85433865564215   11.45775711632197
W   8.26908162015727   8.37300217758636   11.66932309277655
W   9.95259704807037   10.83717942281419   7.79087666999358
W   9.09239425268902   6.86417427003387   9.88354465158014
W   10.94048882947202   8.43049982993855   8.93791771257040
W   7.20683842620844   10.34998759725202   10.66889845492076
B   10.60824058748604   11.45322879607135   12.70015659982073
B   10.64447583371550   12.21346144662953   9.37520672103571
N   13.28950901589754   14.00542241500758   11.73091400851713
H   13.49461819689602   14.65293893163153   10.94772956042414
H   12.74054676006596   14.50588632581808   12.43091322563457
H   14.19937708326212   13.73697846754381   12.13764566306186
23
F:    ...  E:  0.151606909999998
W   12.20527173713427   9.87649319852892   12.29889674981953
W   11.99424603315810   12.27951185683022   11.11552374142340
W   9.66508881013562   12.90944795415348   11.25154637568688
W   12.23759397992293   10.63003644196745   9.01536858002948
W   8.48391009667060   12.06442871934339   9.06445520843951
W   9.92927929841571   9.49773842621248   13.48084279873125
W   13.21773891897520   8.20273855906617   10.20587645663564
W   8.30821538882118   9.04718496167100   8.88687690318790
W   14.04608736845140   10.32335557890678   10.70044463105485
W   8.44384085963394   11.19178995675697   12.81286938119026
W   9.97750033177897   10.25986298151575   10.63788746527688
W   10.94321640735242   7.86915174156541   11.41743764250677
W   8.26612421394977   8.40807191335351   11.63037638454702
W   9.99682239880642   10.83411921907713   7.74771904441915
W   9.09891634249360   6.90684353142135   9.84663593236644
W   10.97440827545240   8.44940157207774   8.90866911824653
W   7.23782918748945   10.41723984631773   10.64071271326389
B   10.62170810823983   11.44802579532091   12.67566943984550
B   10.65490051346220   12.21814537319926   9.34351445822778
N   13.23832885659817   14.00415780728915   11.84465171745034
H   13.25656846249874   14.84264092311900   11.28713498137298
H   12.60214675152846   14.12462257994440   12.64928663502714
H   14.17417809148921   13.76891149482110   12.11152407370910
23
F:    ...  E:  1.03957016000001
W   12.27193399353026   9.97301576684735   12.08041533108890
W   11.96680166978986   12.37066631109753   11.19140277614557
W   9.59677897517872   12.91302563727748   11.37821721631470
W   12.30088152278391   10.61367801298580   9.28591382304246
W   8.49203691225589   12.09569519068821   9.05355143543346
W   9.90908398480358   9.42868577616634   13.44025188029423
W   13.28810382089485   8.11944217765745   10.19006398531207
W   8.32834600975626   9.11008676449863   8.85930408204027
W   14.29011890198641   10.19427591220404   10.67745245160322
W   8.44791416883495   11.16787896405638   12.89330761543660
W   9.95509469657435   10.30651823031267   10.67379578876318
W   10.95801682389193   7.88123759414367   11.40676204988604
W   8.23236814843651   8.44200714931137   11.60813611121833
W   10.06231173511023   10.86096486455329   7.81253477095620
W   9.08759506677245   6.93938861072212   9.84620205039351
W   10.97826743862416   8.47137852963235   8.93152142361064
W   7.24378470979285   10.50288617471310   10.61759132619786
B   10.62724661109137   11.43328547676837   12.73109448984328
B   10.63036748083502   12.26422435010161   9.43867157285137
N   13.30451939850558   13.95202941192170   11.65095000773379
H   13.24244857949067   14.90925820578699   11.40743311769308
H   12.19179862415674   13.88802312178124   12.29191669025068
H   14.16810115936254   13.73626819923190   12.10743043634857
23
F:    ...  E:  0.0713107500000092
W   12.24212669659560   9.95212538473692   12.17228086583311
W   12.12753590951572   12.45437281677796   11.29286836574314
W   9.71178652720510   12.97389639391907   11.43958267134930
W   12.24560649690955   10.59621263377122   9.22151512453635
W   8.43086902074676   12.06910519642329   9.17732018163162
W   9.89906569676303   9.44546926944195   13.47505305698614
W   13.24543054961020   8.13936061467070   10.24362205018391
W   8.33848421191236   9.08386513450585   8.89107561125750
W   14.17583606341180   10.28341540148296   10.69878869070141
W   8.44323224856207   11.21183962693162   12.81876221507678
W   9.98381329101105   10.31108133747270   10.69597456754003
W   10.93655601549927   7.88294433721135   11.45441844985676
W   8.25564474545539   8.43913055299463   11.64990972720575
W   10.05833138269226   10.92330200132997   7.85688703464878
W   9.07714867057412   6.92416063480938   9.88321493069703
W   10.96412390338259   8.43789463702593   8.95899900148322
W   7.17406437116419   10.47115394064741   10.62594788125781
B   10.64576769867310   11.44926202060494   12.73764003850548
B   10.65743667163620   12.25487341755485   9.53285967960276
N   13.66773608670389   13.76988465925960   11.27458165055629
H   13.44702238475197   14.75442252642671   11.12801400017990
H   11.55125762632547   13.98020469716906   12.22262511300023
H   14.29504416335656   13.76594319729103   12.12197952462500
23
F:    ...  E:  0.111370149999999
W   12.27857116999715   9.96969927074449   12.13737223108534
W   12.09422987787113   12.51204484766801   11.31655723075054
W   9.66881079380029   13.03821628119253   11.46174951525645
W   12.28633239164441   10.60888757156927   9.22547030918215
W   8.44000515297913   12.07173467108289   9.15212425913160
W   9.90927846759235   9.41775003632929   13.44380467519581
W   13.27204523928201   8.13148362850831   10.23755809555105
W   8.37092633972861   9.11034422138906   8.85198170343986
W   14.22426288592154   10.25488831828306   10.67818132740316
W   8.44877643934242   11.18363592560698   12.78720332598845
W   10.00699139104030   10.30752592255923   10.67090964920038
W   10.96282617679438   7.89067270290941   11.43737023132803
W   8.26148364227844   8.43265256543639   11.61362669148130
W   10.11263300142506   10.96616108574609   7.85558281024373
W   9.09780403996070   6.94398740143562   9.84905818175290
W   10.99656744113737   8.45040910520464   8.93644793928186
W   7.16750299738614   10.44712107333972   10.58290276970062
B   10.65124048694321   11.40935042159570   12.71009985760678
B   10.68944395687793   12.28087590774092   9.52619540764819
N   13.55356829455218   13.89205766904220   11.26836142258432
H   13.36787673390254   14.90591381138190   11.33570832668157
H   11.28606097946284   13.61090385193312   12.65589730846027
H   14.42668253253868   13.73760414176048   11.83975716350400
23
F:    ...  E:  0.20408900000001
W   12.26945288470020   9.98904338137722   12.11579214587407
W   12.08339700221577   12.57214868026565   11.20535661689665
W   9.56908327550594   13.05687625259409   11.35002678858115
W   12.28651545392887   10.63919227433116   9.25429426947365
W   8.50246603953601   12.04764344531122   9.15571076651531
W   9.97976780602893   9.50229925603083   13.46043834844364
W   13.27777892063125   8.14034405516559   10.24484408216882
W   8.38330023189033   9.13479708638621   8.85468776244294
W   14.24235079232634   10.25065914339116   10.68205775209664
W   8.46944315395158   11.19596027055185   12.80160839108761
W   10.02771368237891   10.34020871760353   10.68245056906083
W   10.96125991350026   7.89956966949103   11.43470705049450
W   8.27477039824912   8.46297557411741   11.60812921057683
W   10.12909164908705   10.93377407575663   7.81583531559693
W   9.08734103630215   6.96169726126441   9.85470033856064
W   10.98739697182005   8.47512529677229   8.94505752138390
W   7.19306627252196   10.45303519790562   10.60483629496014
B   10.69384797419976   11.51110393299897   12.68437588354792
B   10.69843607927306   12.30057911402975   9.47289224200706
N   13.51345664575047   13.97256536666548   11.32561236329287
H   13.34472376852318   14.97357063433941   11.44039257970360
H   11.18987757679493   13.00119361560152   12.78477400677672
H   14.40938290334278   13.75955813050834   11.79534013291584
23
F:    ...  E:  0.0967817500000194
W   12.25116953272009   9.97408356191799   12.10223898546622
W   12.00807095315383   12.55486173324527   11.17968537133859
W   9.55608351165080   12.98023386398538   11.22259024703083
W   12.31886504628178   10.67771957784700   9.24453874624231
W   8.49747296179367   12.07170633682234   8.99401922896129
W   10.01635881354713   9.57861006203316   13.45741349383664
W   13.29060412011733   8.17748514588660   10.21628187473112
W   8.38006864670082   9.11855589752706   8.87140377072203
W   14.25261516785501   10.27204438249309   10.70491306455899
W   8.48434641233799   11.25749480867470   12.83338938643409
W   10.02642743153386   10.36576154745504   10.66505053063211
W   10.96578023472789   7.90298221729281   11.38752675433670
W   8.34155337022700   8.48383279765512   11.63852698944522
W   10.11220440864889   10.85542618039806   7.73654333800057
W   9.10343839500233   6.96462307348363   9.81272073554351
W   11.01566988494941   8.51653867101647   8.91687789432569
W   7.28274933975226   10.54273492901789   10.65368679073351
B   10.71655936796813   11.62339943162327   12.72960077728666
B   10.67775720504483   12.26477435890301   9.38491785406228
N   13.40417285811904   13.96346569468940   11.45387093389258
H   13.23446843074782   14.95583338140459   11.57723634506421
H   11.26923654551658   12.73729684812749   13.10991194710821
H   14.36824779406235   13.73445593096000   11.68097537270461
23
F:    ...  E:  -0.0802083899999957
W   12.26111466035652   10.01649009216875   12.06802063728241
W   12.01161459705506   12.54736516505852   11.12182219661112
W   9.59032468465431   12.96601141081758   11.20486228430839
W   12.34593120218683   10.70191945282593   9.24409304914088
W   8.53693914256147   12.07016412120490   8.94429721949873
W   10.01602626636327   9.57443779912515   13.38021701696104
W   13.31142003101001   8.19439802553194   10.17906927833130
W   8.35441138087890   9.11153883731587   8.83168196974814
W   14.28935704944520   10.25772701463795   10.69354103229286
W   8.51521297650345   11.25571031734106   12.81484097708942
W   10.01598576693084   10.36982620212519   10.63051858620746
W   10.99064885231735   7.92045521055705   11.34067346907646
W   8.31182834622754   8.44411965593020   11.57703821605571
W   10.10808860528144   10.84401183876366   7.72093221816656
W   9.12766637737019   6.98063645402890   9.76301785915996
W   11.03832045592996   8.53564886634713   8.87954699490105
W   7.32553919475446   10.51530604771746   10.61136548213427
B   10.74249049130657   11.67638749457294   12.80680976659476
B   10.69234394687051   12.26786473940131   9.34246773495117
N   13.35576221389350   13.96695684669303   11.54582924531302
H   13.15974755424417   14.94494095066774   11.74528694833011
H   11.12176693222615   12.62341807857745   13.54499126638178
H   14.35137970409188   13.78858581105052   11.58299698392085
23
F:    ...  E:  -0.160639000000003
W   12.28270459988241   10.03444962059292   12.04597699605744
W   12.00766946686768   12.56566092660603   11.15626010186547
W   9.60501314704544   12.96879312939408   11.21675450395884
W   12.36533568303062   10.72875302747475   9.24002497944776
W   8.56699551374690   12.08950931258662   8.92829382627973
W   9.99836405477134   9.52844006585370   13.32554334108894
W   13.33732655911171   8.20989559188455   10.14170725772220
W   8.38346357358117   9.13038545600850   8.77740337828046
W   14.31631111492469   10.26734814102492   10.68146287769019
W   8.50666915660648   11.21598055260455   12.77351700631926
W   10.03514723721610   10.37399122406618   10.59482741605786
W   11.02347916642657   7.93435276538238   11.30332630057159
W   8.30921585132638   8.43243457823987   11.50870921356407
W   10.13565617868533   10.88086312475211   7.70032262329668
W   9.17262215865738   6.99817515858885   9.71013312372925
W   11.08166338764176   8.56841470730030   8.83651224580733
W   7.32737527604745   10.50745633349172   10.55339048574169
B   10.74496891205018   11.67445490938013   12.84528282397513
B   10.71680993712556   12.29040159255706   9.34009886802536
N   13.31967417006278   13.98891611770027   11.60491108210860
H   13.12103859860013   14.93883654598061   11.91591181809238
H   10.88804560663676   12.38483065970975   13.86271313824185
H   14.32837108241367   13.86157689127899   11.51083702453703
