23
F:    ...  E:  0
W   12.88265975196555   9.64040249245634   12.44582650977422
W   12.75731295093391   11.96956416356492   11.11923774057091
W   10.42756887054426   12.80558217797709   11.28899253521959
W   12.91242107881156   10.43874300652675   8.92098263074659
W   9.14851114497432   11.83324703961882   9.27973362769229
W   10.59039058553743   9.35817770726836   13.48664687922274
W   13.88507088630425   8.07351997820209   10.24682611130526
W   9.07129209462949   8.73149092041692   8.90950835187982
W   14.65389493662614   10.21593542005654   10.73837475334032
W   9.12011288627424   11.06662953928865   12.66347170603233
W   10.74623781973735   10.02265601266966   10.66138905440269
W   11.65484707466456   7.62025717085558   11.45203892160711
W   9.04883927027052   8.10983563047197   11.65991533447948
W   10.63810787720872   10.64053544209250   7.82430732228790
W   9.88560129080697   6.58426278339058   9.87564639006966
W   11.67619441015172   8.19187941750399   8.92834594760381
W   7.90496646172329   10.00945148102376   10.63450878956222
B   11.32770601412621   11.26514657213277   12.67730505219811
B   11.35571319594680   12.01081839771575   9.38745198980417
N   10.02377511471759   14.97993186737969   11.78056761559066
H   10.20965549427348   15.59174435889193   10.97976722029745
H   9.04479556305520   15.11504705224377   12.05316842481740
H   10.60824565917525   15.29906180071008   12.55990752395422
23
F:    ...  E:  0.0262762399999872
W   12.86578048558665   9.66930836033315   12.41613463438357
W   12.72536372445824   11.99534407827394   11.07916915851719
W   10.39190915534462   12.81041435195485   11.23485990386204
W   12.90005610517841   10.46006892751351   8.88745529507738
W   9.12944827198521   11.83131206260036   9.21057260721464
W   10.57603178034335   9.37110959745780   13.45929017553248
W   13.88199208506012   8.10268534670132   10.22158362307450
W   9.05551950296687   8.74539484432389   8.87742052041452
W   14.63564391700921   10.24939235090096   10.71249609328196
W   9.09614001228547   11.06292904265441   12.63446959482202
W   10.72780410359709   10.03456902981897   10.62217860492047
W   11.64974487696572   7.64658344040564   11.42521426830084
W   9.03494133350940   8.12921679456598   11.63168838973983
W   10.62980157630709   10.64070532933775   7.77377381265690
W   9.88330918344429   6.61056982190075   9.84532280073757
W   11.67673089217566   8.21305294904915   8.89682418018036
W   7.88835149026900   10.02450656311903   10.60085968998398
B   11.30087086578537   11.27943508847702   12.63678213726866
B   11.33127265124721   12.01959177454942   9.33548908095143
N   10.07439935470532   14.91992166819290   11.92005490315698
H   10.40813193378372   15.63681688568793   11.25559514330046
H   9.09098236162070   15.12708477453654   12.11383959011910
H   10.61969476883014   14.99390735010309   12.78284622496201
23
F:    ...  E:  0.153815189999989
W   12.85241444860353   9.69714514701760   12.38924729046141
W   12.71123631121417   12.01921552582526   11.04932646885508
W   10.36973523109117   12.82322071438238   11.18426583700885
W   12.88866129170798   10.49119725268112   8.86085452651789
W   9.11266534779348   11.84689657336490   9.16211055484738
W   10.55772825896152   9.39286159874677   13.43101108962320
W   13.87336353391141   8.13387498617439   10.19483198040104
W   9.04499690458086   8.77044253053957   8.84742574893928
W   14.62346240056629   10.27937957884594   10.68960441733582
W   9.08030468407644   11.08154939519963   12.60588637463803
W   10.71354567229136   10.05381169574411   10.58804263090120
W   11.64113433846495   7.67671533794310   11.39807181865633
W   9.02204289235105   8.15917910922579   11.60255648255467
W   10.62083443768414   10.66259102613039   7.73622219549136
W   9.87799227447321   6.64190923340351   9.81512003047423
W   11.67164216802558   8.24260599297110   8.86780427250812
W   7.87327681397670   10.05084674635812   10.56932013218881
B   11.28508547071718   11.29474720648720   12.60378511814532
B   11.31633115494048   12.04209401668334   9.29382824297053
N   10.10243157973019   14.85177043063843   12.01242934846412
H   10.58854318734452   15.65019884041985   11.58128306456670
H   9.14496206222552   15.13074056722041   12.19090391293864
H   10.60152996772728   14.58092692645532   12.89998889397034
23
F:    ...  E:  1.43112753
W   12.87747474599878   9.67103468941671   12.39327299527995
W   12.73435457840461   12.02520108289837   11.14020582749854
W   10.38088325112119   12.84600175079430   11.26097314528194
W   12.88033568149926   10.55623332815872   8.91083271749306
W   9.06585453109747   11.85883780394342   9.25860648429633
W   10.53022762365134   9.37179583613066   13.42557362002520
W   13.86761476926124   8.14751548080242   10.17636478821524
W   9.06462685050505   8.79823319479441   8.84433274462045
W   14.63549685440026   10.28570294111023   10.69276270875254
W   9.10709033168537   11.14118987078426   12.65207304805227
W   10.72071868674982   10.08322103126749   10.61631649682779
W   11.64158617432938   7.67699132217633   11.38955238457664
W   9.03078246907171   8.19784025768417   11.58778217396287
W   10.61311394403043   10.75527445783630   7.81245089677767
W   9.88163896186257   6.64752251461569   9.81478264687991
W   11.65145828263467   8.28787869495927   8.87419795666161
W   7.85959010614353   10.07526518852653   10.56824777755850
B   11.32064922905929   11.25704538084969   12.66009893977504
B   11.30881994642287   12.10690696889808   9.38541894382445
N   10.01802138636890   14.86441186060919   11.76588916200781
H   10.54937746969295   15.72211628914974   11.61241018712629
H   9.10358458791930   15.12496932500692   12.12883790929282
H   10.73061997054872   14.07273116204546   12.60293687767129
23
F:    ...  E:  0.662568929999992
W   12.86925629666661   9.63188959266044   12.42639785940481
W   12.73793293635923   11.98237349913074   11.15727472171629
W   10.42925168214685   12.99634723411925   11.42639069199699
W   12.89635093408894   10.54199813090022   8.92990566086083
W   9.05628998810989   11.80804360073956   9.22683800553509
W   10.55694329209805   9.38093657278568   13.45445900358665
W   13.88366678030875   8.13325396849869   10.18026548026844
W   9.07289455534206   8.81657431563372   8.87705124453089
W   14.63777640903994   10.26803949380794   10.71403064606950
W   9.11280869447355   11.13550766062403   12.65138938295572
W   10.70171358437945   10.11138145283239   10.64047615436045
W   11.66476816776891   7.66568073875250   11.40489815538642
W   9.05132400707241   8.19894300121785   11.60969028760091
W   10.61868460275653   10.74321611354265   7.83261980476287
W   9.88603900943470   6.66427082233958   9.82280287856763
W   11.67473172171546   8.28835568886927   8.88556585246016
W   7.83728192117658   10.09628104804557   10.60591883660656
B   11.32011341147118   11.25988318140806   12.66371879912943
B   11.27470207307566   12.10943758769932   9.44655925010581
N   9.74112234871843   14.94775528165909   11.33950870390779
H   10.39835446986267   15.70801178954648   11.42652889924086
H   9.06356759986023   15.17577230505685   12.09135579973624
H   11.08834594653290   13.90996735258857   12.76027431366814
23
F:    ...  E:  0.45466755999999
W   12.88306618309880   9.64426802877709   12.41262721379071
W   12.73157757829632   11.98550659326647   11.16983725318726
W   10.42221265449635   13.00559112811903   11.42043026066681
W   12.88267137355831   10.56931646619619   8.91418423709993
W   8.97743477338648   11.81920529989347   9.30415486534211
W   10.51253820552854   9.38174999288939   13.40672278330919
W   13.86801191199737   8.17384302573250   10.16656255908924
W   9.09045792546178   8.84241257315119   8.82943129718598
W   14.63746928865044   10.30676667022922   10.70212417954728
W   9.07344787271343   11.16905467532929   12.60758083477052
W   10.67609294801303   10.12874790342253   10.60798390146336
W   11.64841595048029   7.68114839122291   11.38908561779871
W   9.05378098009994   8.20418846555872   11.57810556094425
W   10.60744837812038   10.80719070772052   7.83294266386141
W   9.89677297557319   6.65552714717281   9.80376662906550
W   11.65727058076139   8.30993342323759   8.87573804084595
W   7.79038079156883   10.10129407408470   10.55679535695789
B   11.29032210234099   11.23097632277071   12.63217505284835
B   11.25062317879049   12.14157790674383   9.45039511900979
N   9.84320966492278   14.95169571862943   11.47373125892273
H   10.45682202200283   15.69197764548001   11.74706163297938
H   8.93680929346564   15.22755794710339   11.84616805131406
H   11.38708379913131   13.54439032572751   12.84631606245792
23
F:    ...  E:  0.431855229999996
W   12.84936002426186   9.74309275397438   12.39968774945892
W   12.73663387650364   12.01310499894101   11.11548520586298
W   10.39250249798074   13.02871417861960   11.31106238712342
W   12.88018733399752   10.57335851748319   8.86992091648816
W   9.00839040491760   11.88057261645551   9.32450345497278
W   10.49968107349236   9.47374012454393   13.40991086530534
W   13.85101721767881   8.19065779679303   10.20303315129653
W   9.09604442491580   8.81299293824247   8.83707636959526
W   14.62919228818931   10.32829009225807   10.68082011952245
W   9.01428790563344   11.14999045344565   12.54047093139773
W   10.67355030984183   10.15326654543857   10.62416793938472
W   11.63561448795419   7.72840842945306   11.39817756183807
W   9.05605190980330   8.20634942712193   11.58717606794552
W   10.58061575658713   10.80218201324055   7.82354925307631
W   9.90517238828025   6.65746201287891   9.80121167793110
W   11.64623001605266   8.33138873016344   8.86933896548155
W   7.78700497348428   10.06626774415280   10.54108906810742
B   11.26755061057523   11.37975169080576   12.67210303425773
B   11.27154220877313   12.12087315110506   9.40606304084850
N   9.89920911546650   14.94576313074631   11.61921068222198
H   10.51465064277271   15.68530620869442   11.91045022707231
H   8.95233858926874   15.25210216467707   11.77838716916103
H   11.42709237602779   13.05028471322355   12.85102459410842
23
F:    ...  E:  0.129213529999987
W   12.82278594761104   9.81013325831797   12.38224887318136
W   12.72935653329505   12.01997419232489   11.02070515436095
W   10.37496657233106   13.02440971810287   11.20290085055712
W   12.86890045565974   10.54926439150247   8.81317149162463
W   9.04189233652525   11.90745258532665   9.28238587288902
W   10.52752572510545   9.56233648856626   13.39089486974554
W   13.85784058931488   8.20616915974639   10.21180286836877
W   9.07679135261554   8.82595319667126   8.85100246907693
W   14.63575805461384   10.33175477979914   10.67796435319907
W   8.99690373834560   11.11411399025828   12.44973888411625
W   10.65580742176336   10.15421801741849   10.62042060162049
W   11.63952078565194   7.77490925176769   11.41240559526788
W   9.00037821966580   8.18888736878118   11.57253690906845
W   10.56363674957700   10.75806688605327   7.76599913416241
W   9.91836105903099   6.70579685215175   9.80207901732430
W   11.67364799491972   8.32568856791306   8.85790537624557
W   7.73866069763219   10.03985434398732   10.55250859868056
B   11.26976716720788   11.62224686763558   12.77314283955501
B   11.28242422326732   12.06813452430596   9.32544674098231
N   9.91576316250202   14.89261883830265   11.71169948088734
H   10.56578084442919   15.62396757699049   11.97081987419494
H   8.98740619325515   15.25496032392615   11.75365833705681
H   11.43004460813886   12.81300925260898   13.17248224029250
23
F:    ...  E:  -0.0339572500000145
W   12.79907243930889   9.80707594587091   12.35165624781349
W   12.71763935417947   12.01169620107435   10.99279842501133
W   10.37971117055096   13.02752943957540   11.16621056044729
W   12.86012307338507   10.57298936229574   8.77908009181204
W   9.04770575102440   11.91166492161118   9.24808821483444
W   10.51849556826989   9.56802130778372   13.33623110043048
W   13.84905193410686   8.21561088596191   10.15147544918301
W   9.05424413626166   8.87710701130361   8.82120358035761
W   14.61593561380317   10.34429675860265   10.65588541868541
W   9.01323519001390   11.13352346491552   12.42402441267736
W   10.65252764292554   10.16375166730057   10.59184910723523
W   11.63130290312574   7.77914329693007   11.35402071784847
W   8.97871896784269   8.18378560182195   11.53221569077023
W   10.55108429041889   10.77854935600821   7.72065390738247
W   9.89817527860147   6.73683530740128   9.74395320482222
W   11.66699623237851   8.35528338430654   8.80552180170763
W   7.72391010666348   10.06826055272443   10.53425016143842
B   11.26630286162703   11.63758941037421   12.82538196568390
B   11.28574991006542   12.08573838368891   9.29562209786164
N   9.94109867184527   14.86548701031319   11.77636425646048
H   10.59893137616231   15.53269596114582   12.17368153880143
H   9.02610475093159   15.28127359528472   11.74502523149685
H   11.49780320896704   12.63601160616379   13.54872724969614
23
F:    ...  E:  -0.0133254099999931
W   12.79955301328734   9.78058418002693   12.30284634756818
W   12.72335399479147   12.01692921610280   10.97088689214253
W   10.39834618349405   13.03458069485344   11.17437565978458
W   12.84992813847816   10.60009744723184   8.74826534052341
W   9.05404106551102   11.97410177092881   9.22125325593444
W   10.49382048495697   9.54854850051511   13.33056018922616
W   13.82636496868600   8.22410442940047   10.08723146043946
W   9.06568580590993   8.91498390929240   8.79742711886416
W   14.59842305636740   10.35962474193852   10.60914837512591
W   8.99662216023930   11.16604263732373   12.39516078714854
W   10.64683145787457   10.19604894228909   10.56701407372146
W   11.62705192488735   7.76704615087248   11.30017739041398
W   9.02457326244138   8.25497503018293   11.53403916076084
W   10.55185452027198   10.81759368323211   7.69974794478957
W   9.88962042318852   6.73266748395827   9.72649689691615
W   11.62778484816084   8.36603643593587   8.76603984960813
W   7.71462989166322   10.13657551346634   10.48145864506741
B   11.27078232388777   11.60218899281527   12.80775936066037
B   11.29180102769693   12.13147895909317   9.27496498604403
N   9.95349040990020   14.85002235205381   11.86369433142710
H   10.59134156635086   15.48104306336438   12.34833453570894
H   9.04794801856130   15.31072440388852   11.77025636057169
H   11.53007188585195   12.30792189369233   13.79678147001179
