38
F:    ...  E:  0
W   13.30268238933895   11.50059132050491   14.22991686139103
W   11.69029006426099   9.61765481569224   12.99145314387989
W   13.91544607809009   10.96101306520095   11.68101991695951
W   16.63034975432406   10.65339493703800   11.95053948715523
W   15.74410956615970   12.57217724548151   13.29808500057726
W   13.28757252567009   13.66954264541259   12.82761481027593
W   11.21482403652909   12.06842202489796   12.09987289089153
W   15.52563695986802   13.03953291457714   10.80725503808691
W   8.51649824565296   12.04611433555973   11.75645722879559
W   11.44970481381630   9.71723798975102   10.44769481953663
W   9.27731953348539   10.38214213772648   13.70957589435991
W   11.62251123927838   15.08635440634505   11.25673673147502
W   9.39590908274776   12.91445063456426   13.98436086551600
W   12.95229917322521   13.29439120092914   10.12438423267627
W   10.19048745062864   13.61283758851492   10.00157397671517
W   13.55705355546778   8.22690364298374   11.59487363365472
W   14.04518409788513   9.35934976521002   9.54386098507594
B   15.19668684548864   10.43965878566271   13.68205181899433
B   13.86504904785462   9.41121382757136   13.55228683720545
B   15.26074286084508   9.10836977468846   12.62501581462194
B   11.06100583285145   11.44445306951469   14.43613238564112
B   11.65148424064611   13.03278809144854   14.28546257843950
B   11.09541697735109   14.23922795636699   13.23734906553777
B   9.73825726688809   14.04486936851580   12.09461616654846
B   12.83700591323223   11.12997924318251   9.35551480245952
B   14.20545462243995   14.84404051974667   11.12184590787565
B   9.81077629076068   11.36961528543594   10.04125137674563
B   8.23284896751672   9.80086766351870   11.96985163224265
B   11.32873300390042   11.80190375082554   9.57557955802952
B   15.28788454415490   14.55131620261608   12.35372916754418
B   14.39755745831091   11.70664507583673   9.40984997897844
B   9.12371467917358   10.00412465693838   10.62320539556957
B   15.68059416085930   10.86403133149809   10.06634899496648
B   9.76303861716786   9.08109115463852   11.93909496324267
N   6.44741451950339   12.47211545256840   10.84421866511031
H   6.43553139499302   12.30353005142295   9.83484489895473
H   5.77030724652003   11.83399995094203   11.27161453176329
H   6.12775573475227   13.42918690830943   11.00999873414496
38
F:    ...  E:  0.0310013800000206
W   13.29918535866888   11.49517656085471   14.21513120681718
W   11.69625925138341   9.59199717248423   12.98482394157449
W   13.90739455751881   10.94754405139116   11.67059303293521
W   16.62464609705179   10.65352979919485   11.94176470275794
W   15.72889126309378   12.57360852450572   13.28459923807643
W   13.26935206866518   13.66309065820762   12.80689820747168
W   11.21215477162108   12.04509594327298   12.08474672549383
W   15.50888674927639   13.03212537322087   10.79445229332927
W   8.51911568841663   11.98785990338192   11.75072752682495
W   11.45558710022640   9.68877106246397   10.43825149929360
W   9.28923042916829   10.33632186638552   13.71175688983572
W   11.59484736473295   15.06302161693950   11.23393750603504
W   9.38350388051297   12.87685690728884   13.97259970368122
W   12.93345670991717   13.27497562633842   10.10486236219282
W   10.17345112029945   13.57393124152431   9.98429837196620
W   13.56317476600997   8.21045655165600   11.59356454482165
W   14.04749806176651   9.34191357763942   9.53935149352766
B   15.19411221470676   10.43803764180246   13.67250863087120
B   13.86575466249617   9.40401263868518   13.54884004908238
B   15.26089455590074   9.10507236270695   12.62157997290643
B   11.06110631130855   11.42427450795792   14.42243090276838
B   11.64101766049185   13.01635219808654   14.26891329863262
B   11.07363611578623   14.21612591255607   13.21899744833870
B   9.72167230030857   14.00576316226627   12.07541592681878
B   12.83205195612870   11.10764989971034   9.34188109505283
B   14.18213811051997   14.83278169930892   11.09956617758778
B   9.80841669014823   11.32666656754828   10.03133656352153
B   8.24382416101730   9.75381820848449   11.96665569388151
B   11.32067542259729   11.76730179673096   9.55860422486291
B   15.26332289197850   14.54960502165966   12.33566205014460
B   14.38872213005615   11.69324399035747   9.39693526289972
B   9.13008671611261   9.96116285039421   10.61760784226713
B   15.67596202521633   10.85725476564689   10.05599128433143
B   9.77627522705713   9.03841364648470   11.93451854398030
N   6.49434051032757   12.61581829771858   10.92046436580638
H   6.43402474846311   12.58891898478140   9.90228902232046
H   5.76069259141142   11.99690986594358   11.30054904992664
H   6.29977655127563   13.57967833605852   11.23203213900219
38
F:    ...  E:  0.12542811000003
W   13.29089069319905   11.49087227758671   14.19983571646237
W   11.70004775478664   9.56561678022542   12.97664163583354
W   13.89917407820507   10.93419735157089   11.66213669201972
W   16.61932031942988   10.65589864525773   11.93677456743177
W   15.71068737207395   12.57705431215154   13.27207481719474
W   13.24954267852632   13.65805288854392   12.78493840679521
W   11.20889795506188   12.02224865927753   12.06497627664997
W   15.49330580856341   13.02466956215112   10.78179774744236
W   8.51937560790463   11.92371475658935   11.72736041535645
W   11.46319463688788   9.65980230954962   10.42779239050604
W   9.29602689870173   10.29404467484563   13.71102534402835
W   11.56666553379678   15.03967164769135   11.20740448251712
W   9.36776322612251   12.83728390995202   13.95385584422858
W   12.91657224320804   13.25421567678379   10.08577744152340
W   10.15974642774171   13.53467782241063   9.95872094647199
W   13.57093712725383   8.19545151314779   11.59387168133255
W   14.05145936449663   9.32343657692788   9.53522478234542
B   15.18899670451679   10.43867112824582   13.66527458544369
B   13.86533747231836   9.39868290299405   13.54660105201533
B   15.26151873183000   9.10354633648896   12.62052821428698
B   11.05580068470182   11.40512999726917   14.40392254976978
B   11.62409655421190   13.00097271138390   14.24689045927490
B   11.04752138752518   14.19219343937918   13.19501486198126
B   9.70453419893321   13.96319937688577   12.04802695649510
B   12.82981993662344   11.08354231850607   9.32928980535920
B   14.16037734076995   14.82069023045750   11.07544820942532
B   9.80826071071941   11.28300315970051   10.01327019639745
B   8.25417209871428   9.70691728538446   11.95804713145084
B   11.31534391336311   11.73165738631540   9.53799814422792
B   15.23739920189844   14.54847220006529   12.31703879578568
B   14.38173718755398   11.67728072091695   9.38564140087674
B   9.13777590150557   9.91867009043662   10.60583203691334
B   15.67158788916286   10.84779204576416   10.04948313420176
B   9.78785140993005   8.99794687181853   11.92780221511820
N   6.52554144837764   12.79024159493077   11.01010499882616
H   6.43469764043955   12.91372150636118   10.01586151884622
H   5.76120497879184   12.17041321197903   11.32536809910516
H   6.49795567379049   13.65148491169443   11.47748523769805
38
F:    ...  E:  0.215014560000043
W   13.27224796585608   11.48831097741112   14.18201339027061
W   11.69751684788953   9.54727620341062   12.96851582646967
W   13.88725983362808   10.92245961948360   11.65488243654290
W   16.61240973938045   10.66020483446632   11.93557901949148
W   15.68892162042598   12.57901195704975   13.25910018006421
W   13.22334615350634   13.65528341181613   12.75970732207125
W   11.20313235469004   12.00532247108013   12.04227565538223
W   15.47846074386487   13.01578898148350   10.76787341449145
W   8.51927654947110   11.86229085694566   11.68331493088929
W   11.46443860199544   9.63684434913421   10.41959240974827
W   9.28891105968446   10.26335789875196   13.71541205227240
W   11.53808429966762   15.02175095799548   11.18102041891351
W   9.34112497800509   12.80176015300018   13.92703492411665
W   12.89934479776690   13.23733558919807   10.06366587538094
W   10.14953121867428   13.50692804489692   9.92521168675284
W   13.57375419060763   8.18594243641213   11.59230579641210
W   14.05405619990022   9.30655387053925   9.52918160253056
B   15.17816795356529   10.43986711918130   13.65962665289566
B   13.86041375486435   9.39267361620638   13.54237925109904
B   15.26013629159062   9.10279528890748   12.62096309786499
B   11.04024870532136   11.39105365764766   14.39206217041674
B   11.59469877206918   12.98982669103466   14.22102886844369
B   11.01098788055134   14.17156453106652   13.16574541060065
B   9.67989945642586   13.93147735655633   12.01075339894523
B   12.82500076227415   11.06167877781034   9.32073539516833
B   14.14264918394813   14.80713408996542   11.04619474142261
B   9.80998382860628   11.24685464343457   9.98314191041313
B   8.25494767486338   9.67293963470831   11.94648951873031
B   11.31193386792948   11.70308714426661   9.51912645674998
B   15.20798329150437   14.54428994288162   12.29817810133276
B   14.37293903096388   11.66200827039754   9.37664661719318
B   9.14095784224497   9.88812226608808   10.58984559615346
B   15.66371240396183   10.83621507643625   10.04588309512693
B   9.78920732238773   8.97705845884616   11.92296111609539
N   6.58992201937495   12.87843208914607   11.08475970408782
H   6.43470727872643   13.26814062617590   10.15887302130880
H   5.76386951165857   12.33214027243190   11.36825449455959
H   6.81095480379125   13.64135662537766   11.75480323122967
38
F:    ...  E:  1.33181725000003
W   13.23610458322895   11.48943446123999   14.16336948068337
W   11.68013304030483   9.56158088714539   12.98340769451270
W   13.88095265905635   10.92420837005024   11.65364230048576
W   16.61404514645085   10.68309084293920   11.93987836588613
W   15.67436364535555   12.58441111433436   13.25868562644909
W   13.18832064852790   13.66293293236093   12.73334574777217
W   11.17574703995587   12.02774467069282   12.04220241040625
W   15.48251623668105   12.99415696035897   10.75805468011780
W   8.46588586450487   11.87243929503865   11.60391980105131
W   11.44828023066632   9.65262864034289   10.44980742517844
W   9.24834580039717   10.30760379693880   13.73245348671093
W   11.53088613551434   15.03479985923940   11.17961526354495
W   9.29582887960705   12.79321821495480   13.89292242665114
W   12.89526983415232   13.24796588720188   10.03355753106549
W   10.15934730777671   13.54044637484608   9.88611325924901
W   13.56895949234111   8.19012119184478   11.59472269430183
W   14.04604182742971   9.30530754924695   9.53006701008623
B   15.16391022775319   10.44798400421947   13.65835992069191
B   13.85804048219719   9.39060884010463   13.53560259438152
B   15.26101060035754   9.11089557816879   12.61968593238237
B   11.01045426088213   11.39892410404365   14.44139782166796
B   11.55050174440390   12.99124022396193   14.20724110612221
B   10.96261099691606   14.17403015235460   13.14926330940669
B   9.66413414046906   13.95410509039753   11.96691883200012
B   12.81760208768386   11.05789987240036   9.33532749369091
B   14.15553790102590   14.78638892461244   11.01331281643561
B   9.81001425133563   11.27861762805776   9.95789608862766
B   8.22399106963889   9.72715844614796   11.94970735108652
B   11.31890987150003   11.72269670509698   9.52956744142697
B   15.18738883600612   14.52985201168315   12.28900893595909
B   14.36508651586425   11.65471605163178   9.37593981644271
B   9.13510465693524   9.93956185636701   10.59465983719880
B   15.65561889206896   10.82084859111152   10.04500845333233
B   9.76168699926832   9.03932795360583   11.93471732644667
N   6.61938554209405   12.77926712979049   11.00571585878225
H   6.37637184111363   13.38727487907130   10.25059449915388
H   5.82167504458690   12.23237504170683   11.36400012374286
H   7.32507445758689   13.33927465833150   11.97544802850737
38
F:    ...  E:  0.827365840000027
W   13.24180894081646   11.47641833300177   14.16613393426728
W   11.67158479297006   9.56747755201814   13.01052252033559
W   13.88752795942231   10.92510478019837   11.65204598487718
W   16.62242945602881   10.69005096898674   11.93549178890033
W   15.69503642918508   12.58811487266275   13.27082431041277
W   13.20998383215597   13.65997757729164   12.73947710248756
W   11.17324041211923   12.02949620518362   12.06834311708636
W   15.50163465349408   12.98814879163026   10.76727149321289
W   8.30325057908678   11.99900051675011   11.56665999223306
W   11.45083525045388   9.66351292879991   10.47408929658546
W   9.21421537939664   10.38312627352911   13.69903767956778
W   11.56036316778023   15.05797930104053   11.19689193085373
W   9.31623910892712   12.82869697446061   13.88113001298738
W   12.90597336084781   13.26700247042298   10.04087761422885
W   10.16767825121687   13.54894052945811   9.91638322912365
W   13.56146969117335   8.18544426208273   11.60867763209273
W   14.04264453991124   9.31754910761505   9.54572703426605
B   15.17493593599912   10.44935572995834   13.65279755023005
B   13.86188332592697   9.39326155110279   13.53037488472972
B   15.26054216534102   9.11393453475247   12.60911896954139
B   11.03230324654038   11.40226385641982   14.45582493303269
B   11.58801143353883   12.98837648549059   14.24009481962967
B   11.02356986762688   14.19110553797940   13.18686973526069
B   9.75578532954998   13.95179875473668   11.99068146073371
B   12.81563675374122   11.07725708020821   9.34597042158769
B   14.17579055416908   14.78455021678803   11.03055721381060
B   9.79917927369572   11.31900434718918   9.99647385724902
B   8.21025038571806   9.79045856614273   11.93579644542552
B   11.31061711361739   11.74283757666034   9.54441395441963
B   15.21287109787359   14.53195781056119   12.29945293961551
B   14.37187963321674   11.66527254501098   9.37444712364275
B   9.14334775879742   9.96330497584826   10.61128383000353
B   15.66527116296218   10.82764278409395   10.04034333595349
B   9.75746533728483   9.06398646890100   11.92325917486724
N   6.50558124345143   12.37492221007140   10.69027773049674
H   6.24682335755223   13.16170119982542   10.08335393013869
H   5.67920072289600   12.13705725696621   11.25948953856466
H   7.51827728715319   13.52904785780124   12.29467226918708
38
F:    ...  E:  0.479329129999996
W   13.22952346624825   11.49412070038954   14.15393085221573
W   11.68225860078026   9.60698538062881   12.98855709056594
W   13.88312527065540   10.94265389830147   11.66825554611606
W   16.60935789100568   10.69987042824074   11.93972974049426
W   15.68082490500973   12.59244527000803   13.27146553640845
W   13.16244948805399   13.67400156017191   12.72263650421258
W   11.08383796896125   12.08096488445728   12.05397323283586
W   15.50356612359024   13.00071107820882   10.76104113305263
W   8.28507093563876   11.91280703726388   11.54100525503459
W   11.44154567539317   9.68236925540455   10.46962925948299
W   9.23672248495473   10.36814845226984   13.70774980817479
W   11.52066289527073   15.03392291187161   11.21402206311218
W   9.29959468331372   12.77630339416115   13.98463692433162
W   12.90896677712418   13.26902692275887   10.02602690504209
W   10.17614895055579   13.54522139461094   9.89710916823468
W   13.56933330488391   8.19311095190582   11.59568901310146
W   14.03820859135818   9.31092259771954   9.54053407764155
B   15.16046505867576   10.44991748817291   13.66828393721628
B   13.85171008012443   9.39785156944294   13.53713865171401
B   15.25141064407491   9.12165512163281   12.62037168011408
B   11.01019488367076   11.41130221915457   14.47490433968811
B   11.55852544497524   13.00251361284592   14.22460361265076
B   10.92180469521990   14.18307774757442   13.18301163572746
B   9.60207269028957   13.94308590521044   11.97105339875175
B   12.82484525300919   11.07638480328307   9.34708056702911
B   14.17109418798695   14.79053146515590   11.02800911030046
B   9.78477551091149   11.33371840135760   9.99021286518325
B   8.19885166008750   9.76826464672068   11.95421971349420
B   11.31583615199960   11.73769819754606   9.53663712941941
B   15.19193041905997   14.52707323159253   12.30838545722104
B   14.37406232657920   11.66846109897642   9.38770928698099
B   9.12851078265363   9.98927337107093   10.62916060058315
B   15.66033887010915   10.83088955636010   10.04685536143648
B   9.74852614905355   9.06933318857742   11.92807892852623
N   6.48738634605390   12.38376813117086   10.76597531170177
H   6.22493588192057   13.10121551741267   10.09931302749017
H   5.63222119932776   11.97281589402760   11.17547111898819
H   8.22444254305773   13.69272150598261   12.22267094736405
38
F:    ...  E:  0.110384520000025
W   13.20420064313767   11.49728483665834   14.15220074576544
W   11.69350627641325   9.61329731369769   12.96229578579411
W   13.87399427828131   10.93969722408882   11.66534897083618
W   16.58783564332342   10.69354477690274   11.94762883695426
W   15.66054835959102   12.58844918125102   13.25447901751447
W   13.12477917469233   13.65496293110753   12.69790040580817
W   11.03077423689523   12.06919827499653   12.02807535735967
W   15.46842947769969   13.01354031611132   10.74389633405480
W   8.29102762409676   11.82303768489903   11.54438667417771
W   11.44702932108282   9.65361320369540   10.42173646142491
W   9.24222006550016   10.25478994597884   13.74668723070661
W   11.49560370720153   15.02133405954854   11.16559060035881
W   9.25388105910810   12.71363938924537   13.88592306675609
W   12.88978989203810   13.24625893325087   10.01486175136411
W   10.15452243630764   13.49512549606998   9.87180852620078
W   13.57033535812417   8.19322388069882   11.58928939744875
W   14.04750295574416   9.29644884842355   9.52963769764741
B   15.13737074455723   10.45176619822452   13.67741168242163
B   13.83966650829910   9.39590721309982   13.54720002797057
B   15.24046415328563   9.11578344098665   12.63422671713177
B   10.98226146006172   11.38439542176700   14.44658678752822
B   11.52468261478334   12.98548043287290   14.20306881103833
B   10.93517554325356   14.17822191670976   13.17107873315486
B   9.61630268649253   14.02054803738846   11.97281746307627
B   12.82713985982663   11.05980962659446   9.32801590312617
B   14.12736485999502   14.79761222178428   11.01585175189371
B   9.78599604557782   11.25683180177666   9.96319141216607
B   8.23643753772110   9.68919364947292   11.95415894032508
B   11.30861413600990   11.69535341286943   9.50894470637540
B   15.14764549709921   14.52689654155667   12.29825720602195
B   14.36233499645161   11.66366558427102   9.38174477093719
B   9.14876620925700   9.88908415619329   10.59023463018655
B   15.64835439426279   10.83601851184380   10.05253171426636
B   9.78840791746356   9.03615798767086   11.92368878141575
N   6.54753655388734   12.51910677780415   10.89752416073879
H   6.33342679663472   13.30811458235101   10.30996205780982
H   5.68023786621990   12.02259001045512   11.15813030422701
H   8.38097190126143   14.03515496932395   12.37876536965497
38
F:    ...  E:  -0.065086449999967
W   13.19744506172486   11.48228835827775   14.15175072086202
W   11.68728341422255   9.60314813558464   12.95343249923775
W   13.86261963836824   10.92468258389969   11.65079290751606
W   16.58059727292066   10.68425741719182   11.94141297905122
W   15.65008277126483   12.58105900194922   13.23867115369262
W   13.11953329275106   13.63893241336868   12.68753921619826
W   11.04004169750179   12.02032810911741   12.02190132363275
W   15.44936369099960   13.00560098334447   10.72871045661236
W   8.31404903552823   11.78768354794293   11.50109295611661
W   11.44351068076453   9.60416991573746   10.38764891892681
W   9.22223212582840   10.22544077130797   13.73774314148012
W   11.46712357325517   14.99607030061536   11.14161493534513
W   9.26947887256011   12.70618167463858   13.83508463635244
W   12.86472896374572   13.21612433315119   10.00398954718745
W   10.12107924198244   13.45223549791022   9.90488634078069
W   13.56909155447368   8.18695019583818   11.58288732571991
W   14.05634652174566   9.27772586924316   9.51487644378052
B   15.13057171020193   10.44663994482842   13.66762277960394
B   13.83703851850333   9.38283945688381   13.54468485515878
B   15.23735426731519   9.10496288713478   12.63310159010247
B   10.97038385735337   11.35451657526506   14.42854464279095
B   11.51394460582203   12.96008294878750   14.18119668319178
B   10.94709174650745   14.15943232421897   13.13463133988439
B   9.56268175597270   14.06853739072072   11.99097823402670
B   12.82051117735314   11.02879607181227   9.32231593970062
B   14.10595925962526   14.78061694368012   10.99016903549581
B   9.79171403144313   11.19703533061109   9.92898128178460
B   8.24119474993766   9.66589442667255   11.93799456802505
B   11.29426007111438   11.66053901739422   9.46732407821957
B   15.13054373187324   14.52132043652748   12.27190377402234
B   14.35038938139392   11.65058891865014   9.36820151914858
B   9.14398675898724   9.83103441802729   10.55623991955856
B   15.63758799343092   10.82587244541537   10.04585556778543
B   9.79638647691230   9.02671737903698   11.91105053367452
N   6.60901466442014   12.64902254778922   10.98717316511446
H   6.43218781794507   13.55748347401432   10.58282666667713
H   5.73137273321448   12.14320547885220   11.13877360922434
H   8.43635607267292   14.22712126620481   12.56153350595585
38
F:    ...  E:  -0.127723939999953
W   13.19954299289289   11.45541625952787   14.15425370435970
W   11.67245286320508   9.57138057754366   12.94610505780116
W   13.85464080363623   10.89103183843456   11.62947039073027
W   16.57381780628048   10.66938202488664   11.92962369031999
W   15.63821343630983   12.57148959731793   13.21599320789655
W   13.12452293477772   13.60795674581849   12.66746350239763
W   11.07188409686358   11.95626241688143   12.02230771347321
W   15.43279786883656   12.98692099992816   10.70556645243345
W   8.34093105619665   11.81432607630546   11.47988775959264
W   11.42756975444329   9.56432611099727   10.36125476646015
W   9.19929020246125   10.21881382235794   13.71823616488983
W   11.45400181749162   14.98360375830779   11.12876292920645
W   9.28958890850830   12.72086102152341   13.80199096008037
W   12.84094379578761   13.18599409223091   9.99489769467107
W   10.08915214901641   13.40828907541852   9.92648178142857
W   13.56790074487392   8.17573506559263   11.56332347521298
W   14.05579545203083   9.24993491524035   9.48770571558813
B   15.12686220225205   10.43595146285524   13.65512842671529
B   13.83554253721563   9.36301508278095   13.53499605368881
B   15.23728448183711   9.08999957440781   12.62347727970473
B   10.97792137490588   11.32892556827981   14.40937747510399
B   11.52628387411238   12.93612971949761   14.16244608661869
B   10.96840788298437   14.12410094686444   13.11201701661541
B   9.53824565718814   14.11329522755671   12.02959216649284
B   12.80625613669643   10.99535847836770   9.30716248203861
B   14.08259382491181   14.75860853840736   10.96167273669448
B   9.78835190660193   11.15671642296904   9.89492420038020
B   8.22249360011309   9.67829626087761   11.92010836150495
B   11.28006947732935   11.63776157004987   9.42661996248567
B   15.12971407343554   14.51755124643545   12.22848478790612
B   14.33438352821270   11.62339556363121   9.35306442676141
B   9.11891930173298   9.81200830498428   10.53183940613717
B   15.62515723513694   10.80241680016510   10.03467648252893
B   9.77915858674970   9.02711581904274   11.89795868342675
N   6.65911200767327   12.77114121696651   11.07936923599519
H   6.51682395576077   13.76237206806313   10.88586189442979
H   5.75774654483619   12.28349544632798   11.10991023082027
H   8.49076391834024   14.38575907479461   12.74312642904712
