35
F:    ...  E:  0
W   9.71263473308882   11.97578092991206   11.79543386796057
W   10.13661743247752   14.65068326370315   11.60158617580515
W   8.83871268728005   11.86754869370793   14.39464865365952
W   11.10923398783115   10.69283851639590   13.97735916178902
W   10.93166399435199   13.34473883904789   13.92417801990437
W   13.05278550471369   11.97942716297277   15.01148611342493
W   12.54838819944091   12.21785573620551   12.05303213628410
W   15.01824746289995   12.24789359680936   10.70932484769214
W   11.08195708138518   13.00771816098661   9.75039256232666
W   14.31221756209626   14.40172508723628   11.81034342946353
W   13.75117658546075   10.12583957655930   13.42531520193686
W   11.27460032293034   10.37651726733952   10.09406586780546
W   8.54305360332312   9.77208484015077   10.79485079183317
W   9.05451755376997   11.33115151313333   9.05593683621661
W   13.87471162767551   9.89968069268054   10.75566472152124
W   14.97754401827189   12.44153606743516   13.28315203495997
W   7.21816565548993   11.99742950497897   10.65229482197933
B   8.83366552737401   13.46374120770373   10.11348253192103
B   8.09650161841760   13.81746897207081   11.62157490340702
B   8.84293519062845   13.77934431132519   13.20319319818836
B   13.22275046066207   13.80131452858477   13.70464923731535
B   9.07959509080662   10.07411406205308   13.06682924317089
B   7.68944622975071   10.96396828437602   12.59968724204264
B   12.28221170397140   14.50748157106786   10.88104502731551
B   13.29267538216301   13.42911710807799   10.02506369462280
B   10.39756170495973   9.68098312637564   12.06161646418783
B   15.41518178652885   10.53002190477557   12.10015733357366
B   13.03485679206598   11.75547164016773   9.73685565150589
B   12.08008959184579   9.78095870446006   12.07901513768772
B   12.19955786793095   14.61626521500558   12.59355633319103
B   7.56892210459217   12.64452625313233   12.77436471558930
N   14.83723183175678   8.24701769493544   9.56045271786765
H   15.81580110143956   8.49295808498972   9.38212792198187
H   14.84430606382641   7.37260153217837   10.09507184754503
H   14.38024197092930   8.06195638160116   8.66195158645990
35
F:    ...  E:  0.0269931600000177
W   9.72686651071492   11.95324165433309   11.81000591797153
W   10.14047111604236   14.62814128436435   11.60381046155484
W   8.83725181537366   11.85173470966571   14.39923426826332
W   11.11426568804614   10.68005198644802   14.00463038239570
W   10.92836276954374   13.33535642807068   13.93726343299781
W   13.03938702592056   11.99522029163218   15.03914652156522
W   12.56846004748552   12.20468050260294   12.08289484494687
W   15.04366856485820   12.23799409221973   10.75491727923509
W   11.10235441285384   12.97900105607658   9.76534520323944
W   14.31886865556280   14.40814937389763   11.83732813211783
W   13.76819876219090   10.13401703742983   13.48050335881502
W   11.30072376960488   10.35866274508266   10.12570495707799
W   8.56189022447280   9.74673008555698   10.81031428119764
W   9.07685242055152   11.30271378212874   9.06977308253830
W   13.90406479127198   9.90887328188435   10.81029588666575
W   14.98819001685397   12.46765533681538   13.32412796760693
W   7.22769667757407   11.97218969380770   10.65448284572441
B   8.84848203355179   13.43095491078743   10.11309036215911
B   8.10406909066467   13.79265147652966   11.61836326991727
B   8.84373982765092   13.75864832412264   13.20574156268102
B   13.21797853248613   13.81995558188030   13.72838192742183
B   9.09051045375464   10.05615693585126   13.07876703641750
B   7.70041822909139   10.94391369137993   12.60423227167608
B   12.29319158032277   14.48201539638824   10.89847192756867
B   13.31593960978867   13.40728601956973   10.05856592514905
B   10.41742645106438   9.65230387948886   12.08424751692283
B   15.44185222489625   10.54239541007297   12.17478602501957
B   13.06703154019123   11.73527566111422   9.76303263434795
B   12.10299732138457   9.77252439508448   12.12311867943120
B   12.19533478713987   14.61000037723989   12.60174968411947
B   7.56953713889531   12.62380546915258   12.77218425789667
N   14.76362584965220   8.31931491584211   9.42389466286557
H   15.76388992990724   8.34931360092602   9.51122753174468
H   14.44670540731249   7.39292718917854   9.66090049909045
H   14.51945675546048   8.49590345551134   8.41922543379422
35
F:    ...  E:  0.0812961700000301
W   9.74724226206864   11.93591200596881   11.80348928026235
W   10.16338886564301   14.60779176705045   11.60737740606693
W   8.83511147367049   11.83270207902304   14.40281246030501
W   11.10865123113058   10.65532775448040   13.99258816542275
W   10.93913794091305   13.29861851076822   13.95377923838733
W   13.10001641832324   11.99818126417543   15.04195297012808
W   12.57760193087604   12.15673231033365   12.10398030931852
W   15.06069015433498   12.16981418926588   10.68712648647506
W   11.11445391864741   12.93735286113270   9.77959567964947
W   14.33234413053549   14.37900819640832   11.85127822598888
W   13.76586499179580   10.10673942020163   13.54734024827000
W   11.29246341114625   10.34095093144044   10.16985658445454
W   8.56199906228212   9.75952208083363   10.81561230269816
W   9.03619219705952   11.33442040092821   9.06134149463539
W   13.92637636695834   9.89510222066182   10.84117084342405
W   15.01050188659742   12.56286009509585   13.46039672516968
W   7.21044972076691   11.97736530961811   10.65402496440047
B   8.84565002371993   13.43376154126221   10.11531820790292
B   8.12221374566330   13.79540582945991   11.62932772739547
B   8.86622367966500   13.72858294279562   13.20254177822075
B   13.19231799736457   13.83439155133925   13.76183542734100
B   9.10021959705573   10.02637249494966   13.08261783899704
B   7.71803580165421   10.92951573366497   12.60955762012321
B   12.32534603695450   14.43197258946537   10.91524854903465
B   13.31438687911100   13.34259718882039   10.07095389858134
B   10.42449083291224   9.59450316752340   12.10845044583959
B   15.36464784125559   10.74158397083604   12.26177168114308
B   13.06509078571780   11.67731154802553   9.75766186997215
B   12.13307352395353   9.67616443890812   12.15762014314806
B   12.21247461285700   14.60731671655814   12.60647918301708
B   7.58005654408233   12.61126326028331   12.76151770975468
N   14.71597760234967   8.39370126482270   9.32425306460556
H   15.67146097309850   8.18349223971865   9.57834577906505
H   14.19947540890302   7.50769054277767   9.22537891284632
H   14.71613218307032   8.88573161354080   8.40715681009152
35
F:    ...  E:  0.142857550000031
W   9.75084443692151   11.92395135993128   11.81156358358644
W   10.16106083179687   14.60195735493777   11.61619153568483
W   8.83579113608887   11.82662664532866   14.41890667751333
W   11.09971576506747   10.64364352716871   14.01751832746802
W   10.95234500580584   13.28441029455465   13.95448490641264
W   13.11492746346995   12.00108337983954   15.04623736505615
W   12.56840246590090   12.15280140625607   12.09982302529370
W   15.04045108289099   12.14723897058336   10.70107715626426
W   11.10465211717600   12.93330184351559   9.78863469391444
W   14.33345093511727   14.35690890493844   11.82720509703938
W   13.75782255345311   10.09298602704875   13.55985853200829
W   11.28591347323392   10.31833687011521   10.18685443004609
W   8.55344912354599   9.74941434226168   10.81282433959309
W   9.05910093356268   11.31785845004308   9.05829167769530
W   13.88862477864628   9.85705619043057   10.90134029119459
W   15.01890269813354   12.52063103132954   13.44823971050868
W   7.22591879913163   11.95969310588126   10.65204841629636
B   8.84933763284527   13.42996352505335   10.12642862684736
B   8.12440081631195   13.77776611899873   11.64197288553057
B   8.87372542272816   13.72081925861955   13.21454393465859
B   13.22410824660205   13.81781629011126   13.73922699992082
B   9.09201804671812   10.02129405430259   13.10165587998315
B   7.72042351640198   10.91391266993498   12.60874245480797
B   12.31716134617121   14.44417486142035   10.90578776857983
B   13.29932507227528   13.32996726573956   10.05545819549175
B   10.39969978462598   9.57895265556602   12.11946657494062
B   15.37487940630487   10.70075500736776   12.26010155235754
B   13.04841524130840   11.65297912550693   9.76280393177814
B   12.08917910545727   9.67618959258740   12.20604077457336
B   12.21780005761968   14.59622445118971   12.60910777355265
B   7.59651248230036   12.59062828362804   12.76854077377359
N   14.72898940341683   8.45675531163086   9.28348006469931
H   15.61330364282996   8.01592058080343   9.57769148228235
H   14.10621267494527   7.76962126050240   8.87169669539405
H   14.92289453333264   9.16812001501214   8.59591389738873
35
F:    ...  E:  1.30431583000001
W   9.73817490647761   11.94116770522473   11.78771672868413
W   10.17349538568337   14.60503080866255   11.60577530731431
W   8.82865598110852   11.84012792172274   14.40004776012914
W   11.08846511539260   10.68618124359196   13.95505544853874
W   10.96428247524913   13.31307382288299   13.93667160200972
W   13.14919762029851   11.95621338674189   14.99309883922948
W   12.56345795071036   12.13402633902003   12.07054200738844
W   15.04785005854949   12.19346784002222   10.60577341889300
W   11.09700742301485   12.94242987889086   9.74171350000011
W   14.35422698483233   14.33369039510651   11.78513690918707
W   13.76645671308282   10.10586198639709   13.58674433745123
W   11.28175786027809   10.34767424190734   10.14591027104833
W   8.53612367188446   9.78898460538273   10.77781425594992
W   9.02449804411017   11.35407671428600   9.02754596686549
W   13.97873135039876   9.73754404835184   10.63129393230907
W   15.04455146101239   12.52492734509520   13.36538822931220
W   7.20387396734550   11.98610981705765   10.65252955348607
B   8.84219405137032   13.45306346229987   10.11350036360070
B   8.11644814122814   13.80921125979908   11.62964571202692
B   8.86402675016113   13.73097823916859   13.21374108920809
B   13.22862001818679   13.80952082749588   13.70449128077802
B   9.08835471144922   10.01921171652185   13.06270979546462
B   7.70799023657816   10.93348794604557   12.61370581414208
B   12.31442580722106   14.42373355188719   10.88851362008138
B   13.28770737546927   13.33315854468093   10.01323568206307
B   10.41529197451685   9.60601986783820   12.08736253297315
B   15.25368855761196   10.71854859346129   12.13762670381317
B   13.03206929823025   11.67542679072118   9.74183668519442
B   12.16832245140810   9.71155074019972   12.11506400777917
B   12.22709387066161   14.60740347497016   12.57943846062263
B   7.57821364234292   12.61655012514097   12.75428053455872
N   14.98260368355476   7.98489759658469   10.02089309624641
H   15.78810869159893   8.22481514346242   9.38684869273852
H   14.36864496020218   7.58043118073626   9.35083442965880
H   14.24514884091710   9.32116287077922   8.86727346339178
35
F:    ...  E:  0.0190611799999942
W   9.74003168093960   11.96205448605167   11.78855038535357
W   10.15109007856852   14.62770663452052   11.63537623519745
W   8.84902805339331   11.82011560514714   14.40495868198556
W   11.10848044356674   10.66969979215423   13.91620203201311
W   10.99008995193400   13.29957117322476   13.93296047060432
W   13.20294860907069   11.89354223639028   14.92730500901237
W   12.57646832446883   12.12414040714938   12.02049734419164
W   14.98949207895215   12.14506402878890   10.46128377018377
W   11.06249046888339   13.02640629426967   9.74038348203279
W   14.37452551694130   14.31483868358941   11.73111694593683
W   13.73607089927017   10.00530092121869   13.50660644515835
W   11.22892180106470   10.37095416775692   10.12798859080382
W   8.52192684669175   9.80126753948790   10.77093385318323
W   9.03829573477691   11.37579124725943   9.01164267313509
W   13.91351365265646   9.75738772544103   10.53251384374478
W   15.04525750916808   12.46955970960022   13.29154358219602
W   7.21567158231024   11.96649848627250   10.65109056272390
B   8.82699423623454   13.47184576029787   10.12531108890835
B   8.09906084498893   13.80458636008440   11.64511620618218
B   8.87549909245655   13.72079198536852   13.22515009600827
B   13.25984744769072   13.76957398583514   13.66926925486497
B   9.10710354491318   10.02586482710594   13.06421038743751
B   7.72709501400055   10.92614752244560   12.61283099551810
B   12.29989009505593   14.49116143060555   10.88982233339715
B   13.24894200225807   13.36893602710729   10.01268523334107
B   10.40786650334196   9.60483126371971   12.06544280085679
B   15.11867795940404   10.73034002432075   12.02831116727135
B   12.94005175471175   11.72078199332442   9.69260180340214
B   12.13244877229038   9.60931922930805   12.07393057646087
B   12.24976793576861   14.59560336713058   12.58624591132122
B   7.58426285886717   12.60480529107193   12.77161314500589
N   14.84784421696800   8.02655148454286   10.07818941227316
H   15.64311701308054   8.15759929235555   9.39128257173320
H   14.43757951428649   7.12348955865167   9.99782454920502
H   14.79940799316285   9.96763149053807   8.96896859149315
35
F:    ...  E:  -0.830455169999993
W   9.75132670870348   11.94529867808397   11.79471708471767
W   10.15058532004984   14.62161344361803   11.65261230073762
W   8.87384129613083   11.79528388298903   14.41590629114426
W   11.12118114355787   10.65004640907775   13.90335737366818
W   11.00904170526653   13.27860562333820   13.94653204616532
W   13.24581708304881   11.86634432370123   14.90591779183134
W   12.57839622935833   12.12425013469247   12.02389065464261
W   14.92975074983388   11.99695632824546   10.39145333192969
W   11.03888669349406   13.05583006525847   9.75149524931792
W   14.36011076353264   14.32753662345074   11.73021497404302
W   13.72716887335626   9.96229807759148   13.47381971710709
W   11.17452742273853   10.36785905822326   10.14485917994230
W   8.50644616126867   9.78089741607210   10.78126616022797
W   9.03370813928601   11.36629995215434   9.01602158519629
W   13.84199795671703   9.74422354234130   10.52896741479141
W   15.05755157326216   12.46767802743839   13.24965042022483
W   7.21232744683125   11.93561720821116   10.66844947175273
B   8.81301470840787   13.45733218347397   10.13090983756230
B   8.10262087193534   13.77342392196427   11.65930150170963
B   8.89159353500012   13.69137403798445   13.23895955012822
B   13.28739289727041   13.74915184066953   13.66647409020598
B   9.11781924966902   9.99497527815824   13.08059695814935
B   7.74708129332402   10.89658763366473   12.63323298419754
B   12.29187461510474   14.53473721217237   10.89106747832101
B   13.23012875114103   13.36813384535342   10.04920529598247
B   10.38795497245111   9.55202597069975   12.06973427192950
B   15.11202692711406   10.68287157841079   12.04554476788324
B   12.86390841257536   11.71368398107661   9.70545545215771
B   12.11309673956813   9.57670114386402   12.06285589278782
B   12.27352593363269   14.59212166164903   12.59933283691654
B   7.60278418120891   12.57214309460227   12.78554270870526
N   14.69842662641312   8.04608279554997   9.92107346810448
H   15.64023098496504   8.04872022515885   9.49715847515888
H   14.18665581709944   7.21275678584129   9.65005100057988
H   15.37695824882095   10.60029804735732   9.28413241421619
35
F:    ...  E:  -0.609873010000001
W   9.82814721699403   11.90130549478849   11.75992382903485
W   10.19741366850349   14.59616051589802   11.60785160679751
W   8.90368044664381   11.81438068857614   14.39925526630236
W   11.14084301080712   10.61349796484146   13.92818614131406
W   11.02197305214288   13.25270531919598   13.89346501760105
W   13.21127801849651   11.88041410461083   14.96498482652679
W   12.66266552820306   12.09079607359151   12.05460025728393
W   14.96704189022969   12.07411194011197   10.51094769527186
W   11.07740563980956   12.98772858628317   9.72231391879990
W   14.40038650714331   14.28603660962126   11.75148758784640
W   13.71925737388705   9.91007262767682   13.61397440721769
W   11.20999714963655   10.28937088470571   10.14899809669039
W   8.53017193952706   9.75022977445404   10.81298389258570
W   9.07503722699767   11.29694864811260   9.00716122541814
W   13.79570846446924   9.72917672651104   10.61741139549614
W   15.08420299147242   12.52419764509396   13.45894344799112
W   7.26350499181230   11.90157804744075   10.67153092900738
B   8.86474382432384   13.41122431197456   10.11064039753978
B   8.15910388387724   13.75583698859660   11.62741956669018
B   8.93401044289950   13.70896283720854   13.20139850386777
B   13.27700111450958   13.75110498711476   13.68545525074199
B   9.13765284662501   9.98972052825896   13.07670730460038
B   7.77424627803016   10.91772577596515   12.64203633394225
B   12.32518678491124   14.43628512689707   10.84384977375461
B   13.26476528831916   13.32039457149873   9.98949796544145
B   10.41759879434941   9.50038795492305   12.10446624328955
B   14.88673667129989   10.82064324501662   12.17474841612551
B   12.91155681652376   11.66364489899381   9.73292857652451
B   12.13123088297979   9.55064426820860   12.10518500447699
B   12.29671056182960   14.52873146097525   12.54983827378943
B   7.65063403511340   12.58878529074598   12.77340108573411
N   14.60988209204079   8.07859112781490   9.82751085610303
H   15.58341675189275   8.06999373306238   9.55872883639867
H   14.12301731425651   7.27853366274330   9.43503811598545
H   14.91355053158031   11.07983761062612   8.98688998594499
35
F:    ...  E:  -0.50781465
W   9.81041822372523   11.88648632590859   11.77539462609517
W   10.23639313466672   14.54522281219418   11.59508737160627
W   8.87140894470307   11.82621853595010   14.39936728798553
W   11.12149336761619   10.63331271910288   13.96653580464351
W   11.03349893572300   13.25524329477164   13.90146551822330
W   13.18669462190598   11.89330387576555   15.00699835064155
W   12.66650701173503   12.07661302901391   12.04805084206219
W   15.03421257880663   12.08706136367499   10.47813759589923
W   11.14108371878033   12.91074835562051   9.70708107614126
W   14.42402519678340   14.18846347017539   11.74359820567138
W   13.73136853448225   9.94454656694099   13.65866314236764
W   11.27631157702358   10.28488496680578   10.18544628140065
W   8.54831571196844   9.74380587256806   10.81571605453055
W   9.11713029961266   11.25642190621170   9.00624488838457
W   13.78125060687689   9.65535174819486   10.73224787636399
W   15.07811848531981   12.49127991799821   13.50777427802651
W   7.28689232915900   11.90212193949793   10.65130946533024
B   8.91384433839979   13.37880028181672   10.09444303566247
B   8.17973316412107   13.74720450048756   11.60026381706751
B   8.94394654390920   13.69746179338479   13.18698105647171
B   13.28278261147931   13.75454894814652   13.70842732532464
B   9.11230145790477   9.99143005932292   13.08901247242689
B   7.74427582518487   10.91628674093161   12.63708086573278
B   12.35459357355769   14.37045229783585   10.85718289758336
B   13.30757026591452   13.31232574079635   9.98052673667451
B   10.42038849242653   9.52810893383864   12.13384895037266
B   14.90065169397102   10.83766913235976   12.16124775848708
B   13.09406578985729   11.61860453572525   9.60423313927551
B   12.12539946778275   9.57212751135608   12.17594094021369
B   12.32540418532474   14.52649616763904   12.55480460900371
B   7.63959847393758   12.59624066332763   12.75717777921922
N   14.60926728571893   8.09583720222216   9.80685435389146
H   15.61167776830591   8.02290225350736   9.69586521646242
H   14.12443740375336   7.37558311017410   9.28667349661994
H   14.31469841170308   11.42659345887504   8.84007691627281
35
F:    ...  E:  -0.588185549999992
W   9.82237065534870   11.86417226971423   11.80057408814236
W   10.23283631987491   14.52509552158030   11.65712647608715
W   8.87247708611222   11.76091335473028   14.41356122076819
W   11.12870580425291   10.59905145821811   13.96730080496192
W   11.03162878360129   13.21280928103654   13.95297576292547
W   13.19864712527384   11.84459419158117   15.01217058477724
W   12.67168518249492   12.09174037880884   12.05930092960740
W   15.07302211144043   12.17809558724012   10.47081651472605
W   11.17038346440950   12.92818467024604   9.73414440531638
W   14.42346936880236   14.22009497914608   11.80080549234748
W   13.75489627839364   9.94542899250675   13.61096692678425
W   11.31487944761028   10.32558919177131   10.16950085809733
W   8.58359286357972   9.72340454726884   10.80529128605276
W   9.14023149219798   11.26456752917130   9.01406383713227
W   13.78040479674408   9.68874395728480   10.67533542857115
W   15.08500492700983   12.48193071708249   13.50691551892612
W   7.30611866665123   11.87853524471806   10.66020935843858
B   8.93946078954055   13.35846531276682   10.13056225403603
B   8.18410600107083   13.71114292422740   11.63440638835742
B   8.94159656989862   13.64452298622456   13.22663089362118
B   13.27620263772755   13.73183812881507   13.75765218825424
B   9.12540514059970   9.93850155395312   13.07820876919724
B   7.75238254378893   10.86477414091591   12.63316653891296
B   12.35545772623754   14.38851979452767   10.92824486477239
B   13.31374719574898   13.35123791907422   10.03793634917294
B   10.43533473649270   9.50778826275214   12.11631670325111
B   14.90128562369910   10.86624424254098   12.10459977487563
B   13.17000281261773   11.67703908338813   9.56062955458473
B   12.13539456293788   9.58144619760484   12.15524892833069
B   12.31225920639755   14.53073080216130   12.62506545921129
B   7.64398465102142   12.54562479480750   12.77742320436410
N   14.48316376892566   8.13017233296187   9.68691955792181
H   15.38270292286894   7.68280108739438   9.86693046152211
H   13.98830087541372   7.62517378299301   8.95282579844786
H   14.41861789335065   11.68078481292225   8.76593284964042
