38
F:    ...  E:  0
W   11.80971203191062   11.81091185226250   14.11482040358389
W   10.25506332690655   9.91854360218220   12.81636947932343
W   12.53895724986739   11.24437810236802   11.61237755398704
W   15.29316758943711   10.95382492173412   12.04955949714285
W   14.30127518535889   12.88324880639708   13.34076587976254
W   11.88375818847557   13.95572597715502   12.69080813038546
W   9.84248509049257   12.34460451396931   11.84719048330477
W   14.25119616826652   13.26125694645608   10.81622281630517
W   7.23810888219048   12.32083461008476   11.38200486745443
W   10.16283021638314   9.98385927174462   10.25248253789708
W   7.80761621344512   10.70104493350645   13.39568142717374
W   10.31594493242166   15.36285217089875   10.99502785844185
W   7.94564627949500   13.25219071712118   13.65108484281931
W   11.70218142554364   13.54615071119470   9.97462134254248
W   8.94601081473722   13.88086580872639   9.68634609271917
W   12.17660258257335   8.50805428368768   11.54928278766170
W   12.79266965695174   9.59788861094252   9.50733787041833
B   13.73511415536305   10.75361019806043   13.66826071209797
B   12.40976832796709   9.71563151494832   13.48945428640752
B   13.85263453805137   9.41974908188598   12.61800782500657
B   9.55170388118728   11.77073745410941   14.19238675264777
B   10.16882947557550   13.35450483025273   14.06363507656202
B   9.68435087037971   14.54358461297137   12.96725558921855
B   8.39491090195265   14.34679084151925   11.75213873616626
B   11.61905575435352   11.38145623250732   9.22615286950694
B   12.91047618174899   15.08914256082168   11.02528897378922
B   8.56090423231244   11.62135713732522   9.69880670044573
B   6.86235794905675   10.11515774137673   11.58672363495062
B   10.10261524907390   12.05997032742364   9.33949753063283
B   13.91558722737118   14.82633271044060   12.31320954760342
B   13.18140254343179   11.93832565664338   9.37316174603424
B   7.81787052043494   10.28776718290250   10.28258600411396
B   14.41360357002913   11.08643467626633   10.11905693781484
B   8.38336711357839   9.38981876876417   11.65967300066108
N   17.43695533498298   10.19366414220856   12.13820191091999
H   17.85662378193342   10.18185507624425   11.20273255398433
H   18.02220836490574   10.79317584279208   12.72892569250308
H   17.49157298349184   9.23983636174304   12.50799883964801
38
F:    ...  E:  0.058292559999984
W   11.79844222576670   11.80600874074876   14.14161332232790
W   10.25063410991304   9.90503145863643   12.83006452084604
W   12.54823116059827   11.23276883722222   11.63820428502166
W   15.26183473734637   10.96709229811098   12.12045221798036
W   14.27789050034451   12.89285874925727   13.40104013690629
W   11.90020789901277   13.95879062070132   12.71222162492258
W   9.85931261264397   12.33961906561284   11.85676995224135
W   14.26018066783086   13.26097269740938   10.86137336180753
W   7.25938848855918   12.31916034230128   11.38705494718345
W   10.18399314127831   9.98335765810125   10.26113218147041
W   7.81403440237229   10.69092735450591   13.39650162090770
W   10.34682729373626   15.36408618601259   11.01162941330850
W   7.95555352850872   13.25110261994442   13.65812056980948
W   11.73005777331672   13.54279267515911   9.99674170942388
W   8.97896629356674   13.87848442899254   9.69817206763824
W   12.20251090662592   8.51415811254950   11.56655767070768
W   12.81816349539553   9.59847201302071   9.52080864338367
B   13.71372631934065   10.74939072439552   13.72445963792559
B   12.39038036278649   9.70822185543456   13.52742734877545
B   13.84478616311760   9.41721648389087   12.67441661032824
B   9.55262260911173   11.76717566628307   14.19592425769633
B   10.17630626753499   13.34996234833885   14.07146684832988
B   9.69912963899343   14.54000575443484   12.97604394097775
B   8.41822385180774   14.34515278799219   11.76104829946078
B   11.64936873677529   11.38080253125807   9.23921686131488
B   12.92820671864670   15.09973103528109   11.05501467001428
B   8.59099506649055   11.62057522076344   9.70604184624547
B   6.87889917895577   10.11372886581598   11.58113524639171
B   10.13345639374040   12.05700479908908   9.34641057424191
B   13.93279775696315   14.83471688087220   12.34175669794783
B   13.21182683837316   11.93607811561055   9.39936481774426
B   7.84158243752563   10.28705734525944   10.28284120101343
B   14.43609073446446   11.08482700769403   10.16095643408013
B   8.39574781444400   9.38116644392208   11.65640044500127
N   17.36504244422551   10.20196348551211   12.03298518236243
H   17.46569640325443   10.18984112359306   11.01619471670027
H   18.05763055025821   10.80819897789584   12.45834817817517
H   17.50639326801228   9.25663748001391   12.36922673102522
38
F:    ...  E:  0.326125539999964
W   11.80379175607825   11.80202396250361   14.14448515110215
W   10.25302456551901   9.89135657380375   12.83203619993271
W   12.56689877394104   11.21236896716619   11.64573682928207
W   15.24086933520898   10.96957891800141   12.18042264759747
W   14.27011201067327   12.90005700971594   13.42858879682725
W   11.92465615998098   13.97242410320311   12.72484017456701
W   9.88108433304551   12.33540012348671   11.86592863498274
W   14.26993553379535   13.26565548334379   10.88268105185625
W   7.28045844761230   12.31805527564111   11.38663156271410
W   10.20019308231447   9.98581053206611   10.25948341243131
W   7.82992698023891   10.68553439421084   13.39410485714262
W   10.36830823165500   15.36002411666778   11.02271810217662
W   7.97574476017908   13.24294804507752   13.66742388569812
W   11.75562563631348   13.53305278987150   10.02170452484480
W   8.99817553032023   13.87437676910993   9.70711797877992
W   12.22071547890729   8.50954528053741   11.56675721884695
W   12.82587311506630   9.59176244510895   9.51669800571436
B   13.70026892442768   10.73437278371268   13.75510924927882
B   12.37945746993667   9.69415522061659   13.54144309304024
B   13.84130899346454   9.39946963747874   12.70273078608313
B   9.57352715029845   11.75995481637275   14.19846101836870
B   10.19452704160092   13.34558119780285   14.07359219298936
B   9.71734993387468   14.53726930457325   12.98261103791813
B   8.43838028209032   14.33813714605359   11.77219852352630
B   11.67535397201895   11.38251443709423   9.23586898669864
B   12.94746835793753   15.11478748371785   11.06574982889410
B   8.61193761580063   11.61757861714792   9.70505096506943
B   6.89219629534632   10.11526223682017   11.57784075925335
B   10.15720528372924   12.05707235370559   9.35946783241520
B   13.95713245458042   14.85085054698842   12.34603808171821
B   13.24267941706296   11.92476271971223   9.41090037120680
B   7.85499429905737   10.28739830539294   10.27675863609800
B   14.46131867363986   11.07446458100384   10.18818725906716
B   8.40659234348859   9.37872189650739   11.64623383149829
N   17.27542045153226   10.19747900446413   12.03900176925439
H   17.01455070242158   10.25094596757580   11.01695037335141
H   18.02973327795525   10.86722403418409   12.27469311365879
H   17.59834212052555   9.25716171119678   12.21889204775458
38
F:    ...  E:  1.28837639999995
W   11.83454261137695   11.80434422368615   14.10367127023474
W   10.27746312022576   9.88520977019651   12.81440790160468
W   12.60406259533428   11.20227519210705   11.60840032434047
W   15.31954598464750   10.96943219975331   12.17373435668770
W   14.28085539188132   12.91080371095420   13.37702709014014
W   11.93607976723350   13.98289508634456   12.70044988723610
W   9.89057708447185   12.33446440857745   11.85807688746980
W   14.27389085464964   13.27096784123809   10.85416900549256
W   7.27168786522774   12.31245735805841   11.37768428121164
W   10.20275146974534   9.99483833498600   10.25351243860453
W   7.85077581639569   10.69206076157659   13.38647770995165
W   10.34695500095119   15.35162196809756   11.01458049344762
W   7.98607316055629   13.22993355037736   13.66948777430830
W   11.74629876277350   13.53015840190684   10.01688929515262
W   8.97080744333680   13.87276104482663   9.70110674170916
W   12.22407539733914   8.49918983349369   11.54939975067617
W   12.79320528719357   9.59101178601685   9.49162743280610
B   13.73450554640342   10.73229285357155   13.70739647435168
B   12.42340281939340   9.69737196656019   13.50080725876824
B   13.87200066610250   9.40888003333178   12.63744272421903
B   9.60378312461107   11.75502747944051   14.19694099788837
B   10.21173738273407   13.34243308118182   14.06141990557626
B   9.71561623358510   14.53571299873780   12.97874020815481
B   8.42603870206959   14.32414341087711   11.77396377022257
B   11.67243387937256   11.39843283815514   9.21871147598231
B   12.94641130503575   15.12030782803492   11.03386364366060
B   8.59382092049441   11.61462889955217   9.69791395138603
B   6.89070266249570   10.11057067998768   11.58281499131413
B   10.14081967750704   12.06225372253748   9.36925745060769
B   13.96642301511153   14.86532859740556   12.30419770990735
B   13.25636020985712   11.91256463207406   9.38169226927922
B   7.84459381371694   10.28346629262816   10.27531915493930
B   14.48566574222147   11.07683683995417   10.17589533340119
B   8.40941064954996   9.37972938582620   11.64545245023719
N   17.27329088185028   10.22016330182283   12.26949512071625
H   16.65813928771405   10.20225995688703   11.09937762557354
H   18.03876055538295   10.86891610675373   12.53299416419823
H   17.66157410308969   9.28939241412132   12.24073947018090
38
F:    ...  E:  1.04167511999998
W   11.85055687982874   11.80519087149660   14.09716035204258
W   10.28673983644465   9.88598107645503   12.80317825284664
W   12.60944149467902   11.20712742186801   11.59275940684131
W   15.44329410652191   10.90710623012918   12.13946864953210
W   14.27754901471344   12.89693185385066   13.35273232579796
W   11.94160921253163   13.99199569171235   12.69207286073318
W   9.89128202557528   12.33700550564406   11.85738227823303
W   14.28301931549230   13.24894242602386   10.86318112627700
W   7.26667395743068   12.30980914355650   11.37762037588099
W   10.20045840663462   9.99760994221219   10.24933025654724
W   7.85547016047211   10.69354236221064   13.38860698205988
W   10.33986587060751   15.35333992525178   11.01880560778645
W   7.98920530490743   13.22342258058315   13.67549531456467
W   11.73867521787281   13.53134127222977   10.01939907848984
W   8.96537686789729   13.87400350125583   9.70262428688075
W   12.21098899359579   8.49580154577797   11.55042600030778
W   12.77745714459878   9.59877982823048   9.48951677209012
B   13.76246489828907   10.73271009256728   13.67792014716570
B   12.44212712115742   9.70576650188173   13.48978486800345
B   13.87936305251049   9.41857935747379   12.61328070227006
B   9.61266554926271   11.75320951517365   14.19400157026595
B   10.21760328805381   13.34132911160274   14.05981988283343
B   9.71524062696593   14.53620045783576   12.98085155155488
B   8.42261613023582   14.31756947818142   11.77835429559681
B   11.66623323686964   11.40577604125323   9.21406569745004
B   12.94661110465600   15.12091255879622   11.02008605218298
B   8.58145737530295   11.61532571466022   9.69781522299384
B   6.88868890229568   10.11138119609838   11.58597349821079
B   10.13368743489301   12.06108863906723   9.37341408574229
B   13.96552340764111   14.86874452761430   12.28760510937609
B   13.25014730286563   11.91469807300613   9.36357354307048
B   7.83951139282879   10.27982114358811   10.27415443043506
B   14.47081310478979   11.09271505328249   10.16228434268936
B   8.40716692530783   9.38057204448031   11.64792172383903
N   17.31069027625225   10.23726688945363   12.55191784085094
H   16.41156366156277   10.17351178103286   10.83732674319863
H   18.09240086272787   10.88825052201788   12.67345951357293
H   17.69089932736620   9.32177891408274   12.28176804342509
38
F:    ...  E:  0.305875739999976
W   11.86140740987680   11.79589632047261   14.09351836308720
W   10.30258927241352   9.88124135788853   12.80127339405414
W   12.62665834720824   11.19896377542181   11.59623416641856
W   15.48004221538561   10.91557967991997   12.16389130521078
W   14.29172079206806   12.89607738296887   13.34443708386124
W   11.95060973682898   13.98563327045854   12.68938149621553
W   9.90049523467530   12.33182736713327   11.85899323353374
W   14.28424564100693   13.25070944802887   10.86899101515225
W   7.27582095150446   12.31048328608295   11.37468133808768
W   10.20397562792596   9.99756316408255   10.24456058702994
W   7.86458853571281   10.69239113120949   13.38656422621989
W   10.34354777133854   15.35649659458405   11.02122550014804
W   7.99682578658296   13.21972667814624   13.67675370820719
W   11.73915751367775   13.53555062705349   10.02008335100628
W   8.96615928589168   13.87858948465894   9.69990629720128
W   12.22349205746719   8.49052041299894   11.54953654391282
W   12.77257720436074   9.59553989422664   9.48923896568816
B   13.79254907062636   10.72681278205801   13.66824937594855
B   12.46585543143520   9.70083659518314   13.48979104797493
B   13.89766223436893   9.41479178952450   12.59379454518367
B   9.62283547174934   11.74796777384034   14.19380424412603
B   10.22790007852404   13.33266013969101   14.05498979435479
B   9.72227264702790   14.53134128782187   12.98108942769668
B   8.42950981623488   14.31471328462809   11.77822884642126
B   11.67214264236491   11.41056985603412   9.21865342075213
B   12.94450849717680   15.13434554570423   11.01543117112626
B   8.58810079918859   11.61706095848134   9.69903286134444
B   6.89622156447730   10.11250750318570   11.58509570618951
B   10.13715067981433   12.06589292997346   9.38000163637369
B   13.96235503732520   14.88384387450782   12.28153425643141
B   13.25981188468589   11.91649908877469   9.37462739156464
B   7.84428006005714   10.28167613853784   10.27283884224849
B   14.50464375523207   11.08429555070084   10.17906653299452
B   8.41610735755798   9.38236892262562   11.64737487281390
N   17.32735644312673   10.28346366667059   12.57730043267533
H   16.00189322504413   10.06573756293996   10.66627351330653
H   18.10423263719897   10.88585307432931   12.86827071965289
H   17.73383607449709   9.40911059109037   12.23041957742425
38
F:    ...  E:  -0.465922940000041
W   11.84634800412658   11.79240162824188   14.10267206488894
W   10.30556668703459   9.88355780353771   12.79937767476842
W   12.64856725704783   11.20002128416747   11.61718618413719
W   15.46778222973963   10.95738265964880   12.25189647553374
W   14.30322217354583   12.90561285817095   13.39398839298066
W   11.94982016954656   13.96735716834012   12.67861285050765
W   9.90348540085177   12.32617547074697   11.85337016806938
W   14.30258576833572   13.24874572802830   10.89680796328492
W   7.28389492078679   12.31090387648436   11.35848997147963
W   10.21837655918118   9.99076414775962   10.24830848576216
W   7.86254338071312   10.69904384862567   13.37586052136799
W   10.35639946732250   15.33796420006306   10.99961407133112
W   7.99472436490729   13.22805439881677   13.66287233117255
W   11.77110478790282   13.51646140403041   10.00727321178164
W   8.98679309260306   13.86875720689354   9.67966589795271
W   12.24797896134736   8.47978610307280   11.55558048687937
W   12.79556215543498   9.56323202918642   9.50506068382481
B   13.78163600936669   10.72501915994206   13.69996645603941
B   12.45820450323124   9.69737155791532   13.49206547607575
B   13.90666414350635   9.41151442114521   12.60806007891513
B   9.61283826074473   11.75367686311614   14.19077300838444
B   10.22070795507498   13.33849734090506   14.04830193123979
B   9.72163699167863   14.53246050388960   12.96624989106865
B   8.43267026471758   14.31115864067226   11.75798860939786
B   11.71231505699010   11.38858053217835   9.23538886689042
B   12.94614105401241   15.12303889247637   11.00458225254024
B   8.61387874257759   11.61356391510064   9.69560343664052
B   6.89674125068433   10.11205870623271   11.57556524247322
B   10.17034295420182   12.05486641691069   9.37395403830021
B   13.95407472231309   14.88813104078615   12.28160810324959
B   13.31494770398136   11.88018052459259   9.40839065660457
B   7.85468056582831   10.28753225732123   10.27041440476614
B   14.56162922609894   11.03287914143336   10.24348577727876
B   8.41616069815185   9.38220567181482   11.64502211238279
N   17.32385267518233   10.28728912943138   12.55107611396081
H   15.67573207271828   10.30891485275685   10.48247800723097
H   18.12302930061907   10.84254364301028   12.88284609537254
H   17.69249925953182   9.38743376419204   12.23468079710327
38
F:    ...  E:  -0.775037030000021
W   11.85588885356859   11.76284816240515   14.14627466911396
W   10.32473513213986   9.87860508770393   12.81732171198924
W   12.61944842694766   11.18584935920874   11.63888110572923
W   15.44379412053579   10.96869017171096   12.21003519877249
W   14.34347832397046   12.86181425605713   13.42168508419172
W   11.96903211617184   13.92729181292920   12.70593531732633
W   9.92212780076560   12.31203408227788   11.86805191497914
W   14.29488446971975   13.23458068704017   10.91195643988515
W   7.31299309542293   12.32106974389560   11.36810611847730
W   10.21638813666576   9.98375572637829   10.24257727299521
W   7.87837808434386   10.69876884742898   13.38316158301596
W   10.39385230700083   15.35564500720411   11.01862257139862
W   8.01507819224735   13.23601129024399   13.66254062222515
W   11.77774439805330   13.52756606714969   10.01699937043974
W   9.02464377164838   13.88719956388975   9.69444003443802
W   12.25642327448010   8.47052524954156   11.58016769967786
W   12.74450538576462   9.53612421797182   9.50362003664363
B   13.80212677916896   10.71120554524454   13.71429096537646
B   12.47483979972017   9.68705310845217   13.52895119343403
B   13.90708281625725   9.41129864813570   12.61074520729746
B   9.61773633232906   11.74977467161339   14.21564448480491
B   10.23934860887203   13.32482919474898   14.06892578368080
B   9.75810665568908   14.51686076031002   12.97819932148766
B   8.46830155622818   14.32698958370124   11.76199812628967
B   11.70063500514886   11.38622529105632   9.25003155263668
B   12.97482278094986   15.10331385329244   11.05613305180535
B   8.62768239791985   11.62108537720086   9.70043966104154
B   6.91772066532676   10.12164747717869   11.58038804289165
B   10.17573080547880   12.06150961732271   9.37670597498636
B   13.96459664417327   14.85036297890574   12.34275743029765
B   13.27722811213491   11.89396261602698   9.41307908555297
B   7.87173915481154   10.29289607393517   10.27495798772848
B   14.49091613681033   11.03465054840984   10.21012697028767
B   8.43307316717790   9.38448097391208   11.65193524262938
N   17.32795788320491   10.38791505888907   12.41502594566600
H   15.43177403204685   10.21711309105298   10.33615932929629
H   18.07119230294662   10.89105435754314   12.90957808708883
H   17.70913126579736   9.51253063166897   12.04868859606069
38
F:    ...  E:  -0.853496750000033
W   11.85658766117146   11.75234969689875   14.16712337504004
W   10.33259287063009   9.88176114317670   12.82553704337166
W   12.61973548325638   11.18666698373346   11.65056566232282
W   15.44649881231831   10.98310596556858   12.20872321023918
W   14.36047849728253   12.84727320379970   13.45436549315687
W   11.97239971554103   13.91209452443177   12.72010278187664
W   9.93394300532032   12.30656699726551   11.87662849399420
W   14.29571450692271   13.22170756186224   10.93226338450203
W   7.32705014358621   12.32823135800259   11.37834341212464
W   10.22095458292328   9.99119271694937   10.24357539333080
W   7.88577565029102   10.69448638249974   13.39233980812225
W   10.39967677477692   15.36943800428184   11.03602827961765
W   8.02232660980443   13.23689399410669   13.66854744240722
W   11.78046100326715   13.54129871721481   10.02489420868349
W   9.03761960940836   13.90159250603133   9.70961872651270
W   12.27087163642957   8.46658933214351   11.58496952220264
W   12.74243852144104   9.53040490552139   9.51343720833563
B   13.80397378517414   10.71315474272048   13.72493197062613
B   12.47831412871201   9.68549386667039   13.53542610094935
B   13.91278637199021   9.42205816961816   12.61455276964206
B   9.61685122827787   11.74754081466013   14.23125431516156
B   10.24420279030141   13.32022295027854   14.08391411860582
B   9.76758973417778   14.51359099646163   12.99196024287786
B   8.48009734312206   14.33776021327594   11.77345643696888
B   11.69937872812585   11.39428505074907   9.26152179866692
B   12.99133392094340   15.08777537381804   11.08221287008131
B   8.62967540301906   11.62852029509098   9.70265479940181
B   6.92742341629821   10.12547963749019   11.58914482218285
B   10.18156373463897   12.06540495813495   9.37948554786358
B   13.96528103317699   14.82745675240057   12.37919607571261
B   13.26439297169691   11.90040063336815   9.43075569008007
B   7.87750847422326   10.29577520990058   10.27957947364197
B   14.50391742342615   11.02742922169891   10.19985273793500
B   8.44256662348073   9.38726370698382   11.65922038417975
N   17.34337098881772   10.44689338846356   12.38683819301374
H   15.19413840507847   10.03223947962279   10.04107078001569
H   18.06561872291933   10.92179107371643   12.93523637400231
H   17.74002847966885   9.60294826302584   11.96580984419084
38
F:    ...  E:  -0.908172780000029
W   11.86195731142803   11.74243291460806   14.18573274827673
W   10.34110380110601   9.88921037064993   12.83377225474505
W   12.62240148763319   11.20238599082074   11.65827906407074
W   15.46014474223651   10.99390067513355   12.21049521249932
W   14.36459382334249   12.84202760557870   13.47545193402366
W   11.97398693075510   13.89924950119880   12.72696026503864
W   9.93649191191037   12.30598699658810   11.88643580533865
W   14.29810772083905   13.21587825757389   10.93693838594690
W   7.33580341548773   12.33049639223253   11.38510256091074
W   10.23271979792498   9.99182710042865   10.25403284578921
W   7.89494501802452   10.69198746621182   13.40390906424956
W   10.40067010689128   15.37567701817719   11.04717102272481
W   8.02926853077791   13.23828657685470   13.67503388640311
W   11.78325852714090   13.55679079909631   10.02204141248335
W   9.05232365557253   13.90587133270036   9.71907798625726
W   12.28682553616582   8.46335812701331   11.56893873903365
W   12.77782014840435   9.53432370862470   9.52461470184623
B   13.80784542568636   10.71285553353993   13.72895827582148
B   12.48653057595440   9.68107364196003   13.52746782814357
B   13.92094859486962   9.43245646255876   12.60982094344136
B   9.61899822740108   11.74619249340411   14.24596614031960
B   10.25093275287015   13.31660021548471   14.09489699335137
B   9.77521706360927   14.51047073309959   13.00394003239326
B   8.48858598689723   14.34299919836908   11.78231196722731
B   11.70073539344863   11.39304489820795   9.27383618860532
B   13.00878838521371   15.07113438142882   11.09731912392462
B   8.64097178006335   11.63118547470227   9.70755501017706
B   6.93973315438668   10.12633548984396   11.59839006849409
B   10.18619716561831   12.06717074604130   9.38469582274609
B   13.97034635377096   14.80948885085387   12.40770754421983
B   13.26768911449658   11.92040505715394   9.44787557682216
B   7.89131423574709   10.29965103167521   10.29315155207417
B   14.49908052939258   11.02876707117209   10.20713445562045
B   8.45388532835060   9.38846920485577   11.66987998067206
N   17.36072443921400   10.47796943085184   12.38455939510398
H   14.88814605870422   9.91073195283068   9.77088697223209
H   18.06673699886239   10.92611998859153   12.96501462768729
H   17.75930876144027   9.66232610152153   11.91978240292361
