23
F:    ...  E:  0
W   13.22894858865693   11.06813270511109   13.15740899207915
W   13.07161893277885   13.41595006662815   11.87897346849833
W   10.78082246272801   14.20895148062092   12.06564373838042
W   13.24164487666158   11.95397174603485   9.66314219812584
W   9.52459659909770   13.39206646800199   9.99412022997289
W   10.97060075140751   10.76269764895227   14.26440852375910
W   14.26271604088494   9.58029474801744   10.91883119410892
W   9.36176936855711   10.12255836074408   9.64422902692693
W   15.00163573211390   11.70731253678110   11.48161850582182
W   9.47320992387730   12.44871586732887   13.52041027780100
W   11.03579891543886   11.52446937588464   11.40005967498720
W   12.07607977490797   9.02972684121858   12.18803475494968
W   9.46014409377253   9.53711401866624   12.41366359127037
W   10.99096432550078   12.15843113065309   8.57868232841540
W   10.20022852406648   8.05213734767237   10.57145380857841
W   12.01379330629156   9.71631649954496   9.68889505587413
W   8.34337588460972   11.49730798526507   11.39889751648200
B   11.66618480853746   12.68085590591810   13.46870904910494
B   11.70550637665652   13.55256160070224   10.11236927482783
N   12.58482146999179   6.97982380851093   13.14226108431089
H   13.13373111010704   7.12051841559887   13.99398789938854
H   11.75332111927889   6.42908682123196   13.37697523718229
H   13.15408994906814   6.43587085994635   12.48875383540810
23
F:    ...  E:  0.0814040900000066
W   13.20029231354924   11.04752603039437   13.17696579951752
W   13.12084705125413   13.39535212042734   11.90737038057650
W   10.84970652544263   14.25343067981667   12.05124619411628
W   13.29686446185588   11.95392648910240   9.68377112174984
W   9.60105765016502   13.46644117135360   9.97299196863273
W   10.90932895664597   10.78290747498601   14.22276013973885
W   14.24738475022664   9.56652230066839   10.93303568144190
W   9.37641625480713   10.19245881296494   9.58575812782076
W   15.01977860187838   11.66509304056117   11.53748560226081
W   9.45577193517583   12.50936129440140   13.45510951472753
W   11.03796476130463   11.56854180786101   11.36859574434532
W   12.02029283894257   9.06036631965695   12.15539175504674
W   9.41853569486365   9.59126171106588   12.35095780948088
W   11.06261952771178   12.20185395737967   8.56745480930880
W   10.15889442291448   8.10043137016510   10.51413894513551
W   12.01503008946472   9.73688076447735   9.67041626228199
W   8.34770685110535   11.58092614771282   11.33149548051370
B   11.65782602441748   12.69003209815152   13.46007544468582
B   11.78575943962324   13.57650330614121   10.11415433949288
N   12.65930252860772   7.05294060069012   13.02383262517146
H   13.24457584572441   7.21956949517111   13.85407597462824
H   11.82671387859848   6.54640525141680   13.22149730386531
H   13.24031440987828   6.52106107348880   12.36024832004205
23
F:    ...  E:  0.368108760000013
W   13.15513795817997   11.02632728451158   13.21057524925114
W   13.16697135822656   13.35320957577269   11.92454425429430
W   10.90283996944695   14.28700541498091   12.04458308032148
W   13.32257061506365   11.93090315690467   9.69819114427274
W   9.65332802522320   13.51665202111669   9.97593567544533
W   10.84179879357536   10.81511020128583   14.20926670420876
W   14.21021823480483   9.53573946340818   10.95935515047318
W   9.40967162721527   10.22406163697639   9.54634652356823
W   15.01724733682127   11.60127403962137   11.59351803600973
W   9.44389765921854   12.59409667224192   13.38698156589212
W   11.04095029389759   11.59616415515352   11.35910450015313
W   11.94039464619645   9.10200216238463   12.15622829114625
W   9.36693307485566   9.63019322997591   12.31147120267165
W   11.12617996197894   12.23036236137435   8.56541571002322
W   10.10492776549712   8.10196419155939   10.52514327898978
W   11.98820250515314   9.72545299818116   9.67461388459474
W   8.35224334849896   11.63178938395485   11.25269315104781
B   11.64811854698435   12.69653034535635   13.45576261696409
B   11.84678691962413   13.57940622727479   10.12141175157527
N   12.81760725077973   7.16286871397572   12.88282879098097
H   13.36173966031352   7.27683221540942   13.75926281320444
H   11.86768536451094   6.77357020124404   12.99156507499652
H   13.35399992849005   6.56422182059764   12.24721551313333
23
F:    ...  E:  1.03250322000002
W   13.19759140787481   11.05087419637979   13.28448126551635
W   13.15946600968720   13.30958135169882   11.90722324482124
W   10.91026618393360   14.25713871497804   12.07163101439584
W   13.27271807223045   11.85633734839218   9.67993837618584
W   9.57521980431828   13.45618228632805   10.07132318954420
W   10.85041535486661   10.79991340722402   14.21983011038545
W   14.18923844200244   9.49768532510111   10.99982992708035
W   9.41389491556498   10.12736739618312   9.58422946165092
W   15.02435269870453   11.56315358468295   11.56862773169204
W   9.43700652654479   12.58173529952616   13.38214911522197
W   11.01994924466661   11.56159776530837   11.36340717048915
W   11.91963823591351   9.11281124407808   12.20492246382821
W   9.32361809992214   9.56016409052743   12.35263199257566
W   11.05510841654243   12.17036178401768   8.60648698498381
W   10.10288749443265   8.01177077567027   10.64777660348434
W   11.96687578110773   9.63382149718987   9.71149094886192
W   8.32165296207799   11.50725486424193   11.28426052738019
B   11.65549796913969   12.67357896464012   13.49177034173720
B   11.80144650920727   13.52538752491679   10.13018915446978
N   12.93806120691144   7.24260520199287   12.88833384342624
H   13.26600535844088   7.20984751181320   13.86534535017278
H   11.84768567454245   7.16641581527316   12.78676917200183
H   13.34379148269736   6.47312481619863   12.34819465159902
23
F:    ...  E:  1.48082636000001
W   13.21509811110998   11.04682539116272   13.27266198913452
W   13.16622294641770   13.29574169684026   11.90520743346998
W   10.87401650254420   14.23353761899801   12.05558811671672
W   13.29002714085608   11.87936784214085   9.67957844398939
W   9.60602305315400   13.47181192009343   10.04635798820651
W   10.87464078720116   10.79083600598312   14.20926218445586
W   14.19811208943184   9.48659723492951   10.99774355369603
W   9.44636967159015   10.16478228239733   9.56824242389198
W   15.01951165887880   11.56737838292348   11.58340253951434
W   9.43043418925446   12.54515949431127   13.39470403516066
W   11.03908167402984   11.52895765949596   11.37948211144654
W   11.95663697011113   9.00997463762460   12.22561025373168
W   9.31968578353495   9.60513289701229   12.35567127657193
W   11.07821913555907   12.18141704728706   8.59588111793130
W   10.13905105413950   8.01443704646001   10.68581078110226
W   11.97774486834194   9.64130864503407   9.72876740979711
W   8.32009475593329   11.54980009641307   11.29019246672886
B   11.65420231205226   12.66454764893028   13.47706610514408
B   11.81145489174174   13.52532148547705   10.13510191985011
N   13.06903783715226   7.28732742052344   12.91067707218335
H   13.40755466784925   7.21669136791563   13.87844916788748
H   11.42362701220501   7.30123432767798   12.57753978674246
H   13.35908598540496   6.48664651139386   12.35369400468737
23
F:    ...  E:  0.562622310000023
W   13.25690926864304   11.07096436504703   13.23846108822934
W   13.12392388220934   13.32268170856421   11.89103795313097
W   10.85450975098245   14.21090862189547   12.05229364712370
W   13.25428142505609   11.86343448825707   9.68176022183758
W   9.58018236730399   13.41105693979057   10.06658117434516
W   10.89521200233111   10.74813789905550   14.21848429486893
W   14.21245394781742   9.47654012976672   11.03979386851383
W   9.41836614625107   10.13472662192875   9.60848893897153
W   15.02342910267994   11.58208995679043   11.56417117761699
W   9.42977652803437   12.45180222427873   13.44706803632199
W   11.02133641837225   11.49813527015774   11.39268153798760
W   11.99078274532283   8.89070762921339   12.29710495198865
W   9.32778878994051   9.58023587081889   12.41892208292611
W   11.03267467784282   12.13515169538847   8.58804867178439
W   10.20602207273889   7.97964970462830   10.74119189247724
W   11.97627500103235   9.62498265974590   9.78751818161660
W   8.28976021072997   11.49136816556340   11.34755518434063
B   11.65676142975406   12.63108715413445   13.46263373726653
B   11.77889048061428   13.51855726510082   10.11629825766834
N   13.30893089930869   7.34497152112577   12.91633563632997
H   13.38041451245504   7.16320974879336   13.93125018246539
H   11.02887599845815   7.37981611478052   12.57845769893036
H   13.31534367803053   6.43711414854982   12.46066435129463
23
F:    ...  E:  0.0787928400000055
W   13.26845477630272   11.07766547758023   13.26580588673577
W   13.12374705697199   13.30229654050422   11.87196817148630
W   10.85362497115508   14.19642167922921   12.04939247712156
W   13.26546847806691   11.79497639067924   9.71347542573346
W   9.58745416540031   13.39979310841618   10.05143276484121
W   10.88791394808338   10.73988059164461   14.22428728791785
W   14.14007384857344   9.31822596616161   11.24445637198288
W   9.39319571836620   10.12896154861660   9.61371772016589
W   15.01576570598320   11.49744123152869   11.59739047776586
W   9.44205240322946   12.42151562052793   13.46451322223139
W   10.98861767300251   11.48556546830557   11.39836930309179
W   11.87020436776979   8.86950254027535   12.36021261013929
W   9.24867457135450   9.56031413405193   12.43000240698457
W   11.03119332999498   12.10680925142278   8.60945828271051
W   10.17403562007159   7.98080435231887   10.73210945123374
W   11.99605607496317   9.58582101152436   9.83771758433489
W   8.26793309303037   11.47008885520700   11.35534995776896
B   11.66786229508445   12.63207716409458   13.46177198823939
B   11.78536894187640   13.50255909227680   10.10534575853850
N   13.45555616630939   7.48503063089927   12.81668738589507
H   13.56709161041016   7.33473488379229   13.82147777942916
H   10.91929098950299   7.32394886389122   12.57681607438958
H   13.30685068476031   6.54677178635253   12.42865445185283
23
F:    ...  E:  -0.313712029999976
W   13.24591967128176   11.06443282619919   13.31130706835712
W   13.15563853473292   13.27562809932268   11.89497010393600
W   10.88873057857922   14.20514799959487   12.04378934442360
W   13.29687050757748   11.74685333043566   9.75153717633846
W   9.63613939586249   13.44611598469361   10.02860170366577
W   10.85822088145494   10.76432561048498   14.20784049032116
W   14.09404400921679   9.27842151837613   11.28401122400238
W   9.40228845237378   10.17195760695125   9.56019226004631
W   15.02190493045524   11.44642667779844   11.65589836041776
W   9.44706867381560   12.45958145480056   13.42332292955391
W   10.98770610232830   11.48857573249968   11.38896220811582
W   11.79124568637146   8.88497294827680   12.35677756242008
W   9.16170531856466   9.59610809607575   12.38407377555160
W   11.08108816316674   12.11757853550961   8.60088774140061
W   10.10047134104011   8.01918166377650   10.69680270381012
W   12.00096391612274   9.55974126177198   9.83784511008946
W   8.26150358225614   11.52560033528412   11.30413081377315
B   11.68189939756470   12.65315715551757   13.47911331260572
B   11.83407447839298   13.47828231698739   10.11565092140047
N   13.53922268067006   7.60590437865317   12.72040914852465
H   13.77004425771021   7.48535590330950   13.70439337160532
H   10.93501330700400   7.27734988235083   12.47744916147618
H   13.32771351548208   6.67048819414933   12.34867717374671
23
F:    ...  E:  -0.440172509999996
W   13.20715628839241   11.05503265095736   13.32456858457149
W   13.19441370848069   13.27479896441445   11.94472987739999
W   10.95363674106558   14.23632410348278   12.05354522243824
W   13.32960160212930   11.74821856776701   9.76779659198067
W   9.67664257595653   13.49345890181211   10.03966888151993
W   10.82061074782558   10.78139956711544   14.16882690006645
W   14.08937746176870   9.30147965826483   11.23165171195462
W   9.45149370700365   10.24705952980551   9.46877613815694
W   15.03393913443963   11.42833010191678   11.69300269562300
W   9.44603127721065   12.54006883589687   13.34925898018177
W   11.02590965175586   11.51487103878858   11.36545470694370
W   11.77079045349283   8.91653283536153   12.31674366813628
W   9.13558665644759   9.67147509790662   12.31836398596290
W   11.14727119182840   12.15032723243767   8.56859482349453
W   10.06475800943130   8.05824443603431   10.67669966867031
W   11.97925738960766   9.56808411405063   9.79955075621944
W   8.26197064162304   11.61271182118367   11.22465923183991
B   11.68331590953259   12.67179376561545   13.49834875928002
B   11.88769944163764   13.46636358768034   10.14732475214375
N   13.58092684263011   7.68480966152209   12.64279404142938
H   13.92469264589644   7.58809950770108   13.59383343018580
H   10.92546636344954   7.25914200401722   12.30657827625306
H   13.37928493972726   6.74025173094987   12.29881970794127
23
F:    ...  E:  -0.497051389999996
W   13.16852121108168   11.03021159084584   13.31018162162483
W   13.23359100699557   13.26606832394985   11.97634538475406
W   11.00835136870017   14.26844923143931   12.06655174396838
W   13.37435642406277   11.77978956389894   9.76266972344961
W   9.73834513471494   13.55766089283582   10.02724108469059
W   10.77911991956161   10.78771367122422   14.12042643236983
W   14.08282323317848   9.32357661944748   11.17323024246267
W   9.48635911846038   10.34552148669161   9.40022352686994
W   15.04437446257337   11.40606715666003   11.71560434406693
W   9.45145294636051   12.60538513976625   13.30141245649734
W   11.05262339791176   11.54444786931077   11.34121810309369
W   11.74686307704266   8.93659315620920   12.25648343459429
W   9.11610866860840   9.73345573334090   12.23819344877444
W   11.21350532601863   12.21553621373574   8.55121719615555
W   10.03057758455042   8.12214268633690   10.60621445608217
W   11.96595187097865   9.61525412140861   9.74773386024463
W   8.28832574719114   11.70573578376957   11.15063885032927
B   11.68077689918665   12.67732629651298   13.49725799852546
B   11.94760163197638   13.48869349177048   10.16678512060035
N   13.61737291959398   7.74305749889833   12.58638183971022
H   14.05868774850636   7.71404388107258   13.50544346223141
H   10.91680173349792   7.24919284497829   12.15086749949803
H   13.47401597222760   6.77914707929912   12.27304516847469
