23
F:    ...  E:  0
W   14.03065093799179   11.89517642795637   14.01197788291978
W   13.91853351370988   14.20986161643305   12.67156275328708
W   11.62667833282808   15.03022552357166   12.83846904369231
W   14.05962246988483   12.70124800066373   10.46514616560815
W   10.32496279578265   14.14861052993280   10.79419311396454
W   11.75882085614243   11.62847088726325   15.06302679965632
W   15.04074180806989   10.32963423962037   11.79883588154188
W   10.23961167209925   11.00393096654626   10.46487643292274
W   15.81496386443060   12.49069129122171   12.29648030265743
W   10.29635546048769   13.35641139420104   14.28145461160317
W   11.87469673678856   12.32179337617258   12.22553087641423
W   12.81391209409919   9.90132023882818   13.00630064660151
W   10.21626648645729   10.37871524089650   13.21879384871811
W   11.80593862234060   12.92212832098228   9.36595233203825
W   11.01353518654088   8.86036840192994   11.43268566160415
W   12.83489774802927   10.47214577897265   10.49154545727817
W   9.12739822744905   12.33380662092445   12.20553986223188
B   12.49630897549168   13.53416123342899   14.27880280804849
B   12.52405846554146   14.30006769975491   10.90743962525233
N   18.08385672436696   12.77144650897121   12.38614341184305
H   18.47756767299291   12.83762958847291   11.44233064317388
H   18.34547358006986   13.62365777322909   12.89196228202174
H   18.52932723218172   11.97883817267813   12.85776291194487
23
F:    ...  E:  0.0793594900000016
W   14.01193119858908   11.92480040336747   14.00292563497497
W   13.86846501308119   14.23451380536055   12.66510337389140
W   11.57032289204606   15.02256182562681   12.83148136427382
W   14.02422280124384   12.72527743048528   10.45248953667344
W   10.28557895525900   14.13556469765706   10.77894422870560
W   11.74278338350315   11.62444376361125   15.06086246671779
W   15.02610418863370   10.36037888886997   11.79459739374562
W   10.23699804647771   10.98711412242434   10.45521037141178
W   15.77738015708643   12.52660720688232   12.27927582413183
W   10.26059080514108   13.33342130029320   14.27960818899681
W   11.85286513340084   12.32439635016940   12.21863587874216
W   12.80852734727217   9.91318738447449   13.00405252056584
W   10.21172107261089   10.36589950366644   13.21223341158265
W   11.78203649641454   12.92241039158372   9.35204466276998
W   11.02713879026638   8.85130237511315   11.43170409713429
W   12.82694178570138   10.47623784540743   10.48967711112634
W   9.10832384329202   12.31088958166074   12.19107635050191
B   12.45711507385227   13.54060662850820   14.27870048568349
B   12.47935072823636   14.30838226777348   10.89955249141525
N   18.04727421233337   12.51057463259265   12.40799621246960
H   18.52106447048709   12.58106765051675   11.51848468634192
H   18.45826991764958   13.19722024285071   13.03066188650590
H   18.14231792831092   11.55055933072296   12.71825358642677
23
F:    ...  E:  0.510191110000022
W   14.03327203054432   11.93319769808106   14.00983767821193
W   13.85116217370530   14.26581928336641   12.67968865081959
W   11.55252042625250   14.99749788267260   12.83007069757745
W   14.04442521547882   12.71834382009995   10.44596043045047
W   10.31911356621675   14.11292525359269   10.74111749216336
W   11.75660692217794   11.59195008384284   15.07663808905635
W   15.04684516017502   10.36164452238476   11.82407359184962
W   10.26243933950565   11.00251840850319   10.45548022693515
W   15.74050502155726   12.57602384282480   12.25909758175991
W   10.27151029255851   13.28948126925885   14.29240051503903
W   11.88190463362281   12.31526003113476   12.22060501641098
W   12.83090553343961   9.91255795314397   13.02799512507551
W   10.22011407747528   10.38176415545596   13.21070297225816
W   11.81276174914868   12.89408300277278   9.32583427165086
W   11.06182747881560   8.86487566018987   11.43560401847381
W   12.86697094169666   10.46577549426386   10.49538507973075
W   9.12390148859959   12.32488943229455   12.18160531634768
B   12.46301434984381   13.51596780360568   14.28677276928991
B   12.50225609188301   14.28290909335969   10.89322596397660
N   17.93511974638906   12.45855574629398   12.34834839787225
H   18.61571699744307   12.37481192300672   11.60443520736440
H   18.40845093789870   12.86987079253611   13.17123885689287
H   17.51741927864728   11.48433003216673   12.51314798738389
23
F:    ...  E:  0.785281380000015
W   14.04934103709708   11.93764802707599   14.02031746981614
W   13.87823682401666   14.27685632786322   12.69426586387720
W   11.58643316228010   14.97517912298295   12.82412593685894
W   14.10029368714350   12.70070102853245   10.48516838664515
W   10.36997812295508   14.12251787910385   10.72483595315812
W   11.78571499399181   11.58377479655593   15.08856743926346
W   15.13502546490507   10.35880518048932   11.89414606251576
W   10.27666942130443   11.01375090516563   10.46662655686443
W   15.90173379373930   12.59592814865562   12.29985004022929
W   10.28683009711576   13.27189183297550   14.30315623322873
W   11.90126597888727   12.31178436371950   12.22622855102519
W   12.86593809398705   9.91737417693591   13.02959644316614
W   10.22685792225605   10.38806251092949   13.20489431523876
W   11.84629286459385   12.87881520824245   9.32626210194496
W   11.05883677699627   8.88350972077843   11.43755591131168
W   12.91556243139291   10.47832706841925   10.52045966738865
W   9.14090104192360   12.35456431525339   12.19483287894689
B   12.48087521221377   13.50590306888983   14.29547907547722
B   12.54569599821459   14.27064589917023   10.89451853329878
N   17.94809711806622   12.94081044847934   12.21110816208168
H   18.62490946317669   12.56630003533279   11.54234812682440
H   18.44976211864118   13.06053483923645   13.10189763765466
H   17.09526045029197   11.23189424343574   12.56395058618238
23
F:    ...  E:  0.165320919999999
W   14.10618051893809   11.92977065546822   14.02716772925986
W   13.91645261815839   14.27424565211698   12.71405404434199
W   11.62263443786390   14.93880013186303   12.81922476513519
W   14.17495679568073   12.70065732437202   10.52693186833375
W   10.41732389671686   14.08904877609579   10.68769640996586
W   11.81599325681546   11.55463951946313   15.10754929269016
W   15.14460913173425   10.31744373257287   11.89968039809606
W   10.29612002865884   11.04735697309195   10.47267128131686
W   15.95286884998170   12.65133514738005   12.33565838098522
W   10.32530531133338   13.23768430581258   14.33648749181321
W   11.94506469437819   12.30153589375999   12.23392696349643
W   12.90655216987970   9.93105152444603   13.05876277006039
W   10.22815201901482   10.41829676736595   13.21884561908502
W   11.91391430358665   12.85287929108657   9.31704937214977
W   11.11180735419780   8.93542648535664   11.44866727663162
W   12.97845813155587   10.50171632482899   10.52803391306275
W   9.16679372828728   12.39776814827071   12.20787948118555
B   12.51240969173146   13.46994804417579   14.29937651189123
B   12.59006044612714   14.23951980609916   10.89603412810450
N   17.93022817804513   13.17990042700458   12.20929359693362
H   18.65983274474778   12.76976174536268   11.60229683261564
H   18.40723566367249   13.63135591200630   12.99244759916707
H   16.78041513047953   11.03135315636648   12.43620745063344
23
F:    ...  E:  0.0138422300000229
W   14.07379176606453   11.92676040426155   14.06647563755105
W   13.93407881200376   14.24558389832034   12.71555370018398
W   11.59770306172790   14.95165702551329   12.81803181293193
W   14.15231347053785   12.74036893435619   10.50300424155620
W   10.37565485899169   14.04453902225102   10.73030975377525
W   11.78898686406392   11.58390864329548   15.11361119114509
W   15.14075098247519   10.34627921189344   11.84972807978232
W   10.29042231732857   11.03536826943386   10.47616088576962
W   15.95406871513480   12.57824187529407   12.35976506450140
W   10.27223288696710   13.22319161992765   14.27322237588779
W   11.93777112498724   12.30305835122816   12.23104305807990
W   12.89117265927562   9.93628497097235   13.05473358810238
W   10.24004288857011   10.41837458043623   13.21441882986325
W   11.89780255179409   12.88965586885602   9.31402659714948
W   11.13612298635370   8.92359404882620   11.45066153822612
W   12.91855186865581   10.52331129986452   10.49583709701885
W   9.08942891687914   12.34662881448959   12.19669961444527
B   12.48041390329874   13.49344703670691   14.26313045056006
B   12.56943048530959   14.25340941395529   10.92580548648423
N   17.91865867259412   13.07814586222547   12.33681993033994
H   18.62974096939799   12.46044246627306   11.92431876351521
H   18.42254949852768   13.79981984051123   12.84481990471568
H   16.86903528493352   10.72107052372328   12.19857107832498
23
F:    ...  E:  -0.111675309999981
W   14.03358727255849   11.94818496746175   14.05001476047630
W   13.88871103038810   14.25521012376760   12.70770616583074
W   11.55696719466129   14.99225637962915   12.83124620964382
W   14.10043819237407   12.75894806333932   10.50625641369141
W   10.31341030812835   14.06726633347653   10.78937351858365
W   11.76269031515251   11.60269147522646   15.08490318840997
W   15.21818127443010   10.49967743171359   11.88557399943477
W   10.31701183169232   11.01762770179057   10.46430640863275
W   15.93133535319247   12.67805149030296   12.37899540808097
W   10.23929676770892   13.28612335846049   14.22775373123102
W   11.91236045698491   12.30238106452766   12.22983723635138
W   12.89948804306340   9.91970099668929   13.02085436257279
W   10.27174974985495   10.40154909499795   13.21360350181779
W   11.88257731602211   12.90514413147898   9.34581450645972
W   11.13834776734496   8.88087475165463   11.44219149670297
W   12.91814832155177   10.48404791124021   10.50387429997158
W   9.05771206121642   12.31200084680156   12.17165123070160
B   12.44487914142624   13.52147845752033   14.27395465778209
B   12.51565489238137   14.28703145960097   10.92562294320402
N   17.91224120257525   12.97019271059487   12.37922245411968
H   18.58320544270539   12.28692236540653   12.01692132683565
H   18.42974447269983   13.72921376306250   12.82615798081102
H   17.00172833914675   10.26617387959149   12.06596515628055
23
F:    ...  E:  -0.374149279999983
W   14.01377631745937   11.95602175381998   14.05069649048261
W   13.87070917035807   14.24813329088817   12.70109311565092
W   11.54223303206085   15.00411150852553   12.82947760167973
W   14.07930313941449   12.76628671244213   10.50062109253992
W   10.28170931054116   14.07182035954903   10.79916568960656
W   11.74201871855992   11.60709575843236   15.07150127416919
W   15.21597227202213   10.49203673333505   11.88637037982319
W   10.31657026474599   11.01723684748446   10.45640080883240
W   15.91305795831715   12.66859801761966   12.38381154605703
W   10.21286297394786   13.29333103928532   14.21082588156755
W   11.88378847804078   12.30427144626555   12.22417118871615
W   12.90597131265364   9.92094641344457   13.02286123860025
W   10.26730388185176   10.39704766261758   13.20887834543716
W   11.85686089256424   12.90734648428968   9.35201258804298
W   11.14521690120998   8.89352444351301   11.43702033227223
W   12.94161996652842   10.48886580816478   10.50407319865938
W   9.03508736548988   12.30606155743654   12.16643867616114
B   12.42008698308909   13.53092236602990   14.27081652478294
B   12.48702321057821   14.29657710632774   10.92445705619116
N   17.89850180573749   12.84072341516294   12.43414247649982
H   18.55234427813236   12.11101460665042   12.15587122748795
H   18.41604179770268   13.64151308970113   12.81741505441741
H   16.90801089406993   9.85030539513287   11.90849078569616
23
F:    ...  E:  -0.510680549999989
W   14.00410962508704   11.94729784494321   14.05225403112525
W   13.87198704473988   14.22415969456425   12.69536081433559
W   11.54497871653454   15.00465100344315   12.82708326815407
W   14.07373411991364   12.75922187072269   10.49546041079847
W   10.27509700350490   14.07819410797046   10.79426599758663
W   11.72607233727640   11.61164508790213   15.06851293307817
W   15.18212059500759   10.43374094562332   11.87024116441804
W   10.30979447802133   11.01684511505695   10.44670490028569
W   15.90531130772623   12.62120813475127   12.38247835775599
W   10.20646185886546   13.29800078627353   14.20999249335565
W   11.86535690737519   12.30279139622092   12.21983660495464
W   12.88698857909028   9.91489623158057   13.02667152248954
W   10.25427034589395   10.39210035068001   13.20297694044023
W   11.84369083911667   12.91365025603898   9.35028288580024
W   11.13400267497304   8.89410570767451   11.43069018222551
W   12.93399505357237   10.48863297287880   10.49809257920603
W   9.03040623385536   12.30854811321499   12.16313510923161
B   12.41526411598899   13.53190319765105   14.27096611930261
B   12.48249826800776   14.29729667708817   10.92215416091768
N   17.88973326008677   12.74541425795445   12.49443033073438
H   18.54675849535494   11.99312855428003   12.30406195574882
H   18.40038385340190   13.58046756401387   12.81003208367088
H   16.69791311324132   9.49380472097925   11.75563545519333
23
F:    ...  E:  -0.550257879999975
W   14.00309061217632   11.92696313688209   14.04269421992648
W   13.88292240398762   14.19819537430482   12.68506847588932
W   11.55755560622088   14.99940281366350   12.82366280861476
W   14.07050636429706   12.73768108607524   10.48690246360107
W   10.28252316832504   14.08476402817017   10.78536426105437
W   11.72378611129453   11.61256004760782   15.06776782677078
W   15.12814250815403   10.37257449749612   11.84489620314593
W   10.29531441096059   11.01579848163699   10.44233489288401
W   15.90248729759423   12.57038700018229   12.37345672229767
W   10.21779597505022   13.30184108702059   14.21900641576842
W   11.85562155177617   12.29809300583177   12.21506241461081
W   12.86045961461527   9.89981346372009   13.02242455759490
W   10.24066301727005   10.38766824958817   13.19950775602728
W   11.83682063794114   12.91657084970718   9.34625251885477
W   11.10097540073029   8.88686951421156   11.42388813040491
W   12.91029553231074   10.47756021731666   10.48948549559669
W   9.03526139129360   12.31620198515119   12.16604448674133
B   12.42570104577112   13.52477252855777   14.26888725075589
B   12.48866215379699   14.29086743644189   10.91587790302670
N   17.88353105983589   12.67612346386790   12.55824795247431
H   18.54509163841184   11.90425867514756   12.47458803963740
H   18.38398999325496   13.52951598062909   12.81434837486380
H   16.44285509703722   9.19387686460345   11.60134551839904
