35
F:    ...  E:  0
W   10.13188469654217   11.55950573338243   11.64822006435551
W   10.62617707289014   14.20850379217199   11.36577244806507
W   9.48694988963422   11.51361646577051   14.31082674032059
W   11.68587150300555   10.24755956791144   13.70541268402168
W   11.58192026092362   12.89259629622246   13.63324398640778
W   13.76061053642939   11.47706218344807   14.57178217324525
W   12.99800284174709   11.70741889059133   11.59662362350080
W   15.33243603796681   11.66548959634626   10.08948908253370
W   11.34841142101160   12.51531175014090   9.46092994475619
W   14.78851337802320   13.83613239945625   11.21783291465077
W   14.25194466974090   9.59233850124063   12.95024704454257
W   11.49545912395588   9.89288082048055   9.83924000238502
W   8.79869514091441   9.38319337954408   10.79243614685916
W   9.20799744250455   10.89446140320137   8.98832005334954
W   14.11183721192926   9.39803764365619   10.33181074628083
W   15.53223880872275   11.88293935262600   12.66726941170690
W   7.54388591964535   11.64485974796591   10.72852780728101
B   9.15559011582633   13.04055545453792   10.02145343231953
B   8.56682779106391   13.44827001463150   11.58522623873543
B   9.45274203118639   13.40702430609427   13.09378374826623
B   13.84359916357390   13.26947249525331   13.19409468558218
B   9.54664370174752   9.69350429750766   13.00302273875865
B   8.15371383372514   10.62690256132632   12.64361420991544
B   12.69124834727808   13.99099299518306   10.45786838881947
B   13.58918723605929   12.88321299793091   9.51442983202123
B   10.75258292598580   9.24587815880211   11.88955531055108
B   15.82096360268349   9.95421553117667   11.48632123346747
B   13.25371090502283   11.22145551751042   9.26331647359107
B   12.42585530925355   9.27265575123855   11.77412572107894
B   12.75490072191445   14.11542049877161   12.17138570547334
B   8.10517900065645   12.31404267485198   12.79932001528531
N   14.21639218057688   11.14464042114512   16.73748839789194
H   15.00943218484026   11.68498494390110   17.09949901849368
H   13.38267067632536   11.38140567207761   17.28770842960682
H   14.41409877540807   10.15023219262607   16.88817130495411
35
F:    ...  E:  0.132394550000015
W   10.12003532243300   11.54899158418198   11.61204879878166
W   10.61415124880566   14.20483964655934   11.36843067529247
W   9.45336231465292   11.46203861983398   14.26247669537319
W   11.64525111865271   10.19412737873016   13.65269713923930
W   11.54533543098478   12.86064460659476   13.62011343839020
W   13.70054272981693   11.44056596563915   14.53931194075491
W   12.98574547010823   11.70344753230501   11.58330756899867
W   15.34678330056585   11.69343151116373   10.10887772059677
W   11.36045018518977   12.53734270784900   9.45306893790577
W   14.77637321895075   13.84662617360185   11.26182031500431
W   14.22557809885229   9.57032745608438   12.91676279435334
W   11.50773265968167   9.91399882519669   9.78850240018518
W   8.78296398114330   9.39066884960896   10.71346303549201
W   9.21904654932142   10.93000812835142   8.93916175619151
W   14.13067536144747   9.42320049187213   10.31210188814725
W   15.50702848250209   11.88483632998336   12.70027492173709
W   7.53370560043560   11.65593229673101   10.67029669535146
B   9.15876017424826   13.05584522995515   9.99747691150791
B   8.55312108725016   13.44081396745836   11.56223068440883
B   9.42413575294223   13.37781809394328   13.07643704261004
B   13.80115784232382   13.25730454952726   13.21617575479790
B   9.51584942200000   9.66158780040857   12.92807751351056
B   8.12627686321201   10.60619624975771   12.57358162127762
B   12.69028170987659   14.00776202833333   10.47596754079144
B   13.60392373425303   12.90992083468028   9.53233180562277
B   10.73215441878862   9.22663009572927   11.81781603797234
B   15.82471845204407   9.98278985740787   11.49896710570188
B   13.27633422244251   11.25209718496730   9.25226506410887
B   12.40857199144196   9.25081878291245   11.71760652302786
B   12.73428101883163   14.11649670939416   12.19291409451193
B   8.07939658372760   12.29108763465929   12.75678858947435
N   14.39871857358507   11.30304614021366   16.60579561885774
H   15.22902154055208   11.91027909687602   16.53756836184751
H   13.71948452160619   11.64840224541597   17.31161736308745
H   14.68857676986205   10.35614865226480   16.90442554936626
35
F:    ...  E:  1.23951457999999
W   10.15308758633147   11.54391278019898   11.61838406503973
W   10.64045151481102   14.19220893643719   11.36146487088705
W   9.44897843899561   11.46581468420968   14.26854543305805
W   11.58245525791765   10.17585576107763   13.63932429907765
W   11.53441483375441   12.92172643135813   13.63677319311828
W   13.58955215262749   11.44773564406715   14.61607032352231
W   12.98518959986253   11.71362108731693   11.63540546307336
W   15.36593627153353   11.67353742081173   10.13709237644435
W   11.38103641317411   12.52083066871398   9.45488321182180
W   14.78696669760103   13.84330116136775   11.31835428449372
W   14.20622610254854   9.62664672149577   13.03155239089683
W   11.52059009910879   9.91447447381726   9.83679806119824
W   8.79527810521891   9.40812147129835   10.72335112948186
W   9.21699418154627   10.98658054026817   8.95009977945535
W   14.17767445691153   9.42440980815385   10.38092896610429
W   15.46728706398518   11.93773330551389   12.85096096209550
W   7.51009680786683   11.67156414752694   10.68767381695965
B   9.16199612778560   13.05850455029463   10.00433022328839
B   8.57362547346053   13.44111364733488   11.56807242141122
B   9.41829150876145   13.37719193835838   13.08236526873087
B   13.77160528689213   13.29514344858937   13.28821609258202
B   9.50690587538133   9.63678243838625   12.91012382915667
B   8.13911677392513   10.60188226032989   12.57555633821735
B   12.72438020378415   13.98576539326437   10.49491942966654
B   13.63227142722876   12.88548067328149   9.55216689322763
B   10.74172212412788   9.18259839241963   11.82557098935423
B   15.82233364648951   10.13055731066835   11.61001356649676
B   13.28812899582048   11.21830646136239   9.30948079197606
B   12.44667517679876   9.25047351964872   11.75724432943510
B   12.75770680403783   14.15197820128301   12.20954107468713
B   8.08731364787968   12.28472453002775   12.74744706975863
N   14.24074445296152   11.13261569809939   16.54656180501983
H   15.09975983701268   11.63461639735058   15.77516157685136
H   13.79241041846306   11.70421893780168   17.28577951644559
H   14.76072203303882   10.36038476514616   16.97581965460028
35
F:    ...  E:  0.423101089999989
W   10.15073568994173   11.53799590766213   11.63372380884525
W   10.64318893591689   14.19375794738438   11.38583847173195
W   9.46389412182487   11.48540832763649   14.29856747761183
W   11.59938870247937   10.19757766398439   13.67132364791062
W   11.56684299042334   12.88238831172018   13.66668100308189
W   13.66143308330950   11.49445823145375   14.76826967266423
W   13.00946172840511   11.72065165479606   11.65282914368216
W   15.36212699760724   11.65829887543703   10.17848769225423
W   11.37193165147584   12.51289796631711   9.46849645006881
W   14.80360608834252   13.82820530082379   11.30795596875247
W   14.23646026720233   9.59947235003199   13.00206072008674
W   11.52124112983027   9.91662103519381   9.85935582397964
W   8.80460918227507   9.40442352615173   10.76113960362357
W   9.20807113267677   10.96486938739885   8.97014363028482
W   14.16547975627021   9.40409746547567   10.41796340978191
W   15.48826120224380   11.88250659476308   12.85588186982556
W   7.52311085801987   11.67035548152998   10.71721150194571
B   9.16740070923768   13.06012948672933   10.02492171064852
B   8.58255224321573   13.44127828413113   11.58812650813489
B   9.45597535793607   13.38557796978658   13.09684670140199
B   13.80102466767423   13.25281072074458   13.27858956914345
B   9.51531141813941   9.65397554792359   12.95870327059741
B   8.13573649521816   10.61286826805800   12.60887524906959
B   12.72249289088318   13.98566354925485   10.50089943104979
B   13.63107984532705   12.88192685303279   9.56111093684419
B   10.74017158836329   9.19909045524388   11.86395670605082
B   15.86345394624857   10.03730132548628   11.59391938968591
B   13.28106227938347   11.22301045111902   9.31409836101400
B   12.43065749135960   9.28345675188901   11.78217718521103
B   12.78060061425163   14.13798484490631   12.21258438306424
B   8.10157222755807   12.29090739831093   12.78146261551816
N   13.83539894917118   10.94392046763789   16.67431383983150
H   15.32727745963652   11.78158703137185   15.39729175757497
H   13.43282662747588   11.48534455683608   17.43602989764658
H   14.66223341814664   10.43446727463055   17.00647691582499
35
F:    ...  E:  -0.539909239999986
W   10.14781967974447   11.53860205765221   11.61867682196909
W   10.63452457972613   14.19428892816248   11.37476088436104
W   9.42817967370678   11.48331981496554   14.28385918271086
W   11.59416847139878   10.21815075449345   13.67523776875251
W   11.54292688173829   12.86572463527548   13.68353479507939
W   13.68406606148614   11.50711287722791   14.76566592313015
W   12.99576642576396   11.73756466576693   11.65907355499610
W   15.38098188916827   11.72301707312498   10.13056205331680
W   11.39047317371070   12.51006120208827   9.46973879893629
W   14.78240766398615   13.85350585419856   11.31490177774535
W   14.23222921336016   9.62943138637467   13.00254855911250
W   11.54263148748629   9.90532677162187   9.86610444274060
W   8.81593730530054   9.41655462397096   10.71057129142417
W   9.24087208388824   10.96012325786664   8.94133507631818
W   14.17238433891401   9.43978992459432   10.46024190574419
W   15.47879688153175   11.95793758387160   12.90541266487410
W   7.52406479834443   11.66731920485448   10.68788144709331
B   9.17903847099357   13.05931991218269   10.00837234181118
B   8.56987092816193   13.43971298780676   11.56359708967002
B   9.44568790884118   13.38493912115507   13.07320933968330
B   13.77258423697672   13.28654361159210   13.30863272069272
B   9.51123485356140   9.65392206494643   12.93356164539807
B   8.13436166991959   10.60769076331212   12.57544079552604
B   12.71383176975279   13.97204761011693   10.52444321316712
B   13.63195236679109   12.89876254635619   9.55399058918695
B   10.73512154447649   9.18738329575735   11.85501477078984
B   15.85275558828776   10.19016416317348   11.59989563414763
B   13.30569944399863   11.22727348088265   9.33055326148765
B   12.41919160859394   9.24028617839251   11.81753490411704
B   12.74827512871133   14.14007403791663   12.23987539363892
B   8.09827172318006   12.28645316975349   12.74858640676678
N   13.91198517718427   11.02586275511913   16.67860976823844
H   15.67140640612564   11.81822859833186   14.74943061751500
H   13.36890890183350   11.34913695339011   17.47322950884672
H   14.69823609362406   10.46104397263099   17.01759007501553
35
F:    ...  E:  -0.617985869999984
W   10.13834953677156   11.53449287428498   11.58953270425671
W   10.60159319781553   14.20405890035853   11.36964237555805
W   9.39496027334036   11.45510532830798   14.25383466085441
W   11.59458889961006   10.19857683221456   13.64982724688397
W   11.51551264320229   12.82735946768498   13.67417762983584
W   13.69121675600970   11.48486466789445   14.70609504762045
W   12.97455793527251   11.71890950805040   11.63675005041850
W   15.37769164214956   11.74026943119244   10.11023159429426
W   11.37260659598846   12.53155168775769   9.46232131150469
W   14.76822788420071   13.83862020271739   11.32680282451482
W   14.22860331608091   9.63727396620013   12.98403812717957
W   11.53305226903749   9.91600209536456   9.83838306269958
W   8.81053431742312   9.42821468634199   10.65531357518123
W   9.23438784629302   10.96460238869686   8.89226252754049
W   14.17439625720576   9.45737428453231   10.43385022130994
W   15.51576416182334   12.00640572475111   12.93151605527913
W   7.51425775242644   11.66127915667208   10.65119841632222
B   9.16474145192724   13.04820147536238   9.98242598544588
B   8.55023968214673   13.44249424504359   11.54079501802556
B   9.42002027656723   13.36550233810613   13.05828248219745
B   13.75945125471544   13.28954971715753   13.29748265555745
B   9.50625995889435   9.64171014360756   12.90006859963400
B   8.12934928324388   10.59572383785241   12.53055191378806
B   12.69143812893402   13.96939807475647   10.53056086330466
B   13.60957551539300   12.91386573473543   9.54261299312777
B   10.73272187977658   9.16851674715316   11.83422228254686
B   15.83743168900090   10.25164915134688   11.60936383477960
B   13.29457608805398   11.24691714211922   9.30772613063968
B   12.42080508373136   9.22144685698127   11.78311985833574
B   12.70774299640208   14.10914927433733   12.24217179909029
B   8.07213334627196   12.27631117840939   12.71725278135871
N   14.03708257103288   11.09118007280364   16.61033127895929
H   16.17365653078949   12.25811104297937   14.58926065338773
H   13.50804473627309   11.46790349621371   17.39370045057582
H   14.75268844035087   10.44431903805302   16.95391089057129
35
F:    ...  E:  -0.703607540000007
W   10.14417759550515   11.53014890649483   11.58382517878414
W   10.59757035061947   14.20765864905114   11.37436372728554
W   9.37870673574026   11.41997568127833   14.23283184579538
W   11.56775406614914   10.15882634688479   13.64183295924722
W   11.50289242247474   12.80212966409294   13.66959761726068
W   13.68476616189541   11.44008631675520   14.66553818038735
W   12.95516259701352   11.69192724817930   11.63478838801327
W   15.37004140893268   11.75271528385335   10.13206473252181
W   11.37867900518756   12.52866446531764   9.46144175261847
W   14.74316956844590   13.86356882099003   11.33607837798782
W   14.21021916796637   9.58203593681732   13.00718767497282
W   11.55333088422750   9.90828929361632   9.81592796711385
W   8.82645712605719   9.42232877866640   10.63303968678500
W   9.23821131280762   10.99036153239658   8.88606465247492
W   14.17301317669280   9.44934907132269   10.40289542462946
W   15.52926678954800   12.05563737368978   12.93292879722820
W   7.52099841099812   11.66508715815465   10.62588348312683
B   9.17292228765871   13.07009126635360   9.98105896467985
B   8.54834992995750   13.43868485336096   11.54024549331567
B   9.41203656120592   13.34348123401318   13.05912240379263
B   13.73896250041720   13.26080808633580   13.29201797641951
B   9.48796105247513   9.61718034736069   12.86982354884510
B   8.11773515100387   10.58092249412930   12.50202313891983
B   12.67494429025074   13.98261002886197   10.53806925008149
B   13.60497650084450   12.92588268649173   9.56822014215966
B   10.73853693070845   9.17539729144584   11.81565008297392
B   15.75748746728609   10.26358852141405   11.63610620537282
B   13.30434842348455   11.25804536815489   9.31236496075498
B   12.43187388707549   9.23334450972264   11.76299349384331
B   12.69222076118389   14.09182677065911   12.24992044084487
B   8.06917554867862   12.26211014418188   12.69722260339408
N   14.08565547307348   11.10334386764028   16.56409330225392
H   16.55800734721969   12.74442677337133   14.19784278234085
H   13.58026929641731   11.54247400784401   17.33614682908934
H   14.77203155373993   10.43993569888940   16.92752231964153
35
F:    ...  E:  -0.672224449999987
W   10.15952045776021   11.53050052635042   11.58154138048976
W   10.59963981004715   14.21856399209496   11.39675916044270
W   9.37135504436116   11.39960758947723   14.22267049327328
W   11.56033524896773   10.12744284623708   13.62899998774276
W   11.49853698995746   12.79104547296290   13.66849169744010
W   13.68940691975233   11.39640564199177   14.66041151523776
W   12.98115500191649   11.65733625570285   11.67407534483087
W   15.36888619044756   11.73025890202683   10.16451560282422
W   11.39914759143697   12.56117613106555   9.48656212881128
W   14.75949997258507   13.87097872985164   11.37257633345167
W   14.18076782759217   9.52234376521148   13.05868697459571
W   11.54178789653916   9.93308150409269   9.81132831229343
W   8.82657092312615   9.40940624976658   10.62061156047484
W   9.24643659538197   10.99444210661290   8.88805818305469
W   14.17996642596496   9.43047764048643   10.32448291623953
W   15.52337980298680   12.03642759853962   12.92104407749023
W   7.53212886909168   11.67499404930532   10.59833211691557
B   9.18581056496661   13.08082118198087   9.98048471656576
B   8.55292385721702   13.44016206913993   11.54133286496271
B   9.41088329898088   13.32515779679665   13.06121915367991
B   13.72689425154222   13.23522417431954   13.30797722515108
B   9.49629111170951   9.60129662846807   12.84730899312063
B   8.13110955736593   10.57452071641759   12.47540462105188
B   12.68797871945761   14.00264226874543   10.57301733061915
B   13.61826690026448   12.93152139181435   9.62776071300242
B   10.74754015802459   9.15810876591802   11.78728645439779
B   15.65930344648484   10.22692926711128   11.67787639391024
B   13.30898085953190   11.27141693495510   9.33117443615331
B   12.45770082038191   9.24267912994408   11.73285270558317
B   12.69615771274774   14.08934580180351   12.28076856313734
B   8.06707163914668   12.25308731551782   12.67899681600436
N   14.12032631042217   11.10664418742841   16.56155408140514
H   16.62388835517113   13.20663726160916   13.65431726866971
H   13.61708665071136   11.57713609697339   17.31865261399223
H   14.78489201760854   10.43467042461602   16.94445376805661
35
F:    ...  E:  -0.802924860000019
W   10.17385001089870   11.53547513711427   11.58691642151758
W   10.62423606995503   14.21815609824533   11.42074565625564
W   9.36828340601547   11.39064613701873   14.22136974924947
W   11.55597844819783   10.10168335242937   13.62971922680082
W   11.49806212196153   12.77235133352263   13.68805987788081
W   13.67735675725585   11.33796703031607   14.67956528060150
W   13.01304507466355   11.63130422439664   11.69733024249257
W   15.37714023536027   11.68678921640885   10.19722851751201
W   11.42581424251996   12.58944490982402   9.50945525093590
W   14.82053132190441   13.82701879216615   11.47544755075972
W   14.15866836312284   9.44643626348006   13.07400058414375
W   11.54838888220224   9.95394005207106   9.81370726231954
W   8.83029549337078   9.42424943426872   10.60766018560173
W   9.26036336201422   11.01980823334170   8.88493179119301
W   14.17537409466719   9.42082532344211   10.31186191404124
W   15.50678659428874   11.96476794511575   12.93750045789365
W   7.54530824870382   11.69321122854792   10.59147442979817
B   9.20861660005462   13.09561890216201   9.98478682864706
B   8.57348932720987   13.44570207600465   11.54479690208178
B   9.41595296900128   13.32670044986616   13.07003818514580
B   13.70987020603260   13.18643783829501   13.35376701913322
B   9.49352809430820   9.59808247224760   12.83977475692152
B   8.13380853822379   10.57955110894466   12.46803774668822
B   12.73609825686418   14.01147568191187   10.61371018196929
B   13.65670100963054   12.94357250980230   9.68048779176862
B   10.74211518629764   9.15725003641811   11.77489621948933
B   15.64639556399848   10.15449093545627   11.71006023031451
B   13.31758819926134   11.29579562541721   9.34159632223763
B   12.45326241920709   9.23042750462042   11.72668532298850
B   12.71662494709677   14.07358361749593   12.31939103891522
B   8.07375987711901   12.25666770381825   12.67627087619691
N   14.12243421894012   11.09735133677950   16.58451487043411
H   16.35061318687465   13.56965215867863   13.15689271580546
H   13.61257547548551   11.57331517007754   17.32897807223824
H   14.78228427933574   10.42462584817456   16.97432910266892
35
F:    ...  E:  -1.03107849000003
W   10.18519490477423   11.53780759424767   11.57392475238213
W   10.61276235309280   14.22093143580370   11.40020471039673
W   9.38327678966137   11.39087700434329   14.20869617276404
W   11.58908960084305   10.12506864343837   13.62280903461831
W   11.50874277370487   12.79001308599758   13.66771846163176
W   13.71534726601330   11.38629471788863   14.66920920060834
W   13.03255924121460   11.66165846155626   11.67814156839584
W   15.36679025957837   11.69355194495604   10.14527922713542
W   11.40913066098886   12.60219772511269   9.48591461178476
W   14.81185025891260   13.84817322683627   11.42246231649627
W   14.19822274126263   9.50707148644305   13.06462564261608
W   11.56923465351862   9.96481303780244   9.80721063633620
W   8.86589092035811   9.42183875329288   10.58431691504612
W   9.28170023028306   11.01594007945494   8.85900595808411
W   14.19060591522383   9.44816184722172   10.30456143300004
W   15.53717923919537   12.01603179728854   12.87703813991240
W   7.55743773052918   11.66697557771282   10.58058519024302
B   9.19517324225450   13.09065460618266   9.97478541522426
B   8.56723196609289   13.43363568639534   11.53462361035137
B   9.40981805730414   13.32363991649611   13.05730099585146
B   13.73197670683356   13.22451439529418   13.32590355658492
B   9.52523042685029   9.59668015684100   12.83151898883974
B   8.15411685933156   10.56074834190778   12.45749542439049
B   12.71312157415272   14.03989038417993   10.57288293733298
B   13.63912079224047   12.96982170416985   9.64044763240167
B   10.77628939045205   9.16555609563902   11.77083153941459
B   15.68902449052510   10.19104498368289   11.68163323365530
B   13.30473990393038   11.32203504078192   9.31452571037551
B   12.48383761519869   9.24851381361966   11.72981010916424
B   12.71527726055897   14.09381815814330   12.28584970377454
B   8.07552791786878   12.23754204001872   12.66618891393662
N   14.16976913330904   11.14491793902280   16.57743522076639
H   16.40534126494955   13.73148000544838   12.53708321699722
H   13.67601992702538   11.61435775799873   17.33913332566483
H   14.82485648089778   10.46314397389370   16.95780218525756
