35
F:    ...  E:  0
W   11.35817488669397   12.79181604452720   12.77888867387922
W   11.89420889077237   15.43553686774908   12.59732615870308
W   10.57825215081573   12.67876485069184   15.41878249122296
W   12.77616709960475   11.38870937494833   14.85623952536676
W   12.73016074915079   14.02390191902957   14.87863160106526
W   14.88406313717490   12.57982883430659   15.81815007378165
W   14.15872773547057   12.86354831509087   12.87386612228309
W   16.60450086822884   12.82391813082195   11.39339696593161
W   12.65987826430714   13.79750746640409   10.66668007634845
W   16.05654902867838   14.97030407678654   12.63839223857715
W   15.38992385454773   10.73528599723988   14.28299987825674
W   12.74951620473303   11.16700395340282   11.01216589064433
W   10.02479429977137   10.68880590614062   11.82426419536650
W   10.50144730068773   12.27613884327626   10.06872288269150
W   15.34379834665982   10.60707040285301   11.57726090618908
W   16.78428703028002   13.07073796733774   14.14177208140152
W   8.77771140294461   12.96216739446586   11.76366153432556
B   10.44561969793758   14.35846861777708   11.15918759679103
B   9.82041697193796   14.72069471818621   12.71556850561407
B   10.64168877372643   14.59704035235591   14.25398625025496
B   15.01588166990108   14.41873914797147   14.56030732155029
B   10.69133142512212   10.88659028454004   14.05775031428964
B   9.32715287207119   11.85957853323247   13.67521525822721
B   14.00036534014868   15.19687782632923   11.79836498516502
B   14.89790710003794   14.09979826603040   10.85098528561234
B   11.93572394052657   10.42646924450406   12.99450712360232
B   16.96117502960067   11.27370201464792   12.87903172912150
B   14.54167599251113   12.46205392102096   10.53308666455012
B   13.63655052387838   10.43508272660091   12.96555702168348
B   13.99468539866717   15.29757268876514   13.50727082520027
B   9.28903063564541   13.54299764120186   13.85679390463300
N   18.87642761504872   13.25885139611441   14.95253380105776
H   19.47836316033554   13.53816507763265   14.17334954509139
H   18.98611970016786   13.95232220044931   15.69741065412705
H   19.21128857695776   12.35610968516063   15.29943480986965
35
F:    ...  E:  0.0334773700000142
W   11.34769756232632   12.78799280303459   12.77871905844010
W   11.87220067672606   15.43854356507602   12.60749164638265
W   10.57814297753794   12.65937836599317   15.41961982880170
W   12.77602146025033   11.38053919020899   14.84709346388604
W   12.71972276637419   14.01882443112189   14.87971643007941
W   14.87479110169058   12.58343533968801   15.80446113748371
W   14.14298064443652   12.87209404721145   12.86291798589620
W   16.58396250988645   12.85201132958918   11.37562325694282
W   12.63550763368001   13.80668171094872   10.66426530349523
W   16.02784539902273   14.99309726701446   12.62758097457454
W   15.38881931325839   10.74735850447104   14.25670953706962
W   12.73913658711143   11.17286044630862   10.99852799828848
W   10.01703484685673   10.68735972244214   11.82010332318256
W   10.48255222745798   12.28534994508574   10.07061638906448
W   15.33778543915812   10.62377517983330   11.55237050268196
W   16.76599067474665   13.08586278820484   14.11906191249620
W   8.76311922689347   12.95946285574596   11.77506383381550
B   10.42630583105201   14.36287591031626   11.17271695244959
B   9.80393085492706   14.71569362141170   12.73189243031446
B   10.62982213395677   14.58759713564652   14.26673210210772
B   14.99745757836375   14.42835339784141   14.55340426812460
B   10.69102398216148   10.87515377218062   14.04913415686448
B   9.32343010022639   11.84776654561728   13.67661739096898
B   13.97119462856121   15.20744977213079   11.79708693765325
B   14.87137744726896   14.11862819205997   10.84257744291331
B   11.93343381024238   10.42323553766216   12.98061535618498
B   16.95829574317658   11.28826898724199   12.84500491342544
B   14.52192372205270   12.47845691347998   10.52102943006063
B   13.63359824318268   10.43658223670030   12.94414552907656
B   13.96965877153918   15.30608732315489   13.50582575802236
B   9.28180155521712   13.52986568353922   13.86836862052496
N   18.82846551229875   13.10019225675121   14.94730107435970
H   19.47323247715387   13.55959546456684   14.28018046188774
H   18.95591840832441   13.55868292198917   15.86562596183805
H   19.09202656906487   12.10826265448383   15.02005219085890
35
F:    ...  E:  0.160229970000046
W   11.34327147114948   12.77965391369120   12.78050789555227
W   11.86199510909596   15.43878017809817   12.61906795389982
W   10.58325154760580   12.64181738570813   15.42310634387232
W   12.77861651722932   11.36607511267612   14.84497248134232
W   12.71153592694731   14.01278956879580   14.88680781166291
W   14.85649053751544   12.57647670268899   15.80020945028644
W   14.13057339240779   12.87740225006942   12.86127940427759
W   16.57342304638853   12.86854592040634   11.38258862418263
W   12.62847315102719   13.81175153584765   10.66715827020196
W   16.00159660657491   15.01974151034617   12.62619161484694
W   15.38854872433819   10.74971627581509   14.24066939934397
W   12.74186190993925   11.17309753068846   10.99009662856716
W   10.01661868690037   10.68641405918304   11.81719212605840
W   10.47871028381279   12.29218448362070   10.07691046519246
W   15.34604052357889   10.63335215963792   11.54373920105272
W   16.73393810748102   13.11148383843767   14.10833014035225
W   8.75775347649574   12.96043333865299   11.78381134511225
B   10.42091689064429   14.36454087629753   11.18373152402874
B   9.80078988800924   14.70918772188710   12.74594397756720
B   10.62800705062809   14.57911325754537   14.27649856873492
B   14.97689825570085   14.43928464019516   14.56171457798517
B   10.69356198237076   10.86461546029208   14.04493449092488
B   9.32376835600534   11.83868308997683   13.67809128755852
B   13.95462392369862   15.21590837536180   11.79754066770073
B   14.86586282561121   14.12982350565567   10.84585248737708
B   11.93492647571290   10.41684136370703   12.96928323445219
B   16.97065545990664   11.28998561755545   12.83703263829243
B   14.51765745653728   12.48865200811851   10.52089924678286
B   13.63392109474864   10.43416876025201   12.92972209853677
B   13.94793771257135   15.31386485598993   13.50902393503979
B   9.28401078343610   13.51895742313108   13.87891336542169
N   18.78494255411753   13.00300904909674   14.93092959393740
H   19.46414789198764   13.54827921816268   14.40521291181961
H   18.93673000215522   13.17002581234600   15.92269914077246
H   18.82488628470829   12.00290592903771   14.67233653591799
35
F:    ...  E:  1.21404540000003
W   11.37241847095613   12.77427586580793   12.78519746574101
W   11.89277843159716   15.43774284467380   12.63151866066594
W   10.60502620913858   12.64708091694670   15.42409683740101
W   12.80108385917919   11.35042299904978   14.86014478250660
W   12.74586498676774   14.00801291497508   14.88171651380241
W   14.87691901340286   12.55248101469122   15.78438320915440
W   14.17263039545700   12.85306313445799   12.87907502798335
W   16.59646429434074   12.85553779572948   11.44558962455659
W   12.66600522693723   13.80383528559182   10.66985272702884
W   16.02286947972377   15.02977131226442   12.61728899252494
W   15.40414615846079   10.70735898758852   14.20438657677886
W   12.74952130874460   11.16738978921093   11.01145768425150
W   10.00513965351433   10.69230412758539   11.82212543989537
W   10.51645005208908   12.26303460616721   10.08899179686610
W   15.38368177623055   10.61644700738203   11.61127123943863
W   16.77997200779643   13.13911423013663   14.15725433138587
W   8.77894392288771   12.97774535698177   11.78066915082158
B   10.46381863054948   14.35669117659830   11.18666831131837
B   9.82735662898862   14.71387294375656   12.74389521479140
B   10.66868160622878   14.58910471965059   14.27377073018491
B   14.99764781722833   14.43663256824742   14.55826152014084
B   10.70026309769414   10.87608421246627   14.04975923697287
B   9.33913969261350   11.86197398906874   13.66783549241510
B   13.97602849517457   15.19836452245009   11.79287364431012
B   14.89654821354168   14.10037993108425   10.85910789491081
B   11.93479109463308   10.40235074175712   12.98309499723872
B   17.07861292183231   11.29872103029829   12.94736829962811
B   14.55258346095508   12.44749435816733   10.56158137522685
B   13.61666780687565   10.39256982691774   12.94535130510230
B   13.97641811093355   15.29498277776074   13.50591090779968
B   9.31043668746495   13.53941054890689   13.89222302450379
N   18.70900183873330   13.28090759836912   14.93273006650907
H   19.49594380939481   13.60558673341061   14.34859120997485
H   18.97637971495789   13.31830662636423   15.91764057766809
H   18.31442391506795   12.07025410760677   14.43924475899039
35
F:    ...  E:  0.610874980000006
W   11.37679636725799   12.77951523034301   12.78320557180080
W   11.90329150772645   15.43778001790917   12.63216846425217
W   10.61028542783646   12.65274082526618   15.42852637880159
W   12.80446535631408   11.35572038748352   14.85314833181615
W   12.76298601126260   13.99635323932967   14.88339880109867
W   14.93132710665355   12.52736074361262   15.75175339637159
W   14.19135280344092   12.84227415833749   12.88022889993504
W   16.61124755963897   12.86902431104243   11.42657887528445
W   12.66585504414461   13.79644089248992   10.67202555345941
W   16.03605096002227   15.00420944302559   12.61943536828968
W   15.41603676839937   10.65510782891789   14.22066238907225
W   12.74141390149765   11.17120529425479   11.01031419649555
W   10.01412487100437   10.70224355011511   11.82092330584093
W   10.51069770895944   12.27175613412778   10.07241491967647
W   15.34827914289950   10.60401706617260   11.58750247346330
W   16.92297432489744   13.11667490016075   14.22059078667309
W   8.78962700032634   12.97491952093890   11.78175726290025
B   10.46896297980266   14.36076407691109   11.18423834069247
B   9.83430033446869   14.72123100963101   12.74302890238949
B   10.67911824056342   14.58676534250377   14.27452181703078
B   15.03394563121083   14.40384194634686   14.54096279346548
B   10.70640829746854   10.87380960662988   14.04906410516201
B   9.34668324472121   11.86455240650809   13.67772862862206
B   13.98326080441441   15.19707927608841   11.80473304635421
B   14.89450777738765   14.10289977045461   10.86432995174529
B   11.94485757825107   10.40620809717709   12.98901859538106
B   17.00010478630216   11.33859497767657   12.93040716483828
B   14.55987302674259   12.44965195604962   10.56364306103681
B   13.63231816080465   10.40714852947512   12.95310346784397
B   13.99023390169429   15.28747107722868   13.51921690156358
B   9.31748092860050   13.54501251060184   13.88690239997181
N   18.70443219832726   13.71981111138862   14.96640565263138
H   19.51925401659063   13.57177794921868   14.36066009303842
H   19.01308206607807   13.47041730901207   15.91086550823296
H   18.03834027394859   11.70199896462494   14.42907061431235
35
F:    ...  E:  -0.265028289999975
W   11.35747443395895   12.78275529131909   12.79077823557530
W   11.92746744963446   15.42160605245284   12.63709948408615
W   10.60462828418226   12.64514085081200   15.42756443601988
W   12.81043985430045   11.37014971374967   14.85771786455895
W   12.75279141636487   14.01998612333975   14.89171679433285
W   14.85629760437671   12.58385291116701   15.81324113931158
W   14.20362548975162   12.92414969793114   12.87490130504794
W   16.61396844395683   12.85362995186699   11.52378784230405
W   12.69078527724481   13.77611118648056   10.68176668969713
W   16.04252354245143   15.02538487517478   12.65503265162777
W   15.38630763035494   10.73484342871055   14.22931424304391
W   12.75592682896125   11.16367660270158   11.00962775620205
W   9.99775799460776   10.69746646988152   11.79438591776548
W   10.52776049389817   12.23534136247582   10.07142232919608
W   15.40325351802680   10.62706145362294   11.68967504717858
W   16.88881943290458   13.15397982114808   14.20192273934453
W   8.79827091407179   12.96088247508162   11.79208631723613
B   10.48467500892265   14.34045216114397   11.18881857407693
B   9.84359110438163   14.70735581360990   12.74433118029900
B   10.66892952622673   14.58230998162154   14.27865374974878
B   15.03909763980165   14.43171732474233   14.56516332475813
B   10.69945648058099   10.88130701759577   14.04715988889685
B   9.33845075570937   11.86002700288994   13.67250357601245
B   13.99367168244361   15.19425384286134   11.79754068333206
B   14.93767568717483   14.09415917175411   10.86586374738715
B   11.94101555311732   10.41869721996092   12.98978197143650
B   17.12604183132592   11.21269106664212   12.99242748459469
B   14.58374762304841   12.42583835135260   10.58097118434081
B   13.62015975345269   10.38850994573251   12.95271670394729
B   13.99528450184009   15.30309195513118   13.51582545160151
B   9.31283972448441   13.54554468866760   13.89724273669360
N   18.66353767713314   13.71267855889739   14.99564229791492
H   19.47479610243398   13.75896301064004   14.36477968772326
H   19.01129049943658   13.52757563573023   15.93478486310337
H   17.95500239942346   11.40883890604210   13.96736571987202
35
F:    ...  E:  -0.399292769999988
W   11.36996730460437   12.77730062108289   12.79224782211270
W   11.90358058795278   15.41079056922801   12.63849471466779
W   10.59696491532032   12.63348001023608   15.42948668908147
W   12.78585319339885   11.37058499868454   14.86427618603896
W   12.74340325963123   14.02663708269674   14.89937151444968
W   14.85598410429095   12.58708406442091   15.80748636522614
W   14.19853879097451   12.88560761096379   12.88489653401169
W   16.61150240742873   12.86774323594673   11.47905090745712
W   12.67798596984046   13.78673104420599   10.66098829853544
W   16.04323138587636   15.00282105373153   12.64692212151052
W   15.38724886219021   10.77490614187592   14.24102037044085
W   12.75085178758983   11.17409671692256   11.03150690907103
W   10.01800077153263   10.68024405061829   11.81250453485019
W   10.51704264247021   12.26613468430466   10.08527548494172
W   15.36699988596849   10.64425821073004   11.62233058131708
W   16.86431679557363   13.16366705029129   14.18607279838172
W   8.78146482695559   12.96835583222478   11.78780812301147
B   10.47054397951845   14.35219801598019   11.19211777055081
B   9.82682727312783   14.70462964953852   12.74890277043617
B   10.65452194690910   14.57890382464160   14.28333290096348
B   15.02685374070675   14.42003901442716   14.56345406849762
B   10.69597580748070   10.86135437801062   14.04518568851116
B   9.33888215661344   11.84888052831366   13.66456105769246
B   13.97968385799559   15.19734119933568   11.80906861193924
B   14.91679296179317   14.13389728352562   10.84526910044337
B   11.94084545630768   10.40274482275498   12.98663463275490
B   17.10966195179012   11.23854333142687   12.92120048192775
B   14.58041162631441   12.47491366595733   10.57017857432258
B   13.63032000286360   10.40499375233095   12.96630794495936
B   13.98814383969350   15.30506282290024   13.52672057551210
B   9.30580374106898   13.52761805293019   13.89285366391226
N   18.63146301694212   13.55163923737716   15.00645554692434
H   19.40343751453286   13.95743757505050   14.47727532279334
H   18.97711281355626   13.21428717945207   15.89955391673224
H   17.89821288062890   11.08033535240688   13.87874812813361
35
F:    ...  E:  -0.598280719999991
W   11.37322870350777   12.78471874104678   12.80153938165727
W   11.88612993558700   15.42133502086514   12.64829597050898
W   10.58791180483961   12.62022998789828   15.43349833787225
W   12.78811027740596   11.36447312657344   14.85787832954564
W   12.72877408792279   14.01619333934709   14.90398454552388
W   14.85589734400009   12.57252168967062   15.79620200513235
W   14.19169861941602   12.89216137516331   12.87667597174145
W   16.60595248574953   12.89220489044606   11.44351526220401
W   12.66668402461936   13.80231000816192   10.66112157429587
W   16.03163898142252   15.01600347455393   12.64640184831537
W   15.43769941124402   10.79325707532312   14.24604615652277
W   12.75762527744410   11.18753973844053   11.03035125298801
W   10.03490801066002   10.67798019561052   11.80357237738724
W   10.51361617253824   12.26900943074573   10.08656025089122
W   15.35887420338517   10.65763009618287   11.56931537718909
W   16.85017748918681   13.17845160578591   14.16451604020735
W   8.78056582420053   12.95903196978565   11.79847105975727
B   10.45604013345831   14.35386028255059   11.20255308143771
B   9.81434947550131   14.69925887645446   12.76162191354044
B   10.63933427170800   14.57697950876168   14.29710354836928
B   15.00690059970504   14.41351108896316   14.55682560338736
B   10.70957573194542   10.85369418866879   14.04571510745604
B   9.34646764287875   11.83684458889782   13.66832754983281
B   13.96112703992662   15.20427200979416   11.81264917315149
B   14.91244737709176   14.16195033917286   10.83929950879225
B   11.95675506803705   10.40442645133209   12.98561662076994
B   17.08169797179512   11.24771718537867   12.84811732879736
B   14.56351026179710   12.51383341378033   10.55097056737012
B   13.66196445045576   10.43374427955787   12.95742286460244
B   13.97224746453985   15.30014156930780   13.52573298099177
B   9.29947627004246   13.51783588443068   13.89983733962740
N   18.62031136529257   13.45914533175474   15.00075287245699
H   19.36139588722447   14.03296949163367   14.59886941631414
H   18.94795686735368   13.00401905045485   15.85181090587150
H   17.67565938884601   10.71213445983477   13.84535945088653
35
F:    ...  E:  -0.756576679999966
W   11.37321162672137   12.78846020019467   12.80424864040308
W   11.87317540633727   15.43060583257103   12.66079288082414
W   10.59057848318357   12.60644923428644   15.43666102488972
W   12.79464788033867   11.35284464116493   14.84986044724592
W   12.72525594334741   13.99946886632199   14.90966757984360
W   14.86842034470866   12.54500463508024   15.78086945598585
W   14.19173173354218   12.88293089898562   12.87340764374074
W   16.59598784928000   12.90011812702535   11.42337576661055
W   12.65055663469080   13.82588238947009   10.66716751755593
W   16.02420656018154   15.01748643243866   12.64705435289320
W   15.45224445653561   10.77127923088277   14.21619359991080
W   12.75200671152547   11.19901591783996   11.02006063489310
W   10.04101073592048   10.68902747894030   11.79292924751941
W   10.51030207660594   12.29123795090650   10.07518311443154
W   15.33008540759878   10.66634139977938   11.50612739933827
W   16.85055741670582   13.15445605988273   14.14084174600976
W   8.77900700678378   12.94863721148085   11.80944687048285
B   10.44310097825199   14.36101103013455   11.21439972759639
B   9.80661204863980   14.69483074207429   12.77631645399379
B   10.63262598583076   14.56886260853168   14.31236018547985
B   15.00045395229298   14.39531194526771   14.55325362904521
B   10.71554554748074   10.84561163752467   14.04312867558991
B   9.35016593522664   11.82755855888168   13.67854251624131
B   13.94787766704928   15.21692585853181   11.82326585235544
B   14.89689318588002   14.18383413003850   10.84423315913722
B   11.96008372170419   10.40711710343338   12.97472539805107
B   17.04655822742484   11.23987639706447   12.80922793901447
B   14.54808425486494   12.54334053870322   10.53934666024183
B   13.67156216355199   10.43784462503697   12.93744933194896
B   13.96342080746654   15.29416152367348   13.53396770112462
B   9.29491069915307   13.50634745454071   13.90884932378120
N   18.59911135971434   13.40222447172022   15.02176493530545
H   19.30799853224343   14.08556825465399   14.75806976895132
H   18.92940544398239   12.83392668100136   15.80371180427335
H   17.43412650669981   10.39471557849849   13.71562163571024
35
F:    ...  E:  -0.802489579999985
W   11.36917362701124   12.78806540607448   12.80207076510534
W   11.87264715344264   15.43032952662332   12.67226619070988
W   10.59628436014829   12.59681053167679   15.44090262374589
W   12.79629098480607   11.34161856612958   14.83831197034871
W   12.72702289113898   13.98361421159215   14.91464327828137
W   14.87631360218551   12.51544889266437   15.77880014736995
W   14.18720550840988   12.87449227825170   12.86929586055901
W   16.58304027994161   12.90056732317438   11.40212013681306
W   12.63428357032372   13.84516777996672   10.67429423744646
W   16.02506778795407   14.99841110357236   12.65182000506404
W   15.43085134581762   10.74667544448826   14.17844047811722
W   12.73928284225489   11.20887053986225   11.00408907679100
W   10.03043273825870   10.70071105743889   11.79016338107257
W   10.50001849241433   12.31332611253087   10.06596570190439
W   15.29330666098240   10.66135065255317   11.46080601455927
W   16.84785024136031   13.11270322142869   14.13346047335222
W   8.77265584944490   12.94623466990578   11.82155339055871
B   10.43247207917937   14.36704173533276   11.22442140122778
B   9.80384557590755   14.69322099883604   12.78905318331237
B   10.63170095410974   14.55951279682322   14.32565185709937
B   15.00193439237064   14.37469887692012   14.56070229740723
B   10.71150483553613   10.84075258936940   14.03944278652469
B   9.34438242378340   11.82337042445333   13.69218475772485
B   13.94710931497478   15.22226828539194   11.83464866209842
B   14.88435983351423   14.19523217298070   10.84174435999508
B   11.94815681426602   10.41339718518229   12.96020524202039
B   17.01387033963949   11.22777964161491   12.77498668237451
B   14.53108926921627   12.55787565249179   10.52779700932780
B   13.65458486624851   10.42323652015259   12.91030368127516
B   13.96739140417511   15.28206648720482   13.54609546226229
B   9.29154143610582   13.50082079023491   13.91943036047359
N   18.57053519957036   13.35205323564430   15.06959941708707
H   19.23296631746264   14.11821756073985   14.95305974222821
H   18.92769678320560   12.68166288017467   15.75268036489120
H   17.26312839059579   10.15924114549336   13.47832053155420
