38
F:    ...  E:  0
W   11.85175926418328   11.30468376632747   14.43840134164288
W   10.35951577077405   9.46770389630798   12.98326578052336
W   12.72147895009503   10.80213335479463   11.95415765240834
W   15.37328660705073   10.42787280658736   12.45657246317707
W   14.41001096937863   12.33457943407393   13.71644408064278
W   12.03945725164549   13.46024320418673   13.03430842580226
W   9.99413154721502   11.92641975538601   12.08753976765624
W   14.43543210940738   12.93228997116284   11.19427996722601
W   7.41140291215491   11.93404511533594   11.49571976719556
W   10.36148610323673   9.61854901540903   10.42697885755184
W   7.89401714011697   10.25796349782948   13.49126132130544
W   10.50843603756143   14.96521661107441   11.34411465431875
W   8.03365947348115   12.79308393522968   13.82493407402698
W   11.92241458488786   13.18487050327278   10.30990092921567
W   9.18606618472216   13.53613377908796   9.93149375298455
W   12.31689062850844   8.08128714893244   11.76026348566814
W   13.03590013228377   9.23671377497400   9.79133267556476
B   13.77890618938663   10.22093837616779   14.05636080328024
B   12.44829007501008   9.22100471536981   13.79015013353678
B   13.90984466848858   8.91015144702365   12.98269269717602
B   9.60747629265416   11.29245775731266   14.40022724719043
B   10.24352197221826   12.86885419181223   14.33312451772100
B   9.81566618532036   14.09246051183927   13.25173360856826
B   8.55775401381219   13.93346688058613   11.98892834395056
B   11.86056427721116   11.02299383053275   9.51850313727740
B   13.07761541446303   14.69855241738613   11.46037877577780
B   8.79018356962375   11.27280545543162   9.85435213193248
B   7.01235547411838   9.73027586175941   11.63589753197561
B   10.34801076226726   11.71822995257721   9.57998286664462
B   14.05137135007985   14.35763228435918   12.78040163210258
B   13.41104601337220   11.58311972841058   9.73713443415660
B   8.02119002655888   9.92545527749326   10.36983183921157
B   14.60438390763582   10.70732933973339   10.50045200633360
B   8.52229970497315   8.99180773538983   11.74769820955202
N   16.21647305902101   13.61970549201993   9.99566924423896
H   16.95826756965061   13.96617164565126   10.61090243461184
H   16.59436883689759   12.85389357505688   9.43302352225404
H   15.95020376217220   14.38404274575272   9.36672467723514
38
F:    ...  E:  0.0479896100000019
W   11.86496518171677   11.33484807144427   14.43732051402856
W   10.37388873450047   9.48980803337323   12.98641182322581
W   12.72280742683967   10.83423707542153   11.94867351204888
W   15.38372191361166   10.47160333206067   12.45322471815169
W   14.40984675188658   12.37829097132831   13.71688423217655
W   12.02760399738229   13.49870846193716   13.04661440186779
W   10.00070173191681   11.94530329053911   12.09180518279807
W   14.40726102910669   12.97898111170812   11.20879143215446
W   7.41658660660807   11.94848024891431   11.50756575257633
W   10.36704079879723   9.63627279338336   10.42863374584400
W   7.90683321760573   10.27360527695810   13.50418320618999
W   10.50003522998800   14.99241357351364   11.34525298306160
W   8.03950818021112   12.81020281328283   13.83301104028418
W   11.90871135168362   13.20770230987723   10.31474997191176
W   9.17773926728439   13.55331387994514   9.93712787041108
W   12.33779939543913   8.11087113006273   11.75823613852197
W   13.04071389792141   9.26761906666174   9.78560791879219
B   13.79461159289493   10.25892304514208   14.04755856220936
B   12.46704897935014   9.25254166119665   13.78675063622548
B   13.93038109031851   8.94464325532227   12.97748321554121
B   9.62056428593114   11.31363820598707   14.40499499791555
B   10.24553939355405   12.89323273147374   14.33683417002373
B   9.81136097829431   14.11681630155427   13.25590045963210
B   8.55434204026999   13.95425894181313   11.99354666696315
B   11.85779815349338   11.04771585292470   9.51276472566042
B   13.04678195491273   14.74284833494372   11.46591562132361
B   8.78976800197158   11.28905883670802   9.86117760201481
B   7.02285974171015   9.74356064639927   11.65126359746140
B   10.34377144441782   11.73700165693867   9.57738532368297
B   14.02777298767222   14.40837424776194   12.78642526458496
B   13.40563145886679   11.61452902876382   9.73629177532458
B   8.02662732897895   9.94008287818535   10.38103019960130
B   14.59965933842217   10.74327554928364   10.50293865419260
B   8.53502321084459   9.00889518613483   11.75762680636955
N   16.20835959850249   13.44545342493545   9.97769315405737
H   16.94474407852136   13.90750655346607   10.50641601578856
H   16.51169347502197   12.50882008667591   9.65672468607432
H   16.00503494518935   14.03170092561593   9.15432221294759
38
F:    ...  E:  0.231294169999956
W   11.88200957120175   11.35960668921221   14.43178348827342
W   10.38984464220802   9.51178034599419   12.99159224645838
W   12.73243990632205   10.86058364810556   11.93631914705574
W   15.38853507928983   10.51272974233594   12.42412595364806
W   14.42271458410802   12.41509593702656   13.70695199769145
W   12.02954789118482   13.52389280102622   13.04730141345767
W   10.00514393474365   11.96663198019672   12.08928540145613
W   14.37200586746621   13.02403068395854   11.19678824602929
W   7.41875859875627   11.96011290887459   11.51961869057956
W   10.37797705467819   9.65681325047708   10.43427950709467
W   7.92203999773191   10.28601964415637   13.51022817464110
W   10.50123533790102   15.00946581003567   11.34938999149788
W   8.04855575629953   12.82553499901524   13.84340018272409
W   11.89362614199068   13.23079757555608   10.30066061387475
W   9.17024354321460   13.56878908827333   9.94095054623445
W   12.35676972936224   8.13788067483766   11.75694633171585
W   13.04663378522883   9.29644916438327   9.77616558555130
B   13.81665968391698   10.29342839206259   14.03597074774692
B   12.49085506901765   9.28269468448522   13.77852079942560
B   13.95396453581102   8.97929655056572   12.96509248662367
B   9.63576492640657   11.33168576525270   14.40398132609740
B   10.25559406302786   12.91122601834857   14.33733753419621
B   9.81450954119784   14.13186739108764   13.25702591713277
B   8.55357232332774   13.96880160051366   11.99982552965641
B   11.85481129457144   11.06972946341247   9.50107950614038
B   13.02064986980825   14.78633158584789   11.46416944385779
B   8.79025182843263   11.30514702591202   9.87124988198494
B   7.03373860570611   9.74981574004257   11.66174636255773
B   10.34020731968243   11.75497336287500   9.57780043052558
B   14.02564505078070   14.44602215652161   12.77622353252059
B   13.40342626383479   11.64267312549225   9.70690682217532
B   8.03560527530914   9.95386673053462   10.39273757137401
B   14.59976472258249   10.77615381269620   10.46908928604201
B   8.55104280615143   9.02060322774090   11.76609248917707
N   16.16973281497932   13.33442111944816   9.98222883909101
H   16.93890084563899   13.80358186409515   10.43195155107331
H   16.30663968611121   12.29003367021043   9.98363683595187
H   16.08572084365550   13.65657056102590   9.01668438030602
38
F:    ...  E:  1.29574421999996
W   11.87487838141534   11.31637014606916   14.43442902244810
W   10.39712451650364   9.51568011800781   12.99966930697536
W   12.76908261258391   10.86221983715036   11.92704869551660
W   15.34395461242287   10.56961971420539   12.36678350884735
W   14.39700772475253   12.40031110874250   13.73492237040899
W   12.05912388905107   13.46780768523412   13.01274699665695
W   9.99440663337294   11.96887582935775   12.06933231321523
W   14.47122116210636   13.04583381217379   11.10338053512841
W   7.41092874626901   11.95293098266776   11.51741864818908
W   10.40061287608338   9.64756111540988   10.44498185012981
W   7.90919894177639   10.26728254025778   13.50333870135100
W   10.52389918442519   14.98361956392434   11.36879595656178
W   8.04137489178185   12.81210578336515   13.84319226280815
W   11.95554809094154   13.21995634994809   10.28444280719489
W   9.19072408191629   13.56059522631384   9.93728969642226
W   12.32324601455466   8.09872011180172   11.77934645652041
W   13.06694120193783   9.30163283431341   9.82116218246605
B   13.81724052436674   10.26704160396480   14.05905308047340
B   12.49390968569252   9.25687451833845   13.77415175555946
B   13.94320143751307   8.97959650282241   12.93970130307999
B   9.61864575370822   11.31526285339796   14.38124012244034
B   10.27126946757414   12.88799857369241   14.33528036529325
B   9.82150835869346   14.10603638448207   13.25018998371654
B   8.55976660329172   13.94803108070041   11.99619475202256
B   11.87122083362198   11.06283357582113   9.50524309256897
B   13.04897385392579   14.75829017800718   11.47673249543275
B   8.80068430699018   11.30599818311166   9.87813829417784
B   7.03672897146596   9.73978669734026   11.64700785783169
B   10.35891030157345   11.75386577023323   9.59809034125955
B   14.06428001856612   14.37923623590262   12.75781774236533
B   13.42212881248706   11.64828203739129   9.65321756375350
B   8.04733138119647   9.95105838025287   10.38958619812959
B   14.70647556321782   10.85910902327967   10.35601283570995
B   8.55695761652869   9.01037415156844   11.75777449515246
N   16.14123800934837   13.52976559467292   9.96545664317374
H   16.95404149712427   13.86896140177919   10.46266560586876
H   15.89453731444889   12.06642919519317   10.26784393258668
H   16.07681491840823   13.94918409074278   9.03545902020283
38
F:    ...  E:  0.379005769999992
W   11.86613871854650   11.28653694534477   14.44458721788457
W   10.39639145444904   9.51035306168044   12.99574108093068
W   12.71542119270171   10.87471107032588   11.96654250691920
W   15.30776099011580   10.56423434409557   12.30665051849925
W   14.39892468977717   12.36810845566286   13.69991268827434
W   12.05834338753203   13.48479202107576   13.03482482402852
W   9.98449372462182   11.96690400381899   12.06255683527818
W   14.55424480373954   13.08815068609074   11.03806054895306
W   7.41074591883354   11.94503013921753   11.49700871975774
W   10.41120659969759   9.63207180816558   10.43933739335369
W   7.89811545638355   10.25621568439732   13.49627496189787
W   10.53550666283654   14.96667311395993   11.38135194612652
W   8.02810527547803   12.78803843104842   13.84014688696270
W   11.98037864636200   13.21481686831590   10.29746133944712
W   9.20297739969132   13.54090095663625   9.93614521197043
W   12.27871081108236   8.06314255977628   11.78804884512092
W   13.12173880706254   9.31147934431404   9.89875790828900
B   13.81963678854088   10.23711938749005   14.04929447045955
B   12.49002814110554   9.22534912605105   13.78658908022887
B   13.91129231657253   8.96563005122459   12.90859593683898
B   9.60830787209749   11.29605914327166   14.37969052968998
B   10.26650468168613   12.85968241484233   14.32445733546944
B   9.80865821771240   14.09207509195129   13.25378976031515
B   8.55528273727995   13.94080799250618   11.99704382648105
B   11.89180013312001   11.04482511907058   9.52143579819304
B   13.05472527282224   14.74267077800373   11.48699013867054
B   8.81007177276141   11.29538511191841   9.86963126160445
B   7.03275571349991   9.73444434756392   11.63667867135669
B   10.37707431775884   11.74091787112830   9.60751470528795
B   14.06204665317821   14.34522281576207   12.76308086634964
B   13.42485387744091   11.67186475293532   9.66748355113908
B   8.05345764786647   9.94638575803036   10.38446356197150
B   14.75906056076830   10.87844139345473   10.27941742333731
B   8.55630573001046   9.00993924627356   11.75483469020647
N   16.05555179002219   13.89383927981233   10.04371234956590
H   16.98726453094035   13.99094976438712   10.48795603135179
H   15.88479073635899   11.61064704200869   10.21952844429606
H   16.07646476118406   14.25072281002572   9.08954092513129
38
F:    ...  E:  0.0352823700000044
W   11.87028821724270   11.30867594296666   14.43671682911653
W   10.39981137899181   9.51473016082196   13.00429560737227
W   12.71344138367151   10.88211636885372   11.96490694654473
W   15.32077473986265   10.58180294026671   12.30556751482215
W   14.41335071063278   12.39425903920001   13.69498676188993
W   12.05575623640581   13.50584585432980   13.04035575224817
W   9.98279888199212   11.98195485138978   12.06122984697583
W   14.54849712501218   13.10192091042875   11.04228885406574
W   7.40557696886229   11.94930296107988   11.50717318339988
W   10.40358104034470   9.65138109699144   10.44244100765239
W   7.89834110133078   10.26094982343810   13.50240782641245
W   10.52962251519674   14.98443548056277   11.38119259653159
W   8.03122390266417   12.79840810610971   13.84858532833185
W   11.96349874746139   13.23334492127423   10.30253135240276
W   9.18341872166572   13.55543428324861   9.94393824816563
W   12.31857262888061   8.09445627878260   11.79484124397498
W   13.06102815291878   9.31559511852795   9.85408910081414
B   13.82664960979855   10.27134776813304   14.06049110120971
B   12.49776281418345   9.25503863151743   13.79375573268119
B   13.93381866251725   8.99926350865028   12.93408036602524
B   9.61314049888163   11.30530385600109   14.36903662280095
B   10.26235172954834   12.87486005424906   14.32663746506300
B   9.81016216333968   14.10539303387353   13.25374426254533
B   8.55041633652032   13.95017446785707   12.00325677087676
B   11.88333759366155   11.07129673447930   9.52301189737270
B   13.04983569997051   14.75317648758732   11.48940004979010
B   8.80007113971041   11.30629663311912   9.87537993328203
B   7.03392203465569   9.73808434376770   11.64267323636505
B   10.36058207139957   11.75778922092917   9.61009156681330
B   14.07057609366906   14.35836950278022   12.75811324552312
B   13.44563552801175   11.68084449164919   9.65500533546449
B   8.04939950534282   9.95601273924794   10.38849973633473
B   14.71266472006163   10.87398434806751   10.26248952335256
B   8.55988118641471   9.02203042476691   11.75853630080040
N   16.04366054745695   13.87748266249762   10.05015915933803
H   16.92232934912980   14.17554101385529   10.51347174879462
H   15.97614859850689   11.15871749288869   10.19250417351883
H   16.13321045572055   14.02951723744773   9.04725256296605
38
F:    ...  E:  -0.158598690000019
W   11.87296850432197   11.33858972751494   14.41912665548991
W   10.40631774828588   9.51701625192251   13.00687803859162
W   12.74636125724627   10.88678692944563   11.94751371923144
W   15.33006898806460   10.62532640478296   12.33473525433808
W   14.42401675081908   12.44341733703467   13.72390275406039
W   12.06308279093550   13.50004464740054   13.03124959798187
W   9.98861306520122   11.99425976348929   12.06145255122900
W   14.53979261745245   13.09475258843031   11.05001739395270
W   7.40422810126493   11.96173022736583   11.53015424806063
W   10.40075094280668   9.67967877669664   10.44541316211979
W   7.91043219742761   10.27157522009025   13.51219621826869
W   10.52134165687333   14.99660342145429   11.37325448174530
W   8.04415806752423   12.82098578288642   13.85295153466004
W   11.95309012567069   13.23801060431855   10.29487752496685
W   9.15795721292436   13.58109745362162   9.94390368988138
W   12.38241732503441   8.14335945541189   11.79128929586730
W   13.00202275141190   9.30812366457193   9.77467056439610
B   13.83160852432685   10.32517908459583   14.07468872428762
B   12.51184574832534   9.28531913837626   13.79663717359032
B   13.96969204266373   9.03327263197217   12.97018357846320
B   9.63144935003842   11.32278371595084   14.35680056716385
B   10.26604287495087   12.90614923706406   14.33852660728951
B   9.81829479422167   14.12283610944185   13.25454707016895
B   8.54667619028846   13.96466429174136   12.00825867501645
B   11.87043068723667   11.10915049603872   9.51386014017804
B   13.03813135039865   14.76525826735476   11.47858494759510
B   8.79495247926649   11.32282105616699   9.88539571674512
B   7.03718826829438   9.74876857720036   11.65511680454608
B   10.34553560043931   11.78420669739993   9.60571523213933
B   14.07333435251032   14.39432876568148   12.74060907232951
B   13.42870060184365   11.69382178356298   9.64157149977222
B   8.04206084363207   9.96483350230823   10.39326250035157
B   14.66767490186892   10.83381164882494   10.29700111496635
B   8.56541461898381   9.03809269838804   11.75983500462108
N   16.05919730525405   13.78600912903963   10.03360944069953
H   16.84738392654621   14.26483708892208   10.47557723928937
H   15.94359400859667   10.81111581568856   10.23675302940014
H   16.19831021868653   13.75652079948027   9.02501796818562
38
F:    ...  E:  -0.237104740000007
W   11.88583310584696   11.35436721585630   14.42470181956675
W   10.42075049482590   9.52971780806175   13.00897083145094
W   12.76489704746069   10.87655781146568   11.93314214323432
W   15.37448127140587   10.68727960120899   12.39683467526567
W   14.40025556772261   12.48310823708151   13.74845432135640
W   12.05714935811103   13.54099139249217   13.00365924519746
W   10.00211502152704   11.98529476328835   12.06280982584055
W   14.53472954424768   13.07733797758369   11.06672182730684
W   7.40844848890624   11.97891754901243   11.52741733795435
W   10.38897091311238   9.70710089175036   10.43312607289352
W   7.92841094365900   10.29291434113136   13.52027610641715
W   10.52075377262413   15.01427778867240   11.35708295427840
W   8.05417965906163   12.82041621462693   13.86246515355870
W   11.93993436761374   13.26466487531357   10.28747531092029
W   9.15959603771537   13.59571148025639   9.94457288253202
W   12.41521097307672   8.18600672336610   11.77514685117809
W   12.94844349975016   9.30584819918509   9.71535799046114
B   13.85233297816485   10.34675123579044   14.07006850132784
B   12.53653015156910   9.31307189241186   13.80179084698886
B   13.99308839529615   9.05926552090543   12.96250730541499
B   9.65427912057779   11.32911023080400   14.38921444179012
B   10.27640847324115   12.90842014123940   14.31552068191099
B   9.82063700577303   14.13362139255127   13.24603071522351
B   8.55232430840525   13.97478015357854   12.01033037927438
B   11.85295768686507   11.13240759824928   9.51489460216187
B   13.05144709794970   14.78467424936622   11.44389193879503
B   8.78635363515004   11.33805961150610   9.88615080100267
B   7.04267590053273   9.76272014711316   11.67461872312107
B   10.33819214612691   11.80517263566843   9.59926918394531
B   14.06349408887100   14.43096137648313   12.71920442209603
B   13.41915158785899   11.70514859956596   9.65497758429506
B   8.04115105665699   9.97608247415893   10.40222470401793
B   14.62844264485262   10.80213359047271   10.35227155625907
B   8.57272393515905   9.05369628708383   11.77277604036103
N   16.07107960678666   13.71608186597911   10.02903237565803
H   16.77844481839217   14.32530504784200   10.42010657625771
H   15.84689055760314   10.47867966389745   10.26454807562267
H   16.25237352913851   13.55848220661703   9.03749398670401
38
F:    ...  E:  -0.346238600000049
W   11.89742494614325   11.38019714281730   14.42779714274374
W   10.42883210774199   9.54396716273943   13.01240416099059
W   12.76742631408958   10.89215467934882   11.92297560981802
W   15.40949349350392   10.73576021120357   12.44492009331463
W   14.38966629469917   12.51164901163246   13.75907705810648
W   12.05518823028639   13.57108344945118   12.99671850830954
W   10.01667005732479   11.99591673020256   12.06175463602708
W   14.54690093088111   13.05892991492102   11.06921851584538
W   7.41660938609415   11.98798263860966   11.53581105700422
W   10.38746377999697   9.72832408835628   10.43353219809432
W   7.93822915882272   10.30727052008561   13.52901029929855
W   10.52161681808136   15.02027424115025   11.34776658011301
W   8.06362068247776   12.83387397400710   13.87290445876274
W   11.94084717413494   13.27397982340441   10.27406162714463
W   9.15162168036147   13.60909257768963   9.94556681728692
W   12.42851484596134   8.20033049148894   11.77584814836246
W   12.91530019293161   9.30102676013189   9.70649560437221
B   13.86091899821695   10.37076608849341   14.06119473378545
B   12.54778940882122   9.34163568152794   13.79242380530810
B   14.00884411412286   9.09405425237068   12.94095639287168
B   9.66822774264537   11.34502016546547   14.38885832574223
B   10.28518143788327   12.92602722417262   14.31578259619623
B   9.82053042453026   14.15010216004482   13.24918181851281
B   8.55580496423135   13.98214153039594   12.01728940936240
B   11.85273621018605   11.14734625687194   9.49816614002543
B   13.06546475096803   14.78410536163882   11.41678551087685
B   8.78471742237399   11.34851486083594   9.88603972235051
B   7.04839475141838   9.77058055505996   11.68511842136194
B   10.33927361122946   11.81959739156700   9.60001791135053
B   14.06683079342670   14.44386392140902   12.69743569578797
B   13.42364663378112   11.69768802551269   9.66188264182289
B   8.04188959624464   9.98400689721302   10.40627136697736
B   14.61229712830479   10.79087175978386   10.39552986693992
B   8.57866821870118   9.06791874683531   11.78015537427378
N   16.08372657828332   13.68398102980466   10.01283024514651
H   16.72335799434340   14.38986027855986   10.34433328587002
H   15.67330798629982   10.13806576052301   10.31244097093846
H   16.31810393209318   13.40717742631043   9.05658204054662
38
F:    ...  E:  -0.430515800000023
W   11.91322593217769   11.40769028780512   14.44668863276148
W   10.44800371351156   9.55336518730020   13.00417648272218
W   12.75825291431724   10.91538378686992   11.93898355553812
W   15.44108669118762   10.75868953173053   12.47039972049928
W   14.39472668642485   12.53092653516735   13.74822345737349
W   12.07367364265745   13.56904227097438   12.99132448001508
W   10.03295772032656   12.00537257572327   12.07638672320703
W   14.54776252078090   13.04486740793457   11.06628445588214
W   7.43173425734413   11.99581922412383   11.53589425670324
W   10.38952245598146   9.73208313129962   10.41982936288733
W   7.96305758855399   10.32526155904432   13.53506549270606
W   10.52623664351109   15.02967217332470   11.34031922111933
W   8.08544436884710   12.85781327527052   13.86457382017013
W   11.92495907586640   13.27701148859236   10.26309430996432
W   9.16002161316077   13.62319852329591   9.93992808854980
W   12.42913920886913   8.21741034964060   11.77429988180374
W   12.90175202963085   9.29077754759471   9.70229619227537
B   13.87423562720051   10.39153056882895   14.04362333368598
B   12.56467780217497   9.36078595563698   13.79012644712111
B   14.02717542778472   9.11969467353356   12.91830627052469
B   9.68099315547574   11.37468422750722   14.40262680147491
B   10.29877142102968   12.95923341713390   14.33096313149466
B   9.82917940286607   14.16789842677550   13.25725732425344
B   8.56944374801479   13.99680043159386   12.01105164549744
B   11.85373315551565   11.14700877234260   9.47552043366449
B   13.07575616103771   14.77938788887808   11.39311578984892
B   8.78036542321530   11.35768106757772   9.88069749346679
B   7.06302071722401   9.78650384807609   11.69475961503541
B   10.33408430213113   11.81924456250963   9.58753392790531
B   14.07491132734380   14.46293613906681   12.66984847697814
B   13.41600901718390   11.68255031311036   9.68798481545880
B   8.03969902688364   9.99486595413119   10.40577153343928
B   14.58243702638727   10.77501416151160   10.44426867634905
B   8.59176373110375   9.08281752466376   11.78084533759705
N   16.09065551717834   13.64826195355455   9.99455488160288
H   16.65783405572433   14.45174294592164   10.25659096441684
H   15.42543275863383   9.86500145704025   10.39867576468000
H   16.38340292438044   13.27710964655251   9.09324799296545
