38
F:    ...  E:  0
W   12.43542529988680   11.30023659484479   13.82762286058801
W   10.79171530022532   9.38617129245728   12.69810811535052
W   13.08015783782059   10.58031279967133   11.32867128741383
W   15.79668648398979   10.16585876472855   11.69022571486504
W   14.96548225161349   12.15991887534358   12.90641821334502
W   12.54138267863567   13.52780429376145   12.50786313813476
W   10.47806091730564   11.80161708926073   11.64496303218186
W   14.81550210086834   12.51125675088608   10.41394824762735
W   7.81534426277515   11.78465956811455   11.21009934319898
W   10.64870051802280   9.30691616335912   10.14129407189592
W   8.38656532451235   10.25100008233652   13.31121486567655
W   10.98886608953615   14.70700947644881   10.66816182726444
W   8.56987577849555   12.78094401752693   13.43917809241363
W   12.27945096438987   12.82033903405524   9.67791733015148
W   9.53521128925178   13.19026508442292   9.44550719393414
W   12.57257974223486   7.78932346554043   11.46906123734885
W   13.28593942020593   8.82229192146708   9.42280144785727
B   14.29717107393650   10.10507843846672   13.40440732382866
B   12.93375872747549   9.14098005845842   13.29743395646571
B   14.31099932336795   8.72403576472547   12.39821599084843
B   10.18647515128940   11.29082103055320   14.00829486724165
B   10.81043826054605   12.85884061959893   13.81359035519941
B   10.30903045393033   14.01652659978750   12.67158940229552
B   9.02341672267182   13.77517297706713   11.48579430305280
B   12.11648953672158   10.59648648856702   8.99066868689072
B   13.54263912003749   14.37374020514012   10.62066855314003
B   9.07341485859119   10.96624214515349   9.54213810541806
B   7.39071048720916   9.61596245824541   11.54737168161599
B   10.62973302670764   11.33184076183039   9.14846769011644
B   14.64083871259098   14.10353933822343   11.84903686585529
B   13.67847019431858   11.14761450391212   9.04747267127888
B   8.31757862336638   9.68491317692419   10.21095500542330
B   14.96044947506542   10.33819808394448   9.75605708111421
B   8.88265567210614   8.84540144242618   11.61592385575259
N   12.84625911991026   15.25423878378220   13.94671997540267
H   13.17746598200756   16.06157028935441   13.41385249707630
H   11.96885981323613   15.49123497410689   14.41512910438708
H   13.55133819678224   15.02677537714528   14.64829479998695
38
F:    ...  E:  0.0367711700000086
W   12.43028768034541   11.30908897332579   13.81834595082432
W   10.80515041764780   9.39387855330891   12.67519298085945
W   13.09265283326632   10.59332962195325   11.32313283795188
W   15.81243138167297   10.19352135560938   11.69774174150484
W   14.96691255031461   12.18176334510097   12.91560979007737
W   12.53310511977131   13.53905374652460   12.50037101006565
W   10.47936083173812   11.80922326246479   11.62046004330340
W   14.82682550518912   12.52173498233535   10.41626246063374
W   7.81633839033144   11.78821504387358   11.17998903983461
W   10.66525129586838   9.32026174422778   10.12084255594215
W   8.39034391273544   10.25075438105556   13.28513452063572
W   10.98614979406263   14.71885630165460   10.65065411523222
W   8.55987122796169   12.77996954828343   13.40801704794872
W   12.29022649108136   12.83696703507779   9.66502130499630
W   9.54443854877146   13.20620738248505   9.41970609282367
W   12.60872306104639   7.80606032285177   11.45227833056519
W   13.29579353087589   8.83638478000775   9.39996480294699
B   14.30450358868299   10.12724000361119   13.40531966737123
B   12.94493038863675   9.15405839129526   13.28816540319723
B   14.33180134818141   8.74507492260864   12.40257872515664
B   10.18368769261272   11.29678859716418   13.98220735349004
B   10.79856538125872   12.86748999754428   13.79588456276810
B   10.30002259780169   14.02230519647317   12.64807118101931
B   9.01867012933771   13.78347760623785   11.45677263357140
B   12.13208820943401   10.61679623611974   8.98017949977105
B   13.55251965209824   14.38212809064780   10.61354740134499
B   9.08711540684017   10.97708068506034   9.52035431913704
B   7.40374407853829   9.61776219089387   11.51786674531666
B   10.64257702849563   11.34720007361584   9.12842762287720
B   14.63980449966786   14.11505810120595   11.85272610489764
B   13.69516662432825   11.16461928090720   9.04190240187971
B   8.33308390186269   9.69173076091115   10.18406987325751
B   14.96884941896992   10.34777866131848   9.76182767109609
B   8.89961702979261   8.85314286006985   11.58946031206441
N   12.80819345336180   15.18054646946972   14.04755322287728
H   13.36034870066964   15.94458746516589   13.69221762124886
H   11.87890307576182   15.52885496184065   14.32179244934009
H   13.24708401262665   14.78614785933691   14.85548939380952
38
F:    ...  E:  0.0712162699999794
W   12.42859793907292   11.31581142724589   13.80767164254272
W   10.81892231930900   9.40300547222102   12.65447152309639
W   13.10571655471419   10.60658899407514   11.31704490294130
W   15.82882704050366   10.21790553801630   11.70311391266959
W   14.96990724495692   12.19907245353194   12.92189917470982
W   12.52667079163915   13.54955607373416   12.49085335201635
W   10.48324592426474   11.81915427172640   11.60013100792969
W   14.84414774080731   12.52957698224662   10.41494386281179
W   7.82134643181767   11.79607314249652   11.15438847815888
W   10.68114921835846   9.33330419244871   10.10317098255346
W   8.39410694857084   10.25281872882328   13.26458867847382
W   10.98383612538512   14.73127476955094   10.63723030872149
W   8.55505027174247   12.77927408278896   13.38358100493782
W   12.30309829080157   12.85225323512308   9.65409372753070
W   9.55421009633134   13.22144377543042   9.39819480260877
W   12.63759761548458   7.82049075010104   11.43765154196845
W   13.30715392159109   8.84825625056829   9.38157199893062
B   14.31251698209166   10.14300300496801   13.40540260807886
B   12.95625951289241   9.16457429288087   13.27926315188621
B   14.34919366711243   8.76309815327758   12.40259865133343
B   10.18289460908712   11.30063289200304   13.96170688427024
B   10.79068650053803   12.87271060431683   13.77936276741826
B   10.29437697939589   14.02958580334159   12.63215520745844
B   9.01773470385357   13.79308553291617   11.43470137319782
B   12.14866022428196   10.63521797028826   8.97173077928778
B   13.56714719715583   14.38589621048034   10.60607369151123
B   9.10303810726693   10.98950558441199   9.50317282557342
B   7.41622550649474   9.62565181728900   11.49375441722703
B   10.65706466262133   11.36314014601773   9.11136882128905
B   14.63982501524170   14.12278598352400   11.85604171972075
B   13.71254024105621   11.18047081337063   9.03927666195744
B   8.34776930672657   9.70279802997182   10.16207445174155
B   14.97976629769056   10.35435859462525   9.76425055671337
B   8.91346165954925   8.86369983096362   11.56871047853830
N   12.74209360885661   15.11358485565838   14.13419157072056
H   13.50822746051604   15.76658109448851   14.01627417484829
H   11.87184338865871   15.63059274315816   14.22359001969661
H   12.88022868520068   14.55830469355773   14.96483707656843
38
F:    ...  E:  0.234618109999985
W   12.43179945089198   11.33117767979327   13.79869869174600
W   10.83667772532925   9.41757925650967   12.64101063888414
W   13.12180940021183   10.61943567818742   11.31775707470161
W   15.84633557435563   10.23970922867511   11.70928636993282
W   14.97933891583446   12.21680367931098   12.92105871219129
W   12.52265378139814   13.56336023308958   12.47062606888756
W   10.49512290580579   11.83848394121661   11.59112837174474
W   14.86886521004356   12.53294500193588   10.40537540778369
W   7.83412522756961   11.81315624602290   11.13484870801179
W   10.69805028195590   9.35349081578001   10.09154231952070
W   8.40105754284060   10.26504180704075   13.24943734052214
W   10.98147318983573   14.74753415340152   10.63100850687584
W   8.55437470465484   12.78330824699651   13.37068625310553
W   12.31786436590017   12.86636924433484   9.64910456484194
W   9.56301438397139   13.24284881390385   9.38469268451449
W   12.67380223811916   7.84219244954144   11.42724398973188
W   13.30852686812376   8.85567852816832   9.35713718711449
B   14.32373785155020   10.16252466700307   13.41471139707764
B   12.96952677886113   9.18117043600724   13.28411167352834
B   14.36621893820771   8.78477627046082   12.41470570170252
B   10.18752191199310   11.30792252097849   13.95094711598348
B   10.78246279917690   12.88117181566288   13.77091113191891
B   10.29221399779196   14.04142246872729   12.62709298423153
B   9.01902641693682   13.80980560221001   11.42477489101530
B   12.16252324306026   10.65657067184991   8.96546572294995
B   13.58915722535724   14.38686482052823   10.59654668262015
B   9.12319010780577   11.00767705943191   9.49163581830661
B   7.43089851678781   9.64325758834566   11.47489916669025
B   10.67301860002623   11.38737549940141   9.09897234250221
B   14.64775317660989   14.12943346065928   11.85340638824198
B   13.72711415134731   11.19183668324351   9.03947164303817
B   8.36387766114848   9.72063044177196   10.14417556681132
B   14.98372457350482   10.35009158606917   9.76959804994455
B   8.92987171962178   8.88388509634968   11.55439662504846
N   12.68062878620362   15.03959208108943   14.19652516030628
H   13.57330803721362   15.48417557466169   14.35962432884030
H   11.94629685814014   15.76761509457643   14.21129266120363
H   12.42817567345152   14.28822434870146   14.84123084956701
38
F:    ...  E:  1.39312229000001
W   12.46510219370209   11.37230562575458   13.81649328707217
W   10.85027278587122   9.43231934266879   12.68715980490358
W   13.13001563896245   10.59692340739000   11.34598862523670
W   15.83556091186595   10.22340004637884   11.71176089100985
W   14.99563500388921   12.21651095909144   12.87747256583497
W   12.56605703923225   13.68278423899420   12.50132765782049
W   10.54206764389667   11.87376719531078   11.64426405046258
W   14.86862380143073   12.52112262238226   10.36886665322501
W   7.87614681729463   11.84723110502756   11.17887262278967
W   10.68736699695573   9.37357259274177   10.13598516855085
W   8.42259613015825   10.31365084589376   13.29210933228466
W   10.98987618830127   14.74740479459894   10.66074308392715
W   8.57728033024004   12.81834767520231   13.42233598767610
W   12.31907296366748   12.83908204484128   9.67317349378141
W   9.53611927822526   13.25228903681659   9.40736351473130
W   12.70362600318808   7.86437774823324   11.45446211378464
W   13.25682426952143   8.82597713881102   9.34460068353696
B   14.33560876841829   10.17807349733362   13.45760917425618
B   12.97187739935172   9.20823686482509   13.35424754470027
B   14.36108102836361   8.79005011204505   12.48383493684484
B   10.22913457794150   11.34662423964786   13.99940986057440
B   10.81138732566265   12.93008392902486   13.80233052429754
B   10.28686832349387   14.06627632112906   12.64040978816750
B   9.02738361449621   13.83333987389677   11.46721756452031
B   12.14279736638565   10.65909072834497   8.97990850835487
B   13.59085771334587   14.38852733074841   10.57478928633513
B   9.12624233385501   11.00981568221100   9.52049813416353
B   7.43342172220961   9.67684365227533   11.52634143274746
B   10.66262400985939   11.40284793868839   9.12031503275513
B   14.67264780583902   14.13266986844632   11.81189626553011
B   13.71026043181573   11.15923202412922   9.05303975269436
B   8.35370802105157   9.74018456622543   10.18513868408894
B   14.95916078825868   10.31352664356779   9.77502419408566
B   8.93029794790957   8.91523104400344   11.60291880247316
N   12.67053014282641   15.13449648224906   13.94653005226223
H   13.58711984033232   15.51813117041274   14.11907543404920
H   11.93515796680359   15.76064024103422   14.32235955867475
H   12.21472766701200   13.67015016126222   14.36926472343493
38
F:    ...  E:  0.443259640000008
W   12.45967616755148   11.34096260923360   13.76715948027571
W   10.84026779704923   9.40497099426225   12.68339917652064
W   13.14975569908533   10.56534017041369   11.33134018963178
W   15.82229199593583   10.19961280012481   11.73580285626397
W   14.96990170738227   12.21105789809672   12.86588567803170
W   12.63600013428589   13.83411514195772   12.62668951608075
W   10.60120962493798   11.91322654952102   11.62490731352209
W   14.82968422635280   12.54754455486922   10.37088975254288
W   7.91800892222369   11.84065151597948   11.18697020171636
W   10.68487581032196   9.39385057692780   10.15407569686820
W   8.40456366238243   10.28330262702787   13.30463267080100
W   11.05727204077353   14.70669180647000   10.73156386193958
W   8.58730390368208   12.79685937162275   13.45429111336527
W   12.31414861998499   12.81688639667725   9.63860644641216
W   9.52520403417951   13.24157202434940   9.41710702486920
W   12.71016249165355   7.86179324719470   11.45060317871126
W   13.25635032354298   8.81837629933685   9.32794770556243
B   14.33003873853205   10.16377234939707   13.46100512536204
B   12.96112416261781   9.17489572103770   13.35831457582875
B   14.35793260020230   8.77233374365742   12.50711810911789
B   10.21879792223992   11.29561796235399   13.93952977455685
B   10.81845736725594   12.87791275101289   13.80212609306835
B   10.28725929296231   14.08294747657393   12.69696941219173
B   9.06217479990559   13.81994263574677   11.50290472601733
B   12.14682079895764   10.64753377070202   8.96269867740494
B   13.52221465525551   14.38205360452578   10.61835379404782
B   9.12476057964325   11.00570450283451   9.51808623772398
B   7.42348616285286   9.67534485901750   11.52193805482836
B   10.65607856968550   11.39533707950973   9.09541728193215
B   14.68815034203876   14.13848191026017   11.81343325002786
B   13.71363081067174   11.14422218619866   9.04301947952277
B   8.35293034238904   9.73150765153010   10.17980284921289
B   14.95049859667244   10.31669220827325   9.79894749427163
B   8.92279175819475   8.92822556592460   11.60182430395657
N   12.70573432111327   15.44243904192002   13.79550964142356
H   13.56624194185250   15.90172049915411   13.99436237308625
H   11.91705183215478   15.89852771355083   14.26169984121604
H   12.14228603511440   13.06311097439219   14.49020583372577
38
F:    ...  E:  0.356002520000004
W   12.49213914996857   11.42187371487366   13.86323049300134
W   10.85118917442186   9.47182668867184   12.68943350218834
W   13.11774434756037   10.62170442903149   11.29880647025799
W   15.81575549769078   10.19078128636998   11.70414274338957
W   14.98344571846592   12.20968847819780   12.84690008044209
W   12.66580215162114   13.80094219238372   12.52514105153555
W   10.57161086862481   11.86559843594285   11.64628735536028
W   14.84465146504599   12.50132055115501   10.33353250501358
W   7.90491966405235   11.85670421751961   11.24486367275057
W   10.67002736496228   9.33692619282738   10.15433720399770
W   8.41764434013085   10.31097409022757   13.33934381180309
W   11.03179418625821   14.71423561894488   10.66418485630616
W   8.63153749801489   12.82534112956165   13.48630093981301
W   12.31644206417887   12.81445632809770   9.62354071398180
W   9.53068168170867   13.23549744144553   9.44733820390915
W   12.61424187313629   7.83724978004764   11.50177890102521
W   13.26733720506280   8.79880696574351   9.41513536879283
B   14.31811390945484   10.18706312028583   13.45129704759137
B   12.95202091399036   9.24828299543992   13.33740897920612
B   14.31864720312291   8.80285186116369   12.43963778597038
B   10.23780484039654   11.33039047362543   13.94965346927276
B   10.87331364431518   12.95305418532045   13.88968438722423
B   10.33942040773351   14.04958822064138   12.69461079362172
B   9.06588105422432   13.84707832951889   11.52120908259387
B   12.12584436607678   10.60487919444554   8.96807761387759
B   13.59865134461709   14.36004244155880   10.54400359834674
B   9.10605596415081   10.99548087800996   9.54758245732928
B   7.42712283905737   9.67472187380281   11.57260356697939
B   10.64529167040965   11.36184259813011   9.13598567389182
B   14.72855824398210   14.11435165002803   11.75240601674082
B   13.69972675955163   11.10950889127164   9.00788192169767
B   8.34366979122050   9.73528279451702   10.23613306681108
B   14.95985589439926   10.30373221798020   9.76158310859417
B   8.91908810573790   8.90265661864893   11.64727798436357
N   12.80357321843067   15.41183256281378   13.68346344820401
H   13.55348036922398   16.08161898662318   13.57156642173390
H   12.06544385776863   15.73765685119508   14.29713200314925
H   11.82661014286922   13.00929450557481   14.84164249087057
38
F:    ...  E:  0.494665109999971
W   12.49046268854112   11.39104063540857   13.81500228073499
W   10.86235271369113   9.48407407618899   12.65764962053055
W   13.10505439280088   10.61998269346252   11.27580642982672
W   15.83527573161925   10.17946612018012   11.69174050650775
W   15.00551693447166   12.20701198685040   12.83594849483327
W   12.66145317890502   13.72334369366159   12.50210915349357
W   10.54340535562282   11.84446065093416   11.60319428143196
W   14.85313756143542   12.49399004394259   10.34318927133397
W   7.89930313743979   11.84889256587844   11.23063029447701
W   10.68178772573072   9.32259387956932   10.12082649690079
W   8.47934596496049   10.33683213222003   13.32061149810180
W   11.02794714055061   14.69525428489377   10.65235626003587
W   8.63742045954150   12.84752766247012   13.47890984188599
W   12.33121922269445   12.80475897671992   9.61838854501992
W   9.54035590809647   13.24355646078928   9.42885518241444
W   12.61237439658781   7.81366932555574   11.49213542407323
W   13.27058793726804   8.78793131320783   9.41216636211492
B   14.33599354872143   10.16598217521006   13.39954728544504
B   12.96024421573623   9.22108810486418   13.31299461158784
B   14.32463741330171   8.78465988249391   12.39702743696522
B   10.26289784290026   11.40650118276488   13.94576249906689
B   10.91606960562680   13.06845272197855   14.05760216943984
B   10.36468649087782   14.00999626197629   12.66771728182773
B   9.08016070965355   13.83584910800131   11.52021231369842
B   12.13536084140416   10.59961956235206   8.94337910882604
B   13.60692933166388   14.36032591434915   10.51781348261532
B   9.11004361712037   10.99120087091572   9.54479015789196
B   7.43504908289864   9.68081609339532   11.58162883666091
B   10.64907849360070   11.35951024687705   9.12457980617753
B   14.73194308571277   14.12606344131263   11.72827269523786
B   13.71076826114066   11.10640479075117   8.99378418365789
B   8.34369221709418   9.72861410419458   10.23397589319625
B   14.96352871099966   10.29964611577625   9.76351630392890
B   8.92066572153901   8.89445787476846   11.63915113724824
N   12.85270177150669   15.31424327147009   13.70436667081311
H   13.52610122878623   16.05577008361553   13.54773881600662
H   12.16260670803369   15.55485186644090   14.40173928303742
H   11.40497944336221   13.42669861619640   15.13001887459140
38
F:    ...  E:  0.330304899999987
W   12.46422581272483   11.38789945307844   13.78237044637174
W   10.86060190080378   9.47618289136497   12.61758511832133
W   13.11964832021829   10.62905139662522   11.26717722425838
W   15.85100039881978   10.19283317769656   11.69890032037276
W   15.01657202445919   12.21559036738602   12.85091146450826
W   12.64371840686039   13.69606373449397   12.54946605375562
W   10.54657936733189   11.83775481320520   11.56573924681038
W   14.88014283176419   12.51091115535294   10.36689899648089
W   7.90450656953042   11.83380658419114   11.16640107983855
W   10.70636125884736   9.34312197436197   10.07839537990870
W   8.48924920384939   10.32618749519653   13.25774585850418
W   11.03004613402870   14.70488107951164   10.65221877092475
W   8.61208075411385   12.84325558084372   13.42895566719663
W   12.35731026584446   12.82363571174834   9.62814332455654
W   9.55522013571560   13.25945127026591   9.39655702721290
W   12.63938109044302   7.81840025701772   11.46418223829658
W   13.28715152560815   8.81164847767932   9.38879301401584
B   14.32647117711598   10.17742973387488   13.37478221059018
B   12.95524811798632   9.22308263656286   13.27993065949669
B   14.33790250512061   8.78723311493437   12.39263508098947
B   10.25638617486186   11.43801832127835   13.91985334070000
B   10.86682794651569   13.12735692014449   14.11605782871172
B   10.35687506740158   13.98123880627522   12.65888080192685
B   9.07573407753507   13.81330830333308   11.48759435135673
B   12.16883984586652   10.63351847879682   8.92063432639138
B   13.61783242903653   14.37190683663227   10.55335286104604
B   9.13734030778217   10.99985528984645   9.49992955531975
B   7.44656867207586   9.67044400722140   11.51567866085819
B   10.67857937501712   11.38673845403640   9.09991159425636
B   14.72655058564677   14.13696668212120   11.76040195644437
B   13.74575393619838   11.13925172493778   8.99323345569058
B   8.36870971490413   9.72534629701317   10.17213362046831
B   14.98249191452910   10.31121063023067   9.76614095546329
B   8.93258707013693   8.88411668574380   11.57812532453495
N   12.87018553926729   15.19174073909060   13.83819375079020
H   13.55240001976260   15.93558538864808   13.74400510793396
H   12.21562334204509   15.34928412887681   14.59340166565546
H   11.05243497186513   13.64083019202199   15.20982045168123
38
F:    ...  E:  0.289742349999983
W   12.43897463188918   11.39027400324273   13.74676211409588
W   10.85094581598703   9.43627213743117   12.58435934471700
W   13.13470331388108   10.63766193536335   11.27426260358536
W   15.86399045526409   10.21869101968328   11.72141006057930
W   15.00026114582854   12.22890131681607   12.87435916339005
W   12.62286853877439   13.74371414975987   12.61252576792949
W   10.55444937874994   11.84104879721497   11.53864068712505
W   14.89060951394208   12.53112018706690   10.38749953285928
W   7.90006554006809   11.82904002656785   11.10848552141947
W   10.73210271062070   9.36666209273198   10.05011256756558
W   8.46911290920650   10.30104000365761   13.19488083606515
W   11.04907604246199   14.71330773453440   10.66595642947066
W   8.59542605368542   12.82432915120668   13.37927394554294
W   12.36718901913618   12.84596578042194   9.63224910472201
W   9.58783917216204   13.27492389634816   9.36450878121619
W   12.69951294700843   7.85150122416808   11.39992562468082
W   13.32078757920359   8.83550023713638   9.31918188255074
B   14.31702357282990   10.18915487053525   13.38248080790475
B   12.95852364509178   9.21601228542253   13.26036724517891
B   14.36880417789671   8.80037196559468   12.40360090803613
B   10.24288921324557   11.40943833022917   13.85482733293456
B   10.79248012362829   13.10957464671638   14.12268164103680
B   10.35570380696924   13.97583890690605   12.64483734814660
B   9.08248258161173   13.78895889811286   11.45953524200195
B   12.19879221475522   10.65683143624099   8.90855213035679
B   13.61304505165993   14.38147103617494   10.59482082046262
B   9.17143380271642   11.02620039866363   9.47360176817614
B   7.44453133380991   9.67137651873755   11.43148357054758
B   10.71113592935281   11.40849095837863   9.06176774563921
B   14.72204431688584   14.14885266147229   11.80157461189027
B   13.77114125065011   11.16911073048858   8.99972553288016
B   8.39289397273591   9.73658477063301   10.10837097673198
B   14.99602564701007   10.32715968836451   9.78238910619022
B   8.93343758785860   8.88444594501268   11.51251002505292
N   12.87704124602250   15.13307470127830   13.99057465987210
H   13.63548856204127   15.81344624613769   13.99009456292762
H   12.23207315120335   15.28128175456616   14.76610626948182
H   10.74023283579380   13.63750834862173   15.23084251867376
