35
F:    ...  E:  0
W   9.71263473308882   11.97578092991206   11.79543386796057
W   10.13661743247752   14.65068326370315   11.60158617580515
W   8.83871268728005   11.86754869370793   14.39464865365952
W   11.10923398783115   10.69283851639590   13.97735916178902
W   10.93166399435199   13.34473883904789   13.92417801990437
W   13.05278550471369   11.97942716297277   15.01148611342493
W   12.54838819944091   12.21785573620551   12.05303213628410
W   15.01824746289995   12.24789359680936   10.70932484769214
W   11.08195708138518   13.00771816098661   9.75039256232666
W   14.31221756209626   14.40172508723628   11.81034342946353
W   13.75117658546075   10.12583957655930   13.42531520193686
W   11.27460032293034   10.37651726733952   10.09406586780546
W   8.54305360332312   9.77208484015077   10.79485079183317
W   9.05451755376997   11.33115151313333   9.05593683621661
W   13.87471162767551   9.89968069268054   10.75566472152124
W   14.97754401827189   12.44153606743516   13.28315203495997
W   7.21816565548993   11.99742950497897   10.65229482197933
B   8.83366552737401   13.46374120770373   10.11348253192103
B   8.09650161841760   13.81746897207081   11.62157490340702
B   8.84293519062845   13.77934431132519   13.20319319818836
B   13.22275046066207   13.80131452858477   13.70464923731535
B   9.07959509080662   10.07411406205308   13.06682924317089
B   7.68944622975071   10.96396828437602   12.59968724204264
B   12.28221170397140   14.50748157106786   10.88104502731551
B   13.29267538216301   13.42911710807799   10.02506369462280
B   10.39756170495973   9.68098312637564   12.06161646418783
B   15.41518178652885   10.53002190477557   12.10015733357366
B   13.03485679206598   11.75547164016773   9.73685565150589
B   12.08008959184579   9.78095870446006   12.07901513768772
B   12.19955786793095   14.61626521500558   12.59355633319103
B   7.56892210459217   12.64452625313233   12.77436471558930
N   14.83723183175678   8.24701769493544   9.56045271786765
H   15.81580110143956   8.49295808498972   9.38212792198187
H   14.84430606382641   7.37260153217837   10.09507184754503
H   14.38024197092930   8.06195638160116   8.66195158645990
35
F:    ...  E:  0.0395205799999871
W   9.70167078577085   11.95611632593521   11.77333697507190
W   10.12836421333282   14.63143202836585   11.56630222620958
W   8.81454547579191   11.86754832163634   14.36863835525904
W   11.08187757105039   10.69496044471471   13.97201813669896
W   10.91439334134770   13.34425117934057   13.90102004518898
W   13.02469050781695   11.99495426220349   15.00351070164317
W   12.53087252188905   12.22102038384788   12.04051448031006
W   15.00825880528901   12.23449893192484   10.70189604778474
W   11.07769893854286   12.98561233107410   9.72420935725339
W   14.30497547975316   14.39627763902739   11.78540071063061
W   13.72778723177666   10.14021251115649   13.43324464949313
W   11.26201734335036   10.35780798984069   10.08785593986814
W   8.52868001398248   9.75034162118764   10.77611493787149
W   9.05501994096414   11.29985012292421   9.03206838840582
W   13.83903363480377   9.89109260069162   10.77986342907973
W   14.96335324722011   12.44608704926625   13.27027979844687
W   7.21173923004291   11.97431289058423   10.61817204854078
B   8.83021700534616   13.43758036287007   10.07573010492978
B   8.08888878851696   13.79719774321491   11.58016710903908
B   8.83033723233546   13.76845032236545   13.16557608955165
B   13.21036517337547   13.80868486838527   13.68371312702333
B   9.05601100313030   10.06293532799941   13.05543596675351
B   7.67205883847900   10.95057332355168   12.57222723324757
B   12.27698091301251   14.49398131831472   10.85468763392971
B   13.28532968074999   13.40909816429684   10.00426748585684
B   10.37418753256238   9.66025815129056   12.05941593882026
B   15.40193473243196   10.52290427356610   12.10352814354603
B   13.02829148911105   11.73440695221919   9.73058383066431
B   12.04908367806567   9.78172871485811   12.09310307355504
B   12.18896952187566   14.61615017366634   12.56616830799356
B   7.55591991523552   12.63183684838675   12.73729462005251
N   14.90957263066960   8.29041826560058   9.66627219928504
H   15.86237890305443   8.67202133456664   9.74207911554888
H   14.93188075489911   7.38498682503964   10.13155812358336
H   14.62237395656147   8.14017042822326   8.69350570099940
35
F:    ...  E:  0.292451700000015
W   9.70374160423670   11.94393011215078   11.75990297016390
W   10.13291928751189   14.62205604091947   11.54657520488860
W   8.81340811854072   11.86448266778269   14.35326528924065
W   11.07959887629232   10.68789582942021   13.96734357541458
W   10.91397919876809   13.33621215665994   13.88766046137157
W   13.02792583109870   11.98603580831795   14.98832773060894
W   12.52566117867271   12.21612509991252   12.02591330708403
W   15.00959797010057   12.22224597559791   10.68755318804675
W   11.08022735124301   12.97062442632889   9.71113044358142
W   14.31122300764993   14.38411672753361   11.77082676519257
W   13.72760158380338   10.13372061336915   13.42784856556411
W   11.25011722622256   10.34554113994879   10.07465665236028
W   8.51865472299491   9.73811369486848   10.76581457682804
W   9.05381693226634   11.28219735205768   9.01730002666273
W   13.78299404303998   9.87290173917872   10.79474022065625
W   14.96692543397535   12.42863705363959   13.24681011655249
W   7.21247530294460   11.96318392128717   10.60138051737803
B   8.83400819107643   13.42141072132873   10.05678901532841
B   8.09355216296465   13.78748848472241   11.56064874370019
B   8.83344747819917   13.76374316796367   13.14590433798646
B   13.21687752933451   13.79899736141557   13.66688779011312
B   9.05264327712561   10.05616833342921   13.04319545388501
B   7.67371448679934   10.94344565696542   12.55649249242453
B   12.28279136780602   14.48066468843796   10.84151840603606
B   13.28601759524489   13.39025733655158   9.99268849325528
B   10.36069042360283   9.64744867367161   12.04939580624402
B   15.39628900362587   10.49942479466484   12.06399229312253
B   13.03111245025694   11.71571447806410   9.71950158807357
B   12.02559490074119   9.77509371380524   12.10953839618532
B   12.18903354957440   14.60574754445923   12.55301043023909
B   7.55750507529965   12.62472123492383   12.71994888390655
N   14.89286442748326   8.30996061132294   9.74531186765255
H   15.68256667575167   8.91037460953178   10.05092236975699
H   15.09028577504345   7.38303809876834   10.11297154527573
H   14.73989799284527   8.23804016313299   8.73399250735683
35
F:    ...  E:  0.967246260000024
W   9.73088586040276   11.94748863078369   11.76595010029990
W   10.14767568937970   14.63410665249750   11.56749859564487
W   8.85703764390696   11.85254491577163   14.36322878035540
W   11.11999953828379   10.66720081295101   13.95986910047506
W   10.94448647521180   13.31909986803753   13.89629454076360
W   13.08716179522993   11.94174297118768   14.96600545903524
W   12.54626097181436   12.20189286682775   12.02194411182843
W   15.03198669533642   12.24680194754783   10.67830135166401
W   11.09083449405503   12.98464435206828   9.72703851334328
W   14.32526434101653   14.39108723698976   11.78341230008997
W   13.75978576238824   10.10463411334986   13.40561074076965
W   11.24530378966701   10.35855361929452   10.04893661021495
W   8.52160415680048   9.74824699550406   10.77793294132815
W   9.05078507293933   11.29797716728041   9.02729903855100
W   13.74648877693201   9.85840834783334   10.73722630636022
W   14.99668127505002   12.38649981067043   13.20380349963218
W   7.22450643634369   11.97553346963509   10.62302130907135
B   8.84409227235533   13.43062283705211   10.07681015259478
B   8.11437776578843   13.79685296986905   11.58921001386571
B   8.86217140627300   13.76219235448780   13.16985502601867
B   13.25388557182944   13.77901303822825   13.66777110858285
B   9.08792031592264   10.05419696381868   13.03777232672878
B   7.70748374095475   10.94574407154592   12.57285623648494
B   12.29864488517801   14.48709479470425   10.86007864803987
B   13.29667063852231   13.40292492579759   10.00285027953857
B   10.38335624958602   9.64744340880015   12.02990834631542
B   15.39553724038351   10.44845929716595   11.95296340317073
B   13.05381890711530   11.72769705116889   9.71505023570927
B   12.04414572098731   9.76706258961668   12.09630878850095
B   12.20222654517909   14.59030100182455   12.57458450843620
B   7.58398306551543   12.62452845052066   12.74297293918824
N   14.69657842624176   8.27477462456745   9.71695848577671
H   15.47493804981418   9.09412649361158   10.23031920487895
H   15.10860719554743   7.40679818457614   10.04759536582564
H   14.51457326018425   8.19346319654820   8.71252166305269
35
F:    ...  E:  0.675653130000001
W   9.73604997198494   11.94044563258352   11.75413835104123
W   10.14272291021088   14.62703272282020   11.55582069777492
W   8.85133782497127   11.85677193740174   14.35659177850656
W   11.10813921812727   10.66631616641770   13.95186431595336
W   10.94294186009008   13.32163423097457   13.88623090833934
W   13.08492330423273   11.94311675743796   14.95375901801289
W   12.53975781617020   12.18381960925943   12.01776759669961
W   15.03822414443064   12.25243127193485   10.68908467039667
W   11.09181783532797   12.98086813798099   9.71434523708430
W   14.31762576930263   14.39423493972036   11.77525499481318
W   13.75144758818386   10.10365888779936   13.42451746499315
W   11.24734178128697   10.35465676077898   10.04792550235719
W   8.52066234232085   9.74212507859824   10.77009686764875
W   9.04164339903012   11.29423911391445   9.02489930366429
W   13.78624271788606   9.79560433240325   10.68412322480983
W   14.99485983177924   12.38924868898963   13.19458581475266
W   7.21424131094343   11.97235285840324   10.61263891975119
B   8.84083695372254   13.41791087411997   10.06201188233583
B   8.11356465605068   13.79122399600026   11.57483645778658
B   8.85832055586161   13.75534700373579   13.15674492829533
B   13.24922870039226   13.79059484640407   13.65664542157312
B   9.08676876262744   10.05123198313628   13.03153217880161
B   7.71040996343257   10.94098154376074   12.55936724056992
B   12.29402451560320   14.48350180201878   10.85138462279433
B   13.29416897487106   13.39487858018940   10.00167180445999
B   10.38617448757357   9.63139980885676   12.02568917539690
B   15.39833995294623   10.43744193960956   11.93897414212053
B   13.06576609336814   11.71021449791545   9.72425138802874
B   12.05577533422493   9.76147108600452   12.08336181970565
B   12.19272139062559   14.58971930637583   12.56840846514529
B   7.57966082769108   12.61792391305382   12.72856776498537
N   14.53878863484170   8.17232829172207   9.69681703560687
H   15.60844558652355   9.41186200341325   10.52848057994577
H   15.14057364118683   7.43393022793689   10.06506997403738
H   14.52621137431530   8.13924120046301   8.68230048394837
35
F:    ...  E:  -0.184449429999972
W   9.74308888133432   11.94703203201258   11.76703751369405
W   10.14960753199633   14.64043107372386   11.57029057725513
W   8.86639409925386   11.84361431654566   14.36791077465595
W   11.12199250453667   10.65044551637499   13.94498778994467
W   10.95117540908955   13.31478417162729   13.89169383806213
W   13.09762093416977   11.92641106125376   14.93950521041902
W   12.55184686182327   12.18070104238855   12.01286569180834
W   15.05112199455700   12.28615897409721   10.67980267943001
W   11.10268378701162   12.98074211593889   9.72528543621747
W   14.31162451133399   14.40630222235130   11.78884895622935
W   13.77925605354996   10.10776306882230   13.39494151817431
W   11.26570564976803   10.35271580403418   10.05457868305029
W   8.52806289158336   9.74556773451323   10.78645612294828
W   9.07855181034291   11.29053064770886   9.03284959911560
W   13.75073796569105   9.74679118397330   10.61135927732563
W   14.99585532335181   12.35697645003060   13.16051414682179
W   7.24463812697379   11.96645711799824   10.61826093730968
B   8.86275098369993   13.43651381376454   10.08585957492134
B   8.12317299757908   13.79260260009668   11.59476582908297
B   8.86442847195804   13.76194211142744   13.17835755166977
B   13.24757945564916   13.79293491552433   13.66979797473535
B   9.09423249202213   10.05130269862519   13.03232031637476
B   7.71151027242184   10.94712145719583   12.58211951976014
B   12.29789109764334   14.49019673206179   10.85868407626475
B   13.29710806910614   13.39822272185941   10.00622544716744
B   10.40567116405487   9.65811234805104   12.02299886001028
B   15.42388775343862   10.39791222169904   11.81151300066188
B   13.08850989058889   11.70088601638054   9.72768136819415
B   12.08714443135898   9.76443945855669   12.06597568546947
B   12.18946269296594   14.59510404669377   12.58294417067261
B   7.59338172438746   12.62304581560236   12.74399309604822
N   14.39257727771217   8.09009770037342   9.65335059501721
H   15.68207039780973   9.69564775266011   10.75221952981966
H   15.00637088404841   7.33396833898499   9.99758643826786
H   14.39204563932264   8.07628474918460   8.63617824553558
35
F:    ...  E:  -0.692581840000003
W   9.73903952345858   11.95720906903070   11.76161265833736
W   10.16631520415516   14.63550051522411   11.58088663714575
W   8.89721949731365   11.84243996744123   14.37499050636988
W   11.13788802110554   10.62754487706932   13.93479804164426
W   10.98231756395429   13.30107359301448   13.88777672691761
W   13.12253868195424   11.89325912345042   14.94366903097393
W   12.56060543958949   12.15238990158508   12.00563236686176
W   15.03290514698532   12.28457686839442   10.62874870622195
W   11.08557482332278   12.97851114807114   9.73579559773724
W   14.32418474833681   14.39425816747866   11.75421145313003
W   13.73852796197765   10.05153580563988   13.37300003063841
W   11.25972101811086   10.37237660347163   10.05951756535992
W   8.52908386785786   9.77247799467521   10.77158488907347
W   8.99210151078338   11.33319634120707   9.02688498687075
W   13.80136419360535   9.77875885043122   10.58822414634751
W   14.99264199297571   12.34073144882307   13.18181295393340
W   7.20257727240535   11.99838566254634   10.64698743439483
B   8.83988864166374   13.44353664760358   10.09284172702974
B   8.12675681893922   13.81038081315395   11.61541165418870
B   8.88821591250481   13.75401632508895   13.18708437346145
B   13.28923669194736   13.73158425210524   13.65042850881607
B   9.11224565820554   10.05703273112709   13.04090656887092
B   7.72481217960806   10.94893908313716   12.58575500026266
B   12.30299972416925   14.49518792988083   10.86171022164155
B   13.28743673120498   13.41448192146898   9.98556103889746
B   10.40181866011434   9.65127010451381   12.01282601315088
B   15.38877597546615   10.47029935169039   11.90825718852050
B   13.06898471655519   11.72140820482596   9.70505488056985
B   12.08691368994655   9.70111156094171   12.02340192846491
B   12.23529500892064   14.57342586034305   12.58325766699866
B   7.60533816499185   12.62983273093238   12.75786942252041
N   14.37918129798108   8.16500363970454   9.55154982133551
H   15.85577720841628   9.65929545374965   11.06520590098371
H   15.05080250090082   7.46147025334264   9.88309776865655
H   14.14067398270801   7.94725723097185   8.58340661580867
35
F:    ...  E:  -0.854314139999985
W   9.73631657777536   11.94184334277715   11.73804089509905
W   10.15767563454236   14.61733596611719   11.54813310369625
W   8.88054438093209   11.84334261647657   14.35280459804977
W   11.10617647877947   10.62524137755142   13.92466983382169
W   10.96110159051943   13.30507334383651   13.85832583761224
W   13.08058109191482   11.92658998448983   14.96344431057333
W   12.55293679276078   12.15065645375861   12.01122828577023
W   15.02391909469893   12.26831063207812   10.64931308138172
W   11.07669246508200   12.96260859673581   9.71250561529094
W   14.31457010004644   14.39270921878088   11.73399097572951
W   13.71703836635072   10.09409177798187   13.42843956865439
W   11.26724790369804   10.35663114089862   10.06782635972181
W   8.53887400735737   9.76343462196389   10.74687125463639
W   8.98619208170768   11.33677832861621   9.00485094527318
W   13.82976754292647   9.79979866780013   10.61714864827233
W   14.97445921340539   12.35399106951054   13.20403157746049
W   7.18522803843178   11.98094897866940   10.62340205581214
B   8.82184470137484   13.43112617358828   10.06339779024225
B   8.11394632758690   13.79769653970917   11.58311596002526
B   8.86786123040088   13.74308783650879   13.15541637358733
B   13.26540781601515   13.74814263122466   13.63914440923345
B   9.09947025294459   10.03905035786733   13.02124823021524
B   7.71861947364617   10.93552889021716   12.56192847283082
B   12.29817481088864   14.47879759079832   10.83424869047911
B   13.28662596621984   13.39819745375878   9.96674387730157
B   10.40313885984643   9.62312961343573   12.01254722150914
B   15.40181500815677   10.48332238528331   11.97865505201983
B   13.05197553599386   11.71098249438237   9.70660900031216
B   12.10308532130195   9.68595143102704   12.02758313350950
B   12.22758050704498   14.58185530380730   12.55308309274699
B   7.59314834531838   12.61536237431750   12.72468669592165
N   14.47807792528980   8.24924496900808   9.55292029122534
H   15.87883876194314   9.54695561892811   11.28898156225993
H   15.24194769813728   7.63237119488137   9.83843646525902
H   14.10888012909805   7.92957105534878   8.65598676660267
35
F:    ...  E:  -0.939232899999979
W   9.72799413074607   11.92450957358998   11.72803576651009
W   10.12694274738625   14.61224354237997   11.51777873335892
W   8.83486238116589   11.84254645719528   14.32513476837424
W   11.08109938004297   10.65038192939874   13.93855642903131
W   10.92869124190809   13.32016703120000   13.83806232978301
W   13.04113776408243   11.95933990229183   14.96015730296583
W   12.53573982166552   12.15605719225816   12.01135276268573
W   15.03352015745294   12.27315687517499   10.66957265764202
W   11.08384769132467   12.95278593089507   9.69163072878442
W   14.29836750114088   14.38996704644530   11.73754845082827
W   13.70920159437720   10.11459694827479   13.46179386425104
W   11.27820482498333   10.32617800408373   10.06686163287528
W   8.54153977203462   9.72844047859032   10.74305476523550
W   9.05329973199517   11.28164676744321   8.98877397438854
W   13.82304412385675   9.79884099364451   10.64139033043117
W   14.95643934403130   12.37421948322228   13.19050625705145
W   7.22051780129565   11.94113812745113   10.57375689230934
B   8.83204692944140   13.40719170323809   10.02730002250732
B   8.09740318241333   13.77507652956399   11.53507608654579
B   8.83744243773604   13.74490861074562   13.12209096331768
B   13.22523501339235   13.78246544913955   13.63139325644467
B   9.07474850720032   10.03334888112658   13.01192682558300
B   7.69238405308488   10.92434768212230   12.53646693165697
B   12.27769465654335   14.47311617685351   10.80744495487748
B   13.28724058952525   13.39091662722982   9.97188437352635
B   10.40459283816494   9.62773719580355   12.02425262202888
B   15.40523124825792   10.46642651495801   12.00601821688023
B   13.06178663151796   11.70299549535278   9.71833206026078
B   12.10048750709861   9.70472208489439   12.05382395350742
B   12.18522658299690   14.58979783377490   12.52382189635243
B   7.56978992779582   12.60361570944573   12.69072382144978
N   14.53473089385927   8.30156841891385   9.55713264068396
H   15.99516597139337   9.48232830723270   11.54308195746867
H   15.38741244126312   7.78850372213022   9.78534422937024
H   14.10669061096183   7.90447680606604   8.71967757317010
35
F:    ...  E:  -0.966948600000023
W   9.72259725078941   11.91501785678508   11.71468216214886
W   10.11239792638590   14.60065189621075   11.49247513464930
W   8.81547033213609   11.84163305862326   14.30840705869315
W   11.07203217151484   10.65638360227769   13.93858852681438
W   10.90521121829311   13.32540907721044   13.82263901997875
W   13.02389293187450   11.97736462516980   14.95702411033799
W   12.53023811090818   12.16478932759127   12.00611388154090
W   15.02393869238669   12.25997749804690   10.67396429719500
W   11.07956350984142   12.94303913099456   9.67213407496282
W   14.28710861343091   14.38778000700579   11.71907478043172
W   13.70223347170373   10.11711145588809   13.47082907268053
W   11.28280074712676   10.31605487618486   10.07478565756800
W   8.55073346244799   9.70849195220183   10.73039732694980
W   9.06555364997477   11.25893102946562   8.97125430837918
W   13.82655782436985   9.80251798338545   10.64153590526184
W   14.93322090733515   12.39969629379108   13.19750555343828
W   7.22532569087420   11.91495586119428   10.54680086274335
B   8.82968008751837   13.38987459036650   10.00224583728435
B   8.08469050721266   13.75574597383934   11.50242346401437
B   8.81742456225442   13.73894466448834   13.09407633007044
B   13.19850865579598   13.79749840628020   13.62416335843244
B   9.06963469874371   10.02851374863906   13.00594501311932
B   7.68381411444260   10.91225045087031   12.52078244637325
B   12.26062584013026   14.46793680389477   10.77986584939254
B   13.28571072291477   13.38982647082304   9.95789134413438
B   10.40568986526149   9.62596894783528   12.02623905351883
B   15.41652265037096   10.46443665172443   12.04433497894514
B   13.05628983874971   11.70706128683869   9.71256613633092
B   12.10119117400747   9.71090359325709   12.05968320898271
B   12.17096273446905   14.59210869912999   12.49871904091630
B   7.55999784380137   12.59187120359748   12.66333046306009
N   14.55650018115136   8.32592358795725   9.55386638929662
H   16.15023894553779   9.48722016132096   11.88131110800926
H   15.44189300975067   7.86023973130712   9.74647244511218
H   14.10150808863059   7.91362952793985   8.73763183136964
