35
F:    ...  E:  0
W   9.54170342009295   11.14729031784747   11.58660016361337
W   10.15464602790730   13.75962375414450   11.41444380716483
W   8.72795512074788   11.05663713250973   14.22286142154454
W   10.92649468306366   9.75725450408021   13.67836202911502
W   10.92980759683461   12.39824497335614   13.69937619679844
W   13.05808224209328   10.89121326814270   14.66337865741037
W   12.39476627588228   11.18594440586361   11.73442053924236
W   14.83271663897965   11.13412276123185   10.30851448161141
W   10.91680882574236   12.12217960439452   9.49543231578865
W   14.31890503239955   13.34903228603583   11.47213296050258
W   13.53318796542369   9.04084875609997   13.11832327644402
W   10.95860744309634   9.49646127764586   9.82615790363440
W   8.18163272446444   9.05669036862488   10.64112901744085
W   8.74355068901769   10.62826414479529   8.88707591570716
W   13.53747378807505   8.89134351762319   10.42150390170163
W   14.90210473683713   11.33441184945786   12.90907850098859
W   6.97385132973012   11.35107014551782   10.55513439345202
B   8.70037282637682   12.70526479301225   9.95640811138201
B   8.05198402674650   13.08931137006024   11.49587752815716
B   8.83854807244477   12.96131789667989   13.04951657845511
B   13.23056234988286   12.74164092835180   13.39740941833071
B   8.84154757630558   9.26115258520998   12.85922082529143
B   7.49253736389888   10.24471368620283   12.47161254238314
B   12.25659908232759   13.53417815519923   10.62723082072790
B   13.16475823473383   12.40982393966957   9.72621027695030
B   10.09510762069513   8.79928367659361   11.80639566933059
B   15.15921838343305   9.45326285911696   11.71000073784405
B   12.77686097843622   10.77245268301548   9.40558097159853
B   11.79433034135733   8.79482405177409   11.79083558864881
B   12.24202727055007   13.62529727838062   12.33402395577422
B   7.47588212313441   11.93371808202627   12.64140224533857
N   15.92982687082178   14.93572714541343   11.36747590890825
H   16.25143259877037   15.17376082037900   12.31218636010769
H   16.72511604846877   14.50666220320875   10.88300894808254
H   15.69075372336430   15.80673481047066   10.88143806266486
35
F:    ...  E:  0.114067710000029
W   9.56179472736898   11.16949176678553   11.56300336118562
W   10.16712423529934   13.78718305656869   11.35090588032790
W   8.76495313812101   11.10257689634345   14.20279390219508
W   10.95313357567998   9.78288814654246   13.66628399058946
W   10.95748649036488   12.43254242308858   13.64224808494870
W   13.08154257728179   10.93773924974974   14.61900627450967
W   12.40483213703975   11.16911875962826   11.69307449116660
W   14.82317275099553   11.09184345859511   10.23415404895952
W   10.90595024240652   12.10654314529342   9.45297285266566
W   14.30946482189842   13.32046470354994   11.36978185177271
W   13.55445112102523   9.05985227023654   13.11212320400302
W   10.95011664094841   9.46710058150467   9.81763345761075
W   8.19441321214794   9.06882516352406   10.64563029649138
W   8.73770455486194   10.62194710211815   8.87440731867782
W   13.54616325141899   8.87564053955299   10.40824864151177
W   14.91739501663185   11.36318412441874   12.84728468695305
W   6.98731855942263   11.36976985425042   10.54314207786091
B   8.70274971558034   12.72132070283966   9.92658781728328
B   8.06673369258678   13.11916213941602   11.46716099960870
B   8.86816004149959   13.00675412254921   13.01127147964459
B   13.24407503160846   12.77109803506645   13.32197965332682
B   8.86580843232128   9.29666814790392   12.85768606049337
B   7.51843252344264   10.27874753769395   12.46449837036250
B   12.25405973066412   13.51769577126404   10.54155380230300
B   13.14936657758709   12.36501836670745   9.65797138705864
B   10.11319632812184   8.81329876602788   11.81184901528395
B   15.16599601000484   9.46812679314779   11.69713555039165
B   12.74613836623156   10.73330379984250   9.35741992515952
B   11.81198614100799   8.78910582045669   11.78588961737218
B   12.25572760129955   13.63195149871274   12.24619680050877
B   7.50552972798921   11.96925229842982   12.62426847857125
N   15.86641422000898   14.87970445907455   11.53043471117409
H   15.95882138107274   14.81239540346636   12.59485153479730
H   16.76890272861054   14.61428066308680   11.15363989966185
H   15.67064472958574   15.83516446470009   11.25667050770572
35
F:    ...  E:  0.654661009999984
W   9.58109318160220   11.18068090404865   11.57502791033226
W   10.13980662181769   13.81822992693754   11.36473449365132
W   8.77038989815629   11.08153863951164   14.19519287269329
W   10.96036388628137   9.77330475295409   13.67974308748501
W   10.95085083264361   12.44998290961171   13.64160090175479
W   13.05942272661742   10.99075247504949   14.63033706483010
W   12.40252425645283   11.17915811638523   11.71951808760521
W   14.80560584475344   11.11664204508777   10.22910123222049
W   10.89187162893351   12.13129130506668   9.46911277601976
W   14.27090945483328   13.32587488866320   11.35647067967474
W   13.57337085180725   9.09596319521670   13.13744755238363
W   10.98232088936654   9.47411180432354   9.82640327797875
W   8.22845176658182   9.06363716183458   10.63960780524725
W   8.76084195427207   10.62918251617182   8.88149404452968
W   13.59687512484196   8.91823353378437   10.44143738335653
W   14.91116183210745   11.44883989392472   12.89241271843212
W   6.99771628637242   11.36897417583288   10.53511995340044
B   8.70261355394203   12.74415353479135   9.93861951140408
B   8.04624884497490   13.11891663501688   11.47530662960529
B   8.85112259332147   13.00655647602435   13.02630030222474
B   13.20879581430579   12.82044673930485   13.33474727805194
B   8.88711240407231   9.28841878489598   12.84846401453401
B   7.53224881670653   10.26418530912377   12.44579854157088
B   12.21993093514313   13.55426326919431   10.54474136769955
B   13.11467310610101   12.40126724384226   9.65406561209035
B   10.14400610763249   8.82329493030768   11.80365275741878
B   15.18816499302051   9.58771782838179   11.76174786315396
B   12.74368173650408   10.75855035802160   9.36889371261968
B   11.84285643789413   8.80354339639622   11.79097703805283
B   12.23197419848574   13.66072479452945   12.24220939497935
B   7.50466904210869   11.95361055174168   12.62293434203178
N   15.91168510889684   14.77263738643753   11.37632557611801
H   15.82765549328945   14.26039117840588   12.32136299777451
H   16.89209667161688   14.72044468940818   11.21105358867289
H   15.61664713667902   15.76423868190835   11.36779766253812
35
F:    ...  E:  0.231068279999988
W   9.58753016739413   11.18151740327517   11.58400190275146
W   10.14137699075998   13.81082565529900   11.37470574555524
W   8.77514884887384   11.07634204486569   14.20387967727608
W   10.96176491399496   9.77373699751438   13.67862613799308
W   10.97247323792780   12.45439712658654   13.64598173380067
W   13.07467399336016   10.98543942519652   14.61833381626512
W   12.43053714352212   11.19943222481491   11.72541715502406
W   14.80915689464617   11.11408607475196   10.22987406560379
W   10.89390759780832   12.13963378734992   9.48399607879297
W   14.36568460860485   13.44579167960168   11.38222492006292
W   13.58471141267806   9.10040303712601   13.13413973903052
W   10.98201052800571   9.48612088915750   9.83683598024168
W   8.23096015820673   9.06802379317170   10.63565067952264
W   8.76404495026632   10.63493844834212   8.88780299839103
W   13.60372906750209   8.93349648127037   10.43197082823436
W   14.94159283610715   11.50324895376472   12.87702614437518
W   7.00020811054810   11.36922780518447   10.54237199392456
B   8.70359663201429   12.74582286851089   9.94665805552554
B   8.05124293571432   13.11807329493430   11.48559857262438
B   8.86498550959771   12.99716288544869   13.03458341972495
B   13.21413883601202   12.81599902748616   13.32978734789329
B   8.88618861695010   9.28518757262981   12.85190129584116
B   7.53177022915505   10.26170775872653   12.44897926120630
B   12.23176989484486   13.56189542998015   10.54327322867231
B   13.13908038714733   12.41518168019464   9.67835589853132
B   10.14233272846653   8.81808352890332   11.80360984951469
B   15.19522165964093   9.59363302231766   11.76836843539268
B   12.74700004877283   10.77922105101891   9.37523591601829
B   11.84719736047972   8.81410769385293   11.79513985056909
B   12.25200889834857   13.66204878788717   12.24345126659366
B   7.50949306668056   11.95030231313782   12.62950624770334
N   15.80090538296071   14.87885954940671   11.09548358867491
H   15.75714769066522   13.77113779746199   12.53358361624774
H   16.80283336850597   14.74737904228842   11.29971186299021
H   15.55333532597241   15.85729490067668   11.21369272156650
35
F:    ...  E:  -0.700398730000018
W   9.56815042566244   11.16850252536408   11.60782730258727
W   10.16105956406015   13.73851513369438   11.45165692978980
W   8.72993838868219   11.03555396456972   14.21976010600576
W   10.93687724725118   9.77245380500226   13.68182461257566
W   10.97029703207486   12.43369842643182   13.70323751885416
W   13.07458603042863   10.98535663604646   14.61688813928368
W   12.44529896147108   11.25508001889826   11.76527858509368
W   14.82201065566333   11.14557351986714   10.24668044936863
W   10.91270174312713   12.17147719649322   9.50560117919940
W   14.38078328572971   13.50828434031327   11.41315032951811
W   13.59000762232786   9.12331137424045   13.17041981178598
W   10.99221467270741   9.53364511551426   9.86429873417971
W   8.22045843607613   9.06223680372291   10.62498840344251
W   8.77554533151508   10.63514596341588   8.89219100976680
W   13.60168394679822   8.98768286587611   10.45481277677930
W   15.01119206008520   11.62281281341314   12.90384821461500
W   6.99107535655124   11.34551326171297   10.53270691831102
B   8.70537006997703   12.73246734567008   9.96399849203124
B   8.03901157477551   13.09014705323290   11.50448502957719
B   8.82855935569597   12.94104071130989   13.08057855010699
B   13.23396996688706   12.84151904138302   13.39299971951119
B   8.86837458889302   9.24904410064623   12.85196325477493
B   7.50833671212776   10.22739926918307   12.45392346390845
B   12.25189397727409   13.58389190432327   10.61302052389646
B   13.16606799039415   12.47498610229857   9.72800796272928
B   10.12921329922779   8.79401988920223   11.80443655355012
B   15.15740983723600   9.69537653322452   11.82205497731647
B   12.77050522352529   10.83917447525934   9.41525305893563
B   11.84379357384322   8.85490178422766   11.82039542744375
B   12.27920378287880   13.68950021700240   12.30917888042739
B   7.46763232198297   11.91922822098808   12.62541082724174
N   15.74325347186794   14.86082533296134   10.86510466154761
H   15.91340287419715   13.43146289317244   12.57830566090211
H   16.70771557859160   14.75763123166053   11.20071036786326
H   15.55216507254893   15.84230016181344   10.66476159921564
35
F:    ...  E:  -0.986853750000023
W   9.58598746989085   11.20462886491188   11.56976231778951
W   10.14506664589834   13.80752947274046   11.38585958619696
W   8.74455814472997   11.08720694732114   14.18201367505664
W   10.94765149919048   9.80173370566279   13.65603804663556
W   10.93576912031394   12.48302507757775   13.66316204121523
W   13.02413018029503   10.98016291278999   14.62681818398270
W   12.41396143195132   11.25100217274612   11.72728332241960
W   14.85107158074024   11.17185393898350   10.25738206236327
W   10.94580729009142   12.17841158151940   9.47445739899612
W   14.35834334705095   13.47185781681431   11.47335035074160
W   13.56830053645211   9.06915085113589   13.17405832997818
W   11.02886313040239   9.54426885191223   9.83148012052248
W   8.25791543461305   9.07996296024921   10.61897424428593
W   8.78872591236159   10.65421689542486   8.87115038982793
W   13.65417690514219   8.99957565892142   10.44744480260910
W   14.87666411502968   11.48877297090471   12.96327470556318
W   7.00981728876035   11.37392171153292   10.49737346938946
B   8.72873535234758   12.75201959629314   9.91473854739958
B   8.04751434858367   13.12351894974101   11.45186864445520
B   8.83056685561134   13.00442824606475   13.02479819336988
B   13.16292614244177   12.85553004112327   13.37866155846316
B   8.90019578068271   9.28879782679812   12.83249295254847
B   7.54095189051915   10.26448360107527   12.42029753550858
B   12.26792441842794   13.60644374793611   10.57071096769053
B   13.19512458639258   12.49605417581415   9.71085725684943
B   10.16495804779905   8.82874684300565   11.78177281079798
B   15.15478762350385   9.69147319937200   11.82704147936043
B   12.81618133572939   10.85304088532539   9.38574139416228
B   11.87911282081783   8.87323826181838   11.79088558613533
B   12.23772783864280   13.70504298107486   12.27357101385576
B   7.49002324320439   11.95713565480671   12.58815683471568
N   15.71422941386771   14.85290662098051   11.02313655302111
H   15.82758337795620   13.01789449327494   13.06704962297812
H   16.69046988940024   14.76221575902452   11.30044668061155
H   15.56393703329401   15.76950675745963   10.58764935264070
35
F:    ...  E:  -0.579722609999976
W   9.60485201201723   11.20752012273203   11.56131004080963
W   10.18931145706121   13.81749172277218   11.36169794736101
W   8.78133458146790   11.11641474720587   14.18576712834469
W   10.95892356903176   9.80545239833847   13.65621316573796
W   10.95939650877748   12.49873771968936   13.65248652533640
W   12.99662829651716   10.93801353012119   14.64631527337867
W   12.41960288882992   11.23184675859734   11.68982950010114
W   14.86727676262351   11.13476938662677   10.27153315400764
W   10.96480944105457   12.17375000421184   9.45722692023691
W   14.38471860852768   13.46388510489280   11.45011019923498
W   13.57708030247342   9.09093118075791   13.13569951343330
W   11.01738137746717   9.53383081766675   9.81348445236069
W   8.23791138769521   9.08551226064534   10.63470375363580
W   8.78085549695457   10.66186240253681   8.88610643390631
W   13.64524342626704   8.96417101653768   10.42050225983373
W   14.88972892876819   11.46348521001327   12.88469144296837
W   7.02508456836233   11.40235957139888   10.51099396621806
B   8.74806114131501   12.75876887980913   9.91184922314966
B   8.08671653752240   13.14372115888607   11.45064306145426
B   8.87521367170622   13.03346032881179   13.00839143150845
B   13.16431533199917   12.75736939737480   13.34054425422135
B   8.90208931853214   9.30951844907336   12.83479970600976
B   7.55702250928334   10.29266241532493   12.43337080526164
B   12.30945160502232   13.59176593420552   10.56177157954299
B   13.22115559976033   12.45688362093748   9.68881034913273
B   10.15820456056582   8.83796682384575   11.77823557641512
B   15.23172609916027   9.52459443630360   11.75703484248716
B   12.82163404463166   10.82575169769944   9.35883264623300
B   11.86995533394415   8.86731243924431   11.77147199347735
B   12.27574699983089   13.69881570095572   12.27755109985940
B   7.53252565666986   11.98443556901874   12.60097602615545
N   15.74854247873473   14.84906804490488   11.04007185572127
H   15.24264055188496   13.28357929676904   13.33191597465354
H   16.72312850735144   14.75466586570826   11.29128368399535
H   15.58149047032524   15.78938601852007   10.69353424595343
35
F:    ...  E:  -0.304015909999976
W   9.62404235737661   11.19469797964571   11.56785488731052
W   10.21000407508060   13.82626771808745   11.35276171431889
W   8.82356700500980   11.12462336382916   14.19710133904987
W   10.97906021419587   9.79457833535941   13.66661279277442
W   11.00548015270270   12.49279270179974   13.64355811372974
W   12.99341640799804   10.96454019549890   14.65636522557579
W   12.44760642561240   11.26403725552610   11.68149829019828
W   14.87361535966650   11.13185161956758   10.25828799864212
W   10.96363406431322   12.15891946547010   9.45104429360525
W   14.37761898609036   13.47815199912721   11.34892093599528
W   13.60876805136507   9.15890376819413   13.12000996580930
W   11.01212469132149   9.52584653711311   9.81158795721678
W   8.22476591699301   9.08634006839580   10.65084940999309
W   8.77239082356423   10.66079653483262   8.89690065651106
W   13.63432351189144   8.96819808166152   10.42842085456067
W   14.93767524358367   11.40482888908470   12.83051083560441
W   7.02791457490400   11.41375753973545   10.54057756071799
B   8.75689066077399   12.74734313567456   9.92588209939496
B   8.11745866509482   13.14078709362952   11.46741273533460
B   8.91539501766610   13.02999821422041   13.01567383481747
B   13.26758019549264   12.80951773905648   13.33124095592872
B   8.89910895748812   9.31183960775009   12.84412244315973
B   7.56306709761636   10.30640556527650   12.45519053007474
B   12.30758875825182   13.57345945618270   10.53948860168928
B   13.21975643924687   12.43311685490144   9.65610397955908
B   10.15373261551671   8.83342602853169   11.78711277869367
B   15.27698783559697   9.50151813110593   11.72816969430803
B   12.81654448412939   10.80032353275587   9.34411915151677
B   11.86428162634814   8.86585179831049   11.77568056612557
B   12.31004278665987   13.70533891950218   12.25871138359052
B   7.55904718579025   11.99403932062092   12.62449425740942
N   15.77029583501086   14.85973458410019   11.02383015883398
H   14.67290874378643   13.23061262645014   13.48673538385355
H   16.75225880354396   14.72340309335381   11.21521623026666
H   15.61080646245392   15.83391227778572   10.76771241596699
35
F:    ...  E:  -0.405032349999999
W   9.63041710905387   11.19820500451777   11.55482598288527
W   10.22103708147908   13.83670169377471   11.33178394546849
W   8.83731312411064   11.14147668847941   14.18250177391369
W   10.99128124886280   9.79341431989408   13.65796153138235
W   11.01978001990132   12.49225229282862   13.60996958315928
W   13.01365017981052   10.96651428379286   14.64011750249080
W   12.45911310067016   11.26814086287006   11.68019809098729
W   14.87579358012305   11.12826029226093   10.21443865594789
W   10.96164352379936   12.15546992652903   9.43072445378008
W   14.38386761135382   13.46408228470349   11.28456189155207
W   13.60591844902667   9.16314866377686   13.10870484509609
W   11.00849512807153   9.53221039697877   9.80608136735570
W   8.22503360018028   9.08983372935795   10.64619033579755
W   8.77514996476721   10.65809468043578   8.88652426906342
W   13.62461012507598   8.96011627536279   10.40407548031710
W   14.94739604749401   11.42075312896354   12.83928939981964
W   7.03055901722909   11.41940188988744   10.53459280233639
B   8.76020059331004   12.75192255160280   9.90986393094908
B   8.12826800314372   13.15103426708129   11.44971814315085
B   8.92857580720933   13.04134407094831   12.99392292205946
B   13.32613395140944   12.86422947586997   13.31640218756066
B   8.90301695394989   9.32418668834498   12.83940910471340
B   7.56466574323101   10.31800756946245   12.44896015491502
B   12.30583807570368   13.55721836185461   10.52156867526273
B   13.21066078716734   12.41980357255218   9.63048891472775
B   10.15660779557979   8.83835636709167   11.78333814002082
B   15.25473673896158   9.54933708390344   11.70805004409362
B   12.81619340193216   10.78517710348375   9.32660314930655
B   11.86888698764577   8.84988220898486   11.76294745452856
B   12.33611932651192   13.70783675088633   12.23411248739880
B   7.56561834248808   12.00808524805243   12.60982143150851
N   15.76908969567621   14.86441769580665   11.06127717287495
H   14.47988112686456   13.07461660482257   13.94063967247808
H   16.76397069715132   14.71057026818532   11.16777817639352
H   15.60023709319148   15.84565772879012   10.83231635884244
35
F:    ...  E:  -0.469010340000011
W   9.63959290464754   11.20937232776017   11.53509578235774
W   10.22112607737878   13.85890865365718   11.31850948235799
W   8.83243841317174   11.15872746106439   14.16692158657752
W   11.00694490083662   9.81139851994951   13.65352614909499
W   11.00285469384819   12.49020993792521   13.59130278968643
W   13.06498515463702   10.98993844534341   14.63438481150669
W   12.47458130967953   11.26454079274182   11.68570010136637
W   14.88137953026584   11.13333295702323   10.18588890924474
W   10.96887822458989   12.17476336201064   9.42601883122050
W   14.39550669152711   13.46312246403104   11.30314837248658
W   13.61214845259969   9.15936806259782   13.11160588218959
W   11.01384453148247   9.54930922210975   9.80145069914989
W   8.24795152929953   9.09608960298086   10.62588707267085
W   8.79441644533764   10.66373193357841   8.85935185633663
W   13.61786186664794   8.96156585981525   10.37652213194333
W   14.96302108840829   11.41231421419586   12.83432156065075
W   7.04500669241240   11.41290308692304   10.51040557526475
B   8.76679606428225   12.76204341609252   9.88819922174128
B   8.13166253773937   13.15699681805382   11.42287945958184
B   8.92362025567585   13.05290674828383   12.96570032200156
B   13.31671703072956   12.86313758667692   13.30230001084043
B   8.92499082671043   9.34103091185911   12.83065899314187
B   7.57818868206507   10.32161963953036   12.43166358968559
B   12.31831384249322   13.56771674344644   10.52881335878440
B   13.21586273391822   12.43238211099937   9.64414088927070
B   10.17474459346239   8.85720137331614   11.77866378224345
B   15.23523132553949   9.55789642049418   11.67674687689180
B   12.81880911698167   10.80341788050891   9.32417278322669
B   11.88596855743918   8.85895815972913   11.75769838489648
B   12.33006922771910   13.72327354538858   12.24045128082646
B   7.56838684403650   12.01141948804300   12.58113131741523
N   15.77428489754913   14.86664595015113   11.08365111606901
H   14.22570998205716   12.80882806652736   14.27459344397608
H   16.77996117522913   14.70897491710743   11.14421441455991
H   15.59790383173813   15.84571335222060   10.85403919287847
