38
F:    ...  E:  0
W   12.42645476245714   11.63051132528586   13.67518777518901
W   10.84270494222280   9.77032373051329   12.34056131485745
W   13.11334048282233   11.05206806333156   11.08526496311431
W   15.82638628337713   10.71314868924491   11.47405170785739
W   14.91865384966771   12.66207049616837   12.74369844084526
W   12.49768318176756   13.79327239484506   12.20181180089674
W   10.44167490306821   12.20059109951293   11.42080959542464
W   14.78253620199772   13.11374535059175   10.26620177685744
W   7.81452414362173   12.20105891287600   10.98850445762277
W   10.68632552365077   9.82788913451627   9.79128160384851
W   8.41750272846038   10.56523067931174   12.98523814964782
W   10.89482024278142   15.21265895865379   10.55062708595774
W   8.56843852549141   13.11091119523239   13.24374294479884
W   12.23867687134297   13.39910007481270   9.47631783976091
W   9.49949625274919   13.73317858961942   9.26664348490200
W   12.72980378961244   8.31791242927502   11.02905795586873
W   13.32163455700631   9.42345081325402   8.99606860215616
B   14.32117578178527   10.54605908658256   13.13922193110272
B   12.97830209714177   9.53753923568508   12.99296006826145
B   14.39301898638950   9.20123658730432   12.10619443261096
B   10.17035687173485   11.61682400096748   13.76456298274153
B   10.80286350786177   13.19290556260986   13.60050214114334
B   10.30400864924832   14.40354386127301   12.53365490305519
B   8.98443485933198   14.21603606243650   11.34480133411906
B   12.13565862001900   11.20604544168798   8.73567910802493
B   13.47832685305196   14.93215795116419   10.50237010451412
B   9.09358260432624   11.48167481003795   9.28019709397083
B   7.42123321287416   9.99519622563026   11.19980194607282
B   10.63090888196125   11.90179371846841   8.88746404665312
B   14.50887538420144   14.64935001334360   11.78251253210500
B   13.69312899522988   11.77338552708001   8.84309506416838
B   8.35137991560032   10.15611821070286   9.87516883119837
B   14.94046408543535   10.92749464291811   9.56007373694656
B   8.92996233508966   9.24655409667141   11.23694774889512
N   12.81746371087406   11.49871960460217   15.91344794109519
H   13.55901048082659   12.14703160326177   16.18274265622789
H   11.97952079198290   11.72399858742714   16.45553328052831
H   13.12080492457522   10.55435202473847   16.16313740859744
38
F:    ...  E:  0.0698387699999898
W   12.39997128938151   11.64225233298699   13.66463537666919
W   10.81643294220543   9.77415841498871   12.34035534636558
W   13.08326876571732   11.06334662613936   11.09261769754602
W   15.81070341752824   10.71812233523668   11.49303885544515
W   14.90941614146290   12.66989741577306   12.76270563039027
W   12.47034286969526   13.80734752048158   12.22050187416761
W   10.41124456499460   12.21205688307030   11.42895673543678
W   14.76589105947454   13.13052428852557   10.30303520935093
W   7.78863141212840   12.21631111161354   10.99058251640565
W   10.66266714213133   9.84961223870068   9.79069228751655
W   8.39336078574912   10.56633197366919   12.98256506039410
W   10.87011645177971   15.23383669778849   10.57721029848448
W   8.53921597216145   13.10954118691352   13.25353371966371
W   12.22114520343504   13.42900524488042   9.49947040181351
W   9.47811219227406   13.76347543010846   9.28210832696494
W   12.70542548084666   8.33051014279000   11.02029149593375
W   13.30002795679737   9.45204418784862   8.99632079051347
B   14.28821857418590   10.55908760848137   13.12016382299330
B   12.95166846010521   9.53691421941214   12.99534594310450
B   14.36958095488393   9.19833765124571   12.11376024855553
B   10.14422508866321   11.61837545301204   13.77597808632396
B   10.77161524645786   13.19583841036805   13.61254289167563
B   10.27590312413763   14.41362090471336   12.55303458092393
B   8.96012680184844   14.22861658622916   11.36195471177675
B   12.11595173963197   11.23864534801359   8.75228984776427
B   13.47274388476993   14.94970359546687   10.53496378441444
B   9.07382030050501   11.50841462784983   9.28540136749601
B   7.39670178606200   10.00799571420827   11.19468697409505
B   10.61111016361818   11.93573630052000   8.90000096806867
B   14.48891481073527   14.66709306455964   11.82704254600220
B   13.67699980807551   11.80070642397430   8.87076083449767
B   8.33031242358070   10.18001656785261   9.87304241822393
B   14.92664569434341   10.94790468143988   9.58039950309308
B   8.90525124453871   9.25662408055777   11.22847381902118
N   12.98936107034042   11.42699273179934   15.83675047944397
H   13.75105023986185   12.04747111729711   16.14192892824848
H   12.20203355040593   11.49184519862223   16.49110528611445
H   13.30693017712459   10.45682447450053   15.88689012673804
38
F:    ...  E:  0.343500339999991
W   12.37475059331701   11.64994383399344   13.66474287832521
W   10.78951468580762   9.78471132979327   12.33705227325363
W   13.05733721853309   11.06991896211743   11.10483836164892
W   15.78405237582209   10.74324628816155   11.51738452936182
W   14.87156878261126   12.67364597245983   12.79468520518123
W   12.44256123537916   13.81511387560597   12.23355645766123
W   10.39159334817412   12.21812210271404   11.42830845594398
W   14.77368948484591   13.13532005407284   10.32611333476278
W   7.76344356488982   12.21592337373223   10.97807904800999
W   10.62324404534044   9.87416348334433   9.78136737567813
W   8.34100661716373   10.55797500449329   13.00578058997427
W   10.86012804716740   15.24621267327441   10.62281395357680
W   8.50801106320333   13.08308533298812   13.25655398724958
W   12.22046264852533   13.46730277304256   9.51783615984032
W   9.44800455512847   13.80094284186051   9.29870851244447
W   12.68011518259780   8.35015473155375   11.02161609436865
W   13.29268180394651   9.48905990541739   9.00779716014670
B   14.25401035584188   10.55105389012423   13.11967347097648
B   12.91660577653026   9.52985940443859   13.00936568945596
B   14.34126839173966   9.18800830809005   12.13421790800329
B   10.11940175160396   11.59688165596835   13.76335633100560
B   10.74246844010290   13.17845971636079   13.61691027404842
B   10.24482337575654   14.42161135746750   12.58546469430040
B   8.94661402846203   14.21217279768266   11.38122546068780
B   12.09699539389832   11.27005785973757   8.78894993562307
B   13.47865681772138   14.95885727407243   10.56540476102770
B   9.05088177684274   11.53607749394831   9.28621380874222
B   7.36887426274508   10.02530762577588   11.19160142415420
B   10.59707069047255   11.97940806152930   8.94797822700870
B   14.46904249436618   14.66541994377918   11.86864210287891
B   13.66207780371709   11.82951827124731   8.90453453721712
B   8.29853928062665   10.19727878490255   9.85336989022742
B   14.92783870092125   10.97682913021555   9.59122086415953
B   8.88151219325924   9.30479025356607   11.21930098949184
N   13.18933382441609   11.39459486582798   15.76344420505382
H   13.95908020210114   11.91168455718200   16.14920830607454
H   12.41418875184593   11.28118985678909   16.45211689559648
H   13.45368922621332   10.45123514430997   15.54570463847584
38
F:    ...  E:  1.50072289000002
W   12.37581015953937   11.60944190501618   13.76998870009641
W   10.78569955969334   9.76085721932597   12.35439205891920
W   13.10422351277080   11.05975858359058   11.15225599715123
W   15.75876449083505   10.72428476916372   11.55697984267771
W   14.85579781084475   12.65481328668688   12.81225330738918
W   12.46274293831424   13.75210879750097   12.22069036429544
W   10.41531981057255   12.20221818560159   11.43515207801304
W   14.77198087916268   13.12647235482554   10.30005142826699
W   7.79020845593136   12.20731473086276   10.99101649620015
W   10.65996366537290   9.87369922650145   9.79472365767759
W   8.35121437942149   10.55009625483092   12.99946677773010
W   10.86889581346474   15.25354054833136   10.61303387502632
W   8.54429340664150   13.09334409425741   13.25450952910922
W   12.23115062449646   13.44563538571731   9.52349794871245
W   9.47477552808559   13.77959299053301   9.29839345986028
W   12.72395832812516   8.34802248606808   11.01721609925390
W   13.28626006166222   9.48593412219737   8.98622733197722
B   14.25964639377450   10.49419940757415   13.25718276680177
B   12.88051136247776   9.52142638741554   12.99840696420247
B   14.33057325158429   9.19173854060314   12.18626810363736
B   10.14186662679849   11.57979947298218   13.74899261451569
B   10.77750883724424   13.16334541247376   13.61283341540553
B   10.27612097112747   14.40038952005964   12.56159242356246
B   8.96210830992240   14.21413551610221   11.37353839258127
B   12.11361989210556   11.27171971172518   8.76053731732916
B   13.46042002347104   14.95108424183649   10.57043714841429
B   9.06921629705445   11.51486337876355   9.27932832905897
B   7.38746470330983   10.01501666270095   11.18196022406301
B   10.61201853460378   11.95394751113656   8.92244566825022
B   14.47220822602367   14.63719036343795   11.85094447179568
B   13.67510761489399   11.80862928971381   8.89112714079802
B   8.32377464524049   10.17578873779031   9.84946963901023
B   14.91122823522396   10.94653624419677   9.61693146974072
B   8.89577265750126   9.29052106569142   11.21693805810797
N   13.02616528682063   11.45798977962249   15.82322521415904
H   13.80221989249907   11.89433755744552   16.26261858811514
H   12.20038863498590   11.64850499180711   16.44210540211500
H   13.59613897004072   10.57684005754925   15.14840648761677
38
F:    ...  E:  2.00624937999999
W   12.40993590840033   11.58425160162402   13.87475894560062
W   10.79143900045068   9.75755917281026   12.34749116337669
W   13.08381637899262   11.05764100695398   11.12678986076572
W   15.76059230228049   10.71589422319375   11.55219145559871
W   14.84953031363219   12.65198991662039   12.80821612202511
W   12.45976883583754   13.77037408836888   12.20972598477592
W   10.41837921722409   12.19984478601211   11.43066704992304
W   14.77457446036584   13.13133592982006   10.30953062179009
W   7.79085233533822   12.20901907710519   10.98911221092541
W   10.65593771681156   9.86857500405121   9.79023462527331
W   8.34961425366871   10.54890358983883   13.00405766430103
W   10.86860104282816   15.26245694878116   10.61729782001153
W   8.55076617588021   13.08506763480714   13.25643179177975
W   12.23064609531463   13.43818334179319   9.53609118605995
W   9.47669624332570   13.77717485502384   9.30505076926499
W   12.72267164089059   8.34379761016731   11.01106142942089
W   13.29151678067227   9.48012690884920   8.97504468271386
B   14.26620668651307   10.50470575402083   13.24507878512914
B   12.87881223319551   9.52101904293639   12.98678867015486
B   14.32904704130305   9.18658787234870   12.17910309775399
B   10.15423554623533   11.57362113401325   13.74126680696543
B   10.78719911344136   13.14812797312824   13.59798506972023
B   10.27815884623142   14.39503109907254   12.56518319662159
B   8.96364808786308   14.21371215042527   11.38025303394049
B   12.11313191236993   11.27088342786298   8.76290761804877
B   13.46757159035182   14.95502294322235   10.55379115838340
B   9.06711826886592   11.51294765730867   9.27749142109702
B   7.38402917134489   10.02125377871107   11.18404170570316
B   10.61181392191360   11.95551999111648   8.92714584734190
B   14.46773350841358   14.65623947916272   11.85273307053209
B   13.67106994640347   11.81200411914162   8.90103119257035
B   8.31880680262618   10.17509229165433   9.84856458369575
B   14.91019281469681   10.94712674188670   9.61367383224499
B   8.89240392397581   9.29377646437032   11.21992060417608
N   12.84970602452493   11.76220846150296   15.81947590639648
H   13.75639701763663   11.83483962319456   16.26985097986896
H   12.10480421963134   11.76258693557178   16.53414598979887
H   13.87771341218665   10.25063615516697   15.03095283788720
38
F:    ...  E:  1.02726688000001
W   12.37360514881522   11.60355727240639   13.92770961017231
W   10.78908041156702   9.77405431544647   12.34352653193561
W   13.07401448727715   11.13316298470782   11.11107419554409
W   15.74471943584667   10.74372013372800   11.60254179852335
W   14.80169793852716   12.59252579971192   12.82208858495650
W   12.46649439163177   13.77051942426327   12.18347737698307
W   10.41625759130732   12.20016091438386   11.40822195314005
W   14.79628969687885   13.11383936639684   10.27418681602318
W   7.79664801725751   12.20386585680047   10.99214718207242
W   10.67441560795774   9.85224471901446   9.79780936889756
W   8.35852641012385   10.55692803828553   13.00086191764902
W   10.89198134287803   15.23848869467205   10.57981380947078
W   8.55889374169799   13.09152037671690   13.25283761453857
W   12.24519497928624   13.42467578912555   9.49578225159892
W   9.49183865192653   13.75715041143525   9.28377390510238
W   12.76345360696958   8.35084841715523   11.03318116859901
W   13.31743686916171   9.45373320981027   8.98327221841583
B   14.28187412125682   10.39272556161239   13.53815902739018
B   12.84411819645570   9.55987877906471   12.95521959001006
B   14.32170453020379   9.24549476128509   12.24064769870980
B   10.15205644051726   11.57870305143642   13.72753855768160
B   10.79305105099642   13.15104119838305   13.57521671263880
B   10.29176343141387   14.38319128681733   12.53659091822578
B   8.97282343856029   14.21216437639304   11.36545220245176
B   12.13271227081511   11.24849740013988   8.77456026550641
B   13.48697456948170   14.92940332763979   10.54130778719944
B   9.07820971084504   11.49622099091086   9.28184163142503
B   7.39811866977368   10.00923936662175   11.18688295613304
B   10.62686982924198   11.93082568668211   8.91735258183500
B   14.48949734076736   14.60865438219386   11.83997717123956
B   13.68903082767467   11.79172051587377   8.87797914661524
B   8.33842601649089   10.15696950454219   9.85865600734863
B   14.91187115371806   10.92583064679738   9.62679780190772
B   8.90310867372148   9.28209542655842   11.23751618084833
N   12.72675855886457   11.87439551058955   15.84139660703310
H   13.64627423036501   11.98711673233597   16.28780889431451
H   11.97720609832696   11.78616267104611   16.56525794501088
H   14.01214130303945   10.22381189065463   14.76667280448901
38
F:    ...  E:  0.453062420000037
W   12.33693772747196   11.63257560374906   13.87784476183836
W   10.76227682553351   9.78693018884132   12.34040311521590
W   13.02376329169217   11.18417075901630   11.08620157425044
W   15.72982996782758   10.77429388148400   11.63439653998380
W   14.72773531991935   12.56417102860671   12.86749965564095
W   12.44192186406914   13.81762007877630   12.17163583835997
W   10.38825524498861   12.20852386525542   11.40388743796291
W   14.79229902323440   13.09594821353294   10.28443531405647
W   7.77185363063530   12.21146154521768   10.99507866831862
W   10.68498079043249   9.85458704976845   9.80949583391109
W   8.35109320316232   10.56679408760765   12.98612407572432
W   10.88054124277148   15.24162628940034   10.56250464702109
W   8.52968749653598   13.11192493448436   13.25613663543537
W   12.23508982130378   13.44958785388967   9.45949502423152
W   9.48750010795140   13.73919448858845   9.27898460211053
W   12.79440492793534   8.39566839280804   11.06512147137869
W   13.34584024884530   9.44750662934888   9.00515087487296
B   14.29864940914143   10.35186361666564   13.59880328404518
B   12.80914141089484   9.65658279563116   12.98212656393219
B   14.28451639932519   9.29633017230519   12.25392528628777
B   10.12342070653768   11.59311246125630   13.73053794298453
B   10.76636177644526   13.17185847532464   13.57373612249505
B   10.26877094367606   14.37686889066152   12.52317506642193
B   8.95890898196020   14.22196584638503   11.35989223966689
B   12.14308567935230   11.24071456324700   8.78031897344547
B   13.51101073736982   14.91134299218977   10.54656154133414
B   9.07725289523507   11.50000540767660   9.28436564900542
B   7.38602010029694   10.00853532720548   11.17664456573592
B   10.62788272688688   11.92266588432551   8.90122148216174
B   14.49266322410515   14.55882488313933   11.86350568046742
B   13.69408705507589   11.80938328737568   8.86402063200503
B   8.34075312380293   10.16699688135947   9.86883420451621
B   14.89484252336572   10.92955812440012   9.65880655843544
B   8.88379468388363   9.25916266752277   11.23093099677648
N   12.72757530884158   11.83794128991031   15.78903092941996
H   13.64580803102563   11.73344026476274   16.23865626028646
H   11.98971638363989   11.92125722142613   16.52254292536340
H   14.42686595646565   10.08414284849344   14.80310581653844
38
F:    ...  E:  0.129875980000008
W   12.33168419547102   11.62862374551282   13.85583598699545
W   10.74541431574693   9.79533924904172   12.34454780509011
W   13.01029586844641   11.19985806523306   11.09320323112236
W   15.71340203974825   10.78123758008391   11.62996008066696
W   14.71797106934548   12.56496162060751   12.87801577017013
W   12.42361267808111   13.82994509218682   12.19149401288683
W   10.36404741835185   12.22048818624837   11.41276417635667
W   14.77705667818370   13.12014489792085   10.29931096765540
W   7.75035710219212   12.22299847198830   11.00197773608146
W   10.67940709620497   9.87565026736261   9.81256219977804
W   8.33871272051291   10.57355798194942   12.97528236694649
W   10.85419785044530   15.25404033302545   10.58203904545101
W   8.50832593716342   13.11680701194685   13.27088945948899
W   12.21914740961569   13.47007579737814   9.47304304392505
W   9.47291147154714   13.75171773330613   9.29441383975443
W   12.74900849581002   8.38861643990719   11.05056905638031
W   13.33076651495432   9.47028849861274   9.01054105208247
B   14.31951367839085   10.33774176817703   13.62796773134948
B   12.82181621963957   9.65705619672496   12.99704028266816
B   14.25647391675048   9.31321733023202   12.20929968793184
B   10.10758476910020   11.59423890209393   13.74222872010873
B   10.75316326249919   13.17446649947452   13.59465697406045
B   10.24617145862225   14.37564684739634   12.53979334011645
B   8.93420902238466   14.23580303199677   11.37533296974483
B   12.13376544405350   11.26527254714408   8.77795481851384
B   13.49991814592957   14.92219618358606   10.56808014123720
B   9.06568764443605   11.51723365536186   9.28430462102200
B   7.36945605199789   10.01535459951339   11.16629679748291
B   10.61474666909511   11.94149620711964   8.89372779468837
B   14.47625604067763   14.56767467561824   11.88868285515975
B   13.68387495246672   11.83897864071283   8.86703941591426
B   8.33184600399957   10.18314312382907   9.86822782835841
B   14.87714026877622   10.95232567660315   9.66297162769910
B   8.86725069153992   9.25846457126172   11.22038514161201
N   12.81347662808463   11.74491712551680   15.76107767894534
H   13.69400956343576   11.43800448836768   16.19383209046071
H   12.12653356832732   12.01006608023231   16.49079286935584
H   14.65592592960934   10.02748966836570   14.72899557437577
38
F:    ...  E:  -0.0280038899999795
W   12.34955748814649   11.61916780082500   13.83821420836587
W   10.73794611818345   9.78471312436382   12.32653391158820
W   13.00747464172263   11.15440421611169   11.09646326272838
W   15.70621594547361   10.76631584805805   11.63128099621197
W   14.72350466323379   12.56874014856556   12.86875397698611
W   12.40940977418708   13.85034654569299   12.21176643589582
W   10.37192154454134   12.21628527429328   11.42892605180478
W   14.74417741017333   13.14753840712994   10.33643199500348
W   7.74229837095389   12.22508251461700   11.00661578472834
W   10.62775060596578   9.89085444223119   9.79623723921494
W   8.32093710137880   10.56718879516228   12.98649047319905
W   10.81881970346962   15.28061901281009   10.60765048293261
W   8.50818599534305   13.10586074003755   13.27091535561078
W   12.19367127143906   13.48572214343765   9.51933649533743
W   9.44766142453859   13.79280977720109   9.30463050462907
W   12.74498417509452   8.40730661403899   11.00556412431298
W   13.32953525603260   9.50119089498737   8.96250490918963
B   14.35922583685662   10.31757405843824   13.60260282339703
B   12.84068384421288   9.64688447461921   13.00197695194102
B   14.25846654176570   9.30172157565726   12.19003254409703
B   10.10980943760488   11.58438304930758   13.73725143931185
B   10.75020265669822   13.16747903263813   13.59759798345795
B   10.22869884254141   14.40725179431259   12.57429127978599
B   8.92955630830709   14.23575734835641   11.38890266411269
B   12.10593312782166   11.27629014316544   8.80759566323071
B   13.48297510326796   14.94865114554261   10.58678020284925
B   9.04008097578233   11.54479285792899   9.29111809698685
B   7.33790497847492   10.02812500728545   11.17076179510442
B   10.59320640115360   11.97146577489301   8.93250768607978
B   14.44821595525007   14.60828845736969   11.91834600129464
B   13.65643864028903   11.86025622506975   8.89066323061784
B   8.28963268346759   10.20905374553262   9.86066319623202
B   14.85822109818668   10.97618290457892   9.66527587378117
B   8.83601812719405   9.28003188767694   11.20743817893111
N   12.88014102635648   11.66003141212819   15.74035432563095
H   13.70121072588704   11.20204690577111   16.15099983948610
H   12.29059362738154   12.07349687758057   16.47522397664062
H   14.85387136325883   9.97122781422576   14.64643883092793
38
F:    ...  E:  -0.121780039999976
W   12.36194711377533   11.59886336348761   13.86479854855158
W   10.74275090427124   9.80706319325591   12.34642781885572
W   12.98789418243936   11.20473358748135   11.10205304009852
W   15.70787948387869   10.78506765849218   11.59331400988104
W   14.71493446750567   12.55793526754566   12.87665439316460
W   12.39723695502888   13.83611676162578   12.24490845021180
W   10.33258517827163   12.23870015971898   11.43651132969705
W   14.73481413222589   13.16887782563742   10.33288407324800
W   7.72123139468019   12.24341152708409   11.01744121906899
W   10.64759466005300   9.91818879268686   9.80699961865496
W   8.31910705432251   10.58128339904852   12.97175639243853
W   10.81004820842448   15.28050557011484   10.64300956334274
W   8.48171698504980   13.11212251765727   13.30475433194663
W   12.18354007971817   13.50410808059366   9.52178319402486
W   9.43810145455839   13.79620832510851   9.33099670875823
W   12.66168724947873   8.39339799547875   11.00576967275657
W   13.28665965905095   9.51802317840291   8.99702744961087
B   14.39114373876873   10.28839505321426   13.52633090201953
B   12.85112008722181   9.62918617776825   13.01284292998561
B   14.21839753867977   9.32598469465627   12.09135437681388
B   10.09710673808861   11.58288458857825   13.76085229511392
B   10.73888593703855   13.15842209236757   13.63284298643388
B   10.21249480171675   14.38127942078126   12.59018911022510
B   8.89606641273148   14.25685923533147   11.41955232339543
B   12.09877691579529   11.31948319262223   8.78425426270594
B   13.45567535117527   14.96031947548830   10.62683068650139
B   9.03574777460797   11.55833116217427   9.29055559332900
B   7.34146824352406   10.03351344828530   11.16007934131585
B   10.57875033001631   11.99194992218396   8.89853683066691
B   14.43629570608415   14.59929524577557   11.94404220872105
B   13.65148507120849   11.89160145466751   8.87910624559055
B   8.30460299965346   10.21600579554401   9.86603361202811
B   14.84220502622058   10.99792390123765   9.64981108871664
B   8.84357375138047   9.27993331835921   11.21337516660470
N   12.92647102748542   11.58697949511799   15.76189136978746
H   13.68725086202652   11.02572308823004   16.14802269378193
H   12.44663382914611   12.10865582972304   16.49665204298448
H   15.05125748633568   9.89780499611217   14.48489291060630
