38
F:    ...  E:  0
W   13.30268238933895   11.50059132050491   14.22991686139103
W   11.69029006426099   9.61765481569224   12.99145314387989
W   13.91544607809009   10.96101306520095   11.68101991695951
W   16.63034975432406   10.65339493703800   11.95053948715523
W   15.74410956615970   12.57217724548151   13.29808500057726
W   13.28757252567009   13.66954264541259   12.82761481027593
W   11.21482403652909   12.06842202489796   12.09987289089153
W   15.52563695986802   13.03953291457714   10.80725503808691
W   8.51649824565296   12.04611433555973   11.75645722879559
W   11.44970481381630   9.71723798975102   10.44769481953663
W   9.27731953348539   10.38214213772648   13.70957589435991
W   11.62251123927838   15.08635440634505   11.25673673147502
W   9.39590908274776   12.91445063456426   13.98436086551600
W   12.95229917322521   13.29439120092914   10.12438423267627
W   10.19048745062864   13.61283758851492   10.00157397671517
W   13.55705355546778   8.22690364298374   11.59487363365472
W   14.04518409788513   9.35934976521002   9.54386098507594
B   15.19668684548864   10.43965878566271   13.68205181899433
B   13.86504904785462   9.41121382757136   13.55228683720545
B   15.26074286084508   9.10836977468846   12.62501581462194
B   11.06100583285145   11.44445306951469   14.43613238564112
B   11.65148424064611   13.03278809144854   14.28546257843950
B   11.09541697735109   14.23922795636699   13.23734906553777
B   9.73825726688809   14.04486936851580   12.09461616654846
B   12.83700591323223   11.12997924318251   9.35551480245952
B   14.20545462243995   14.84404051974667   11.12184590787565
B   9.81077629076068   11.36961528543594   10.04125137674563
B   8.23284896751672   9.80086766351870   11.96985163224265
B   11.32873300390042   11.80190375082554   9.57557955802952
B   15.28788454415490   14.55131620261608   12.35372916754418
B   14.39755745831091   11.70664507583673   9.40984997897844
B   9.12371467917358   10.00412465693838   10.62320539556957
B   15.68059416085930   10.86403133149809   10.06634899496648
B   9.76303861716786   9.08109115463852   11.93909496324267
N   6.44741451950339   12.47211545256840   10.84421866511031
H   6.43553139499302   12.30353005142295   9.83484489895473
H   5.77030724652003   11.83399995094203   11.27161453176329
H   6.12775573475227   13.42918690830943   11.00999873414496
38
F:    ...  E:  0.0506216699999982
W   13.31129907107888   11.53172513284818   14.22306034549827
W   11.69451552944455   9.66144624710668   12.97303456739104
W   13.91942724262147   10.98636444324988   11.66405700641339
W   16.62854322762033   10.66336092874153   11.93504710748787
W   15.75638447053984   12.58766439951483   13.27832201742150
W   13.30643634019905   13.69112500760904   12.81323023422863
W   11.23729983226798   12.10408783061526   12.08090584197189
W   15.53188414741720   13.06177706292026   10.78861240105467
W   8.53660203254136   12.09654782424746   11.73901001363295
W   11.45339413417004   9.75149611960285   10.42236247184378
W   9.27900852638457   10.43582717479402   13.67404909753031
W   11.63933973014128   15.11704830369242   11.23206256651888
W   9.41329333653627   12.96711533055881   13.96345381849793
W   12.96200241522718   13.32201703630492   10.10280727559132
W   10.19523489142269   13.64683023361390   9.98115916460897
W   13.54408275319580   8.25222788850875   11.58244508974639
W   14.04296572867655   9.38267048904658   9.53150148599649
B   15.19718297045925   10.46001459560936   13.66730346010733
B   13.86022880518323   9.43966766064192   13.54290734406350
B   15.24888775141076   9.12793054141139   12.61059029312442
B   11.06845152301746   11.48735823768616   14.41939073699404
B   11.66530742939940   13.07219192268938   14.27245696788267
B   11.12105567565384   14.27988276408713   13.21958399148331
B   9.76184052652660   14.08544796664256   12.07724777740261
B   12.83939751320645   11.15893457467687   9.32964745827627
B   14.21436934474387   14.86777135245782   11.10770566040360
B   9.81460431042972   11.40425495783814   10.01867969768263
B   8.23929965144996   9.82928156574626   11.94242080708544
B   11.33274227952242   11.83473725987825   9.55274421707080
B   15.30255356942799   14.57094075020913   12.33498078750652
B   14.40189772022634   11.72910858429111   9.39119633284236
B   9.12477570039290   10.03635704687558   10.59516332482257
B   15.68006489172925   10.88408122302801   10.05151367514927
B   9.77081105352233   9.12667120178034   11.91671981959307
N   6.39501153427645   12.25805173624242   10.98387370111392
H   6.30266824539123   12.09266961146280   9.96830552764596
H   5.93285794528035   11.47445964273413   11.45912774353644
H   5.90941694090318   13.15599414267403   11.18845896241841
38
F:    ...  E:  0.209505730000046
W   13.29041094342437   11.54205222788501   14.21589358453804
W   11.67524980488146   9.68405580149294   12.95600601304335
W   13.91648055987896   10.99511129134311   11.65167867173065
W   16.61699471880405   10.67905266467674   11.93683806753498
W   15.74585042174920   12.59705590323244   13.27726510203765
W   13.30920736611919   13.69278015247332   12.79095448292095
W   11.24897872490643   12.12323866069168   12.05181523478993
W   15.53317935214817   13.07209347972537   10.78007459847193
W   8.56628827108466   12.16438256418512   11.70442407075837
W   11.44373511003002   9.77435428496629   10.40424938064528
W   9.25113893275498   10.47802033266082   13.64195262678533
W   11.65962630937889   15.15239954329766   11.20200906992133
W   9.41938155909862   13.01575834185723   13.92634515295876
W   12.96660667170413   13.34962298912789   10.07132388226892
W   10.21204950645423   13.68557494543256   9.94803885368104
W   13.53686648836895   8.26842172541536   11.56548552306742
W   14.04353941166357   9.39787910137834   9.51789829587767
B   15.17730655824235   10.47057849809727   13.66596240502709
B   13.83937914506579   9.45083928323693   13.53141565719530
B   15.23415610649602   9.14033225473144   12.60683865218458
B   11.04529074250714   11.51224179354035   14.39178663494632
B   11.66039651496589   13.09435665917975   14.24935812385939
B   11.13984035297609   14.30715323941670   13.19030004010196
B   9.78713418087138   14.13340632346510   12.04233915523284
B   12.83989543891770   11.17591266965536   9.33005801151030
B   14.22096335326946   14.87965978197718   11.09283821242156
B   9.82184777422873   11.43987691963596   9.99180935210219
B   8.22735345492491   9.86223600953701   11.91099320383997
B   11.33855319352324   11.86432693014596   9.52918354976234
B   15.30181450686971   14.58091457906147   12.32466939803187
B   14.40338613420814   11.74732800766806   9.38292286212389
B   9.11769006552093   10.07677457974135   10.56940720621662
B   15.67690130875734   10.89703690474202   10.04374609512937
B   9.75487421102042   9.16719771463981   11.89616093567727
N   6.37457831049330   12.12981190227537   11.09302700752114
H   6.16653474061113   11.91583135546512   10.12843194208684
H   6.30106475297443   11.22956921891305   11.61636103117249
H   5.77059379274286   12.88790015667167   11.40527670446557
38
F:    ...  E:  1.18728332000001
W   13.21425517395460   11.48400656779835   14.17657571572934
W   11.59616794051960   9.60251991265034   12.94991185102615
W   13.88934243370158   10.93894873982048   11.67826712284748
W   16.57512466884169   10.68936926042118   11.96670377509774
W   15.68367807467128   12.55955184011046   13.31030838054543
W   13.26259957302096   13.67950615738589   12.75893887628303
W   11.22062782367503   12.07706424939495   12.05007616921861
W   15.52846930410454   13.03146963981858   10.79145764872648
W   8.55238012190839   12.25081273277722   11.68196601302747
W   11.39363477488706   9.73828417004346   10.44452474445122
W   9.19106240602224   10.44943993780391   13.70101543518106
W   11.64794485311045   15.17048647936748   11.22581912695798
W   9.38863838883325   12.99416551329239   13.91491253131722
W   12.94692296860408   13.35404192698148   10.06740785996321
W   10.23545054030142   13.71576328726029   9.93890186680849
W   13.56729591785389   8.24211966529212   11.53017782733490
W   14.05204622844069   9.37691335355351   9.48930036826674
B   15.11902637067120   10.41749189970692   13.71249272772870
B   13.78214722158681   9.38422491438821   13.52479159413187
B   15.21599762464494   9.11082689984904   12.64263460289745
B   11.00288989207148   11.45839626037956   14.35757316053923
B   11.61695628005058   13.05197152078043   14.22506945702527
B   11.09924768807660   14.28660044633331   13.19474372507225
B   9.77921584524897   14.16628006923149   12.02958108855774
B   12.81899075539608   11.14133666371043   9.42989173951112
B   14.24246119374723   14.85886994287211   11.09008715508342
B   9.83474443418327   11.47875797618211   10.01263306219303
B   8.13426040022143   9.99700307770765   11.95018193258412
B   11.34061758922572   11.87315392796948   9.54125831425982
B   15.27973319486649   14.54482879832750   12.34651339584265
B   14.37520632234426   11.73097633460137   9.42096170487593
B   9.11936651782450   10.16384502928952   10.65682958598902
B   15.66637865684202   10.87953666600738   10.05260177195979
B   9.60587703186485   9.12826374905272   11.92402351238014
N   6.59476759082486   12.33134303619033   10.93827449574797
H   6.27461808356443   12.05048732889542   10.00424743845067
H   6.85845091094550   11.23776190233341   11.53708043787654
H   5.92854399498677   12.98871891405746   11.36740257614950
38
F:    ...  E:  0.371744200000023
W   13.21655070524348   11.49876396406461   14.17779588865760
W   11.62063631883010   9.62392997278575   12.94724575973093
W   13.87357161326748   10.94875393777367   11.66906220835434
W   16.57872050100795   10.69960177613936   11.96309815621624
W   15.67950588613106   12.57033034257504   13.30045305026035
W   13.24555199954958   13.70681872575940   12.74565742240194
W   11.21062560989496   12.08940583115278   12.05278731518791
W   15.53103922675029   13.03291686269827   10.79129912317045
W   8.41033212863334   12.23522226972417   11.55468866714657
W   11.40060367302304   9.74240977987148   10.42962755488489
W   9.23835304552389   10.42711928824529   13.78230938378907
W   11.61894156536281   15.17647968373434   11.21530264534951
W   9.36603718197408   12.93201129662687   13.86421335785103
W   12.93441121002944   13.36380768337051   10.07219651518598
W   10.21780235128418   13.70057773407935   9.92963962197687
W   13.56606594748019   8.24706873249965   11.52674610132206
W   14.04351695071696   9.38493187853394   9.48462883233844
B   15.11749302298748   10.43048533748431   13.70325236892074
B   13.78610480352319   9.39264422409920   13.52421317702596
B   15.21340262282216   9.12296961935723   12.63533123977041
B   11.02237241771765   11.47056339003968   14.38369323976741
B   11.60636658696817   13.06504812466206   14.20683061651997
B   11.06003463299244   14.27906886231604   13.16981919713807
B   9.74355553292668   14.12085828582008   12.00053110533453
B   12.81747460711007   11.15349213397328   9.42705681010506
B   14.25205167145883   14.85936508823335   11.08235648394896
B   9.81528101628729   11.48986335455587   9.97246901277237
B   8.18269420289739   10.01961031638569   11.97494091509109
B   11.33805231024474   11.87242370226605   9.54945191015258
B   15.27690624352665   14.54924316938596   12.34881132413343
B   14.37201778739859   11.74737471928039   9.41502580333281
B   9.16573999793141   10.17041042818284   10.65600629586761
B   15.65791495881468   10.87915224602014   10.05287370651904
B   9.65679610028210   9.13167695615961   11.94610006659085
N   6.57934207949832   12.56399406986177   10.81523388763674
H   6.21938519141396   12.14476232019914   9.95849074082843
H   7.18911109993294   10.77424201373397   11.98217841519055
H   5.81077599020073   13.01774066998767   11.32372087116782
38
F:    ...  E:  -0.161774949999995
W   13.22000382360167   11.48346249753358   14.20210840957157
W   11.59939381903114   9.63627951358534   12.96648441775612
W   13.86628092800691   10.94400585436855   11.67444980885381
W   16.57797272373345   10.65835956325631   11.97310080855232
W   15.68863561963255   12.54416087809813   13.31984407810075
W   13.26576377591891   13.67542528109830   12.75472226113753
W   11.18692225159281   12.08860347636890   12.06049541329531
W   15.52165613058852   13.02169232772592   10.82459301771696
W   8.40838971945600   12.25596333451857   11.59142652910218
W   11.41303900727174   9.76730874087507   10.43634674154173
W   9.20163607345562   10.42259260915340   13.72257351427623
W   11.65481992924110   15.18487870858598   11.22128850008553
W   9.36515366283560   12.96072542366113   13.86248282819357
W   12.95354539310942   13.35692836696294   10.08784356847057
W   10.22901333134403   13.71729453113242   9.95804514325654
W   13.51217604020266   8.22545469194536   11.53662068789729
W   14.03820109741551   9.36479857144788   9.50176119530943
B   15.10913594501966   10.40362746146664   13.68981333992320
B   13.76685787025602   9.37854019578773   13.52025372828886
B   15.17973831502635   9.10151056729847   12.61263010767894
B   10.98676541202857   11.47797381822907   14.37856889312872
B   11.61945319105999   13.06150156290185   14.21881037927104
B   11.11477958419645   14.28865850177163   13.17867524199406
B   9.76650899133860   14.14281584038918   12.02753675703508
B   12.82158526899105   11.14946596063079   9.41090147656509
B   14.24077976274324   14.86537850204579   11.10935934702936
B   9.81260804154619   11.48620528392650   10.01000558235449
B   8.13783624081487   9.92652434293512   11.92237774379045
B   11.33024413208023   11.87996313052432   9.55843320021267
B   15.28336227795900   14.54070418185928   12.36899507099089
B   14.38314991770652   11.72400807605666   9.41750205610455
B   9.16048655767242   10.17919976112125   10.64767921406974
B   15.65747802896576   10.86535229151668   10.06810714484632
B   9.66958937853535   9.11791283862477   11.94229640238978
N   6.65296953734704   12.72504235416035   10.77169071395225
H   6.28418758909939   12.30446792379645   9.91914550487510
H   6.97288982840036   10.30859132933445   12.02680558940406
H   5.98212959441464   13.39976049694395   11.14136437461723
38
F:    ...  E:  -0.347729859999959
W   13.22161138188790   11.49209708638828   14.17059837109886
W   11.57543947736821   9.64218306364580   12.96287983388298
W   13.88884229767815   10.95074192834420   11.66812956747534
W   16.57933646293124   10.64898904744166   11.96164736383464
W   15.70714347325827   12.55976367054298   13.29982806247227
W   13.29696869054186   13.69265253306376   12.76747586895962
W   11.18753430303466   12.11140313842754   12.04080962116177
W   15.53387549694486   13.04270216808893   10.81563033028064
W   8.43871143147372   12.33597273606245   11.62163415427156
W   11.42280357296330   9.78726595005403   10.46164121863130
W   9.16222064406134   10.53531861145375   13.56171701490807
W   11.67839817878515   15.19175799809610   11.21449123713666
W   9.41255857674085   13.05873544833004   13.93473566593161
W   12.96388879013383   13.36054384970297   10.08468490397458
W   10.24028946347956   13.73039687934535   9.97700222262594
W   13.50520301509708   8.23983719244422   11.54515340624911
W   14.03332403372517   9.37206675213225   9.50778545706966
B   15.12022369532925   10.41541303685881   13.68119340565972
B   13.76591842634699   9.39406823128027   13.51145987732119
B   15.18567690092216   9.10160223785291   12.60823531716918
B   10.97321440184041   11.49437485704058   14.34419118034282
B   11.64308495913659   13.07701189070242   14.22721617191060
B   11.15778919150680   14.32037722068524   13.20739254951777
B   9.81350248812233   14.16115221617795   12.06457520976331
B   12.83342186428437   11.16700759172956   9.38903583356370
B   14.25319980685568   14.87964339638846   11.10319014352140
B   9.84486692614498   11.50173559006077   10.06031146037142
B   8.04758386230568   9.83821302224398   11.81611983194087
B   11.35380598811524   11.89339416885567   9.53144209098129
B   15.30319235124560   14.56823157161712   12.35352504376431
B   14.39832922441539   11.72678122675703   9.40861986829222
B   9.11614714751139   10.19189480446244   10.67632735465197
B   15.67677685662064   10.87260463910155   10.05795192846710
B   9.62661607909417   9.09457748776743   11.93747087849063
N   6.62484940762530   12.67333478160401   10.87219631862432
H   6.16688444057430   12.09782918655218   10.16499159009168
H   6.83921762307597   9.93236722277155   11.93067494291166
H   6.04268786046035   13.48109635756406   11.09317349431786
38
F:    ...  E:  -0.487567069999955
W   13.22528190216992   11.51268874832537   14.14507622481706
W   11.58764345012339   9.65338565730556   12.94705750922766
W   13.90307457277162   10.96404737256053   11.65601507676143
W   16.58891798957989   10.67169048955527   11.94724909624747
W   15.71263581224201   12.58846147558829   13.27581111175903
W   13.30435188952121   13.73103513567988   12.76300544509599
W   11.21820733855719   12.15434661803504   12.03171258649220
W   15.55204873427676   13.05875536039566   10.78912127158894
W   8.43670198819520   12.33726240420466   11.62160402297799
W   11.42701843962610   9.80416376543696   10.46839873738867
W   9.14860903567139   10.60803901352827   13.44750006620068
W   11.67658205663910   15.20170017519884   11.19780400630561
W   9.44798192075900   13.10350600397499   13.96686050252373
W   12.97156882460909   13.37810051645014   10.07588138005666
W   10.22964756218715   13.72958882792987   9.98099924607904
W   13.53299922539926   8.26129079181703   11.54218239450611
W   14.03150198420654   9.39040402780858   9.49390178405729
B   15.13417675489447   10.44478764457688   13.67725286155500
B   13.78155314967827   9.41844424719398   13.50814003649604
B   15.20511030507603   9.12447430868889   12.61206643587216
B   10.97496900295010   11.51498935141811   14.31410921362372
B   11.65821444700052   13.10495024144010   14.22577025862587
B   11.17197777073944   14.36219411621493   13.21453313876494
B   9.82234549299572   14.15685281244087   12.07697554942444
B   12.84236576073503   11.18600511405712   9.37624224468899
B   14.27170833869774   14.88911167362048   11.08091211834016
B   9.86757142439972   11.50681517646253   10.09805986485590
B   7.98907766901834   9.77376625472236   11.76591207189023
B   11.36533683839478   11.90477435824450   9.50684446522366
B   15.32114908177039   14.59002417437658   12.32931453072727
B   14.40246766267880   11.74411832850047   9.39591301541085
B   9.09557386672873   10.19527192409914   10.70028360219247
B   15.68264667516072   10.88286436515292   10.04145165603078
B   9.62681514623943   9.07937064365083   11.92284592376262
N   6.56629449749154   12.58631501055573   10.99426445617520
H   6.02018657797085   11.89013192880342   10.48219494923099
H   6.79988771557829   9.67543561914736   11.87548017014140
H   6.04093788690457   13.45597511447589   11.08639176652093
38
F:    ...  E:  -0.600605279999968
W   13.23305009827598   11.54288645285263   14.12831152744251
W   11.60800747516587   9.67378699189730   12.93936138052003
W   13.91380154210404   10.98458956203703   11.64486297497854
W   16.59650443672066   10.70138732326853   11.93152438006112
W   15.72014669395133   12.61961114626300   13.25813816530914
W   13.30596915298457   13.76204593838182   12.74595286492199
W   11.22804065859897   12.18512279944263   12.02366499070548
W   15.55917784360671   13.07784987505485   10.76418025230312
W   8.41787755485008   12.31483183893382   11.61553536272598
W   11.43334625087852   9.81816943728658   10.46600157113369
W   9.15572061374917   10.62466123643033   13.38952659372629
W   11.66717785455084   15.21123866113772   11.17973087025736
W   9.45681237113677   13.12359803179904   13.96082058777186
W   12.97208440130520   13.39663629384428   10.06232155810766
W   10.21548623011797   13.71903971522571   9.97523365282334
W   13.55928634324108   8.28816324222651   11.53815687671393
W   14.03297693640176   9.41101357301035   9.47679004100308
B   15.14776907379174   10.47796021444676   13.67152790354063
B   13.80066755849676   9.44891835270985   13.50491056831712
B   15.22350936375214   9.15369371181691   12.61339895347283
B   10.98006679936611   11.53935837502396   14.30050815873265
B   11.66370271138965   13.13066410942909   14.21223512389743
B   11.16397121147661   14.38668122116724   13.19700992233312
B   9.80756519001234   14.16028003211409   12.06543300194762
B   12.84471285595925   11.20454249393723   9.36389650559420
B   14.28292947123482   14.90405359397477   11.05808577116461
B   9.87340055266972   11.49809518582124   10.10054919123823
B   7.98471179392144   9.70016550925028   11.75674352254930
B   11.35219966826928   11.90786165962949   9.49520307807869
B   15.33060002768591   14.61021833347394   12.30839298349058
B   14.40441191836049   11.76545584960353   9.38018075965079
B   9.09024605169734   10.18699426093398   10.71035456019338
B   15.68391743081988   10.90215236601563   10.02476027693391
B   9.67124121584498   9.06723868217132   11.90756983810736
N   6.51149519254049   12.53606838793034   11.10502657537580
H   5.89876938923908   11.77831084440114   10.79377796063739
H   6.83115671505190   9.39582191943682   11.86976080577216
H   6.01262814241765   13.42597156925825   11.09569968010758
38
F:    ...  E:  -0.648243949999994
W   13.24109188021357   11.57349786340074   14.11744748704053
W   11.63111555979132   9.69714071051997   12.93927393462073
W   13.92014554598340   11.00924989179002   11.63385144745708
W   16.60049372905731   10.72839393312772   11.91091440782996
W   15.72931421080292   12.64737839459121   13.24011470674327
W   13.30347183209134   13.78407563812089   12.72820970741331
W   11.22458116621843   12.20403363666093   12.01884077145882
W   15.55761684007691   13.09921398840385   10.74111121204485
W   8.39215740418185   12.29548699996595   11.61254090974489
W   11.43993770082080   9.82939411954154   10.46278807180106
W   9.16688423265092   10.62315955335842   13.35024880884826
W   11.64718106764106   15.22201379789156   11.15820091454664
W   9.45684767450265   13.13538898907743   13.94586422788670
W   12.96334366987289   13.41243078743527   10.05188442231394
W   10.19236680436810   13.70870005784475   9.97068878158325
W   13.57648904432670   8.31502811384346   11.53357919286778
W   14.03333956797418   9.43376195628937   9.46175006937744
B   15.16088934864307   10.51056992985039   13.66122012656646
B   13.81949654218541   9.47866891226788   13.50126734046451
B   15.23774514858221   9.18117405673544   12.60931767916954
B   10.98476641039551   11.56135781072689   14.30102002076549
B   11.66200730946949   13.15308143530556   14.20060175437804
B   11.15116639232283   14.40290384082888   13.17462061257171
B   9.78856906304657   14.17075976700178   12.05175142575791
B   12.83972729397896   11.22273365860184   9.35101303551288
B   14.28299005186361   14.91844827344587   11.03802926161884
B   9.86050260773842   11.48121579445443   10.09426982146326
B   8.01495881135697   9.59005477008263   11.76116206743659
B   11.33308693744917   11.90972827914144   9.48902317554030
B   15.33090578590159   14.62894876296530   12.28979207616830
B   14.39745952340147   11.78883301462070   9.36351587544265
B   9.09136030000190   10.16303469290897   10.72513771468833
B   15.67884692159867   10.92491499975301   10.00614850785640
B   9.73437408862966   9.05012253841547   11.89953658597812
N   6.46671270405916   12.52373518395386   11.19810729139400
H   5.81874395360010   11.75145139332825   11.04110110426621
H   6.92854894732733   9.09060402447100   11.88450145544023
H   5.97590271951214   13.41444922091574   11.11669278558068
