38
F:    ...  E:  0
W   12.43542529988680   11.30023659484479   13.82762286058801
W   10.79171530022532   9.38617129245728   12.69810811535052
W   13.08015783782059   10.58031279967133   11.32867128741383
W   15.79668648398979   10.16585876472855   11.69022571486504
W   14.96548225161349   12.15991887534358   12.90641821334502
W   12.54138267863567   13.52780429376145   12.50786313813476
W   10.47806091730564   11.80161708926073   11.64496303218186
W   14.81550210086834   12.51125675088608   10.41394824762735
W   7.81534426277515   11.78465956811455   11.21009934319898
W   10.64870051802280   9.30691616335912   10.14129407189592
W   8.38656532451235   10.25100008233652   13.31121486567655
W   10.98886608953615   14.70700947644881   10.66816182726444
W   8.56987577849555   12.78094401752693   13.43917809241363
W   12.27945096438987   12.82033903405524   9.67791733015148
W   9.53521128925178   13.19026508442292   9.44550719393414
W   12.57257974223486   7.78932346554043   11.46906123734885
W   13.28593942020593   8.82229192146708   9.42280144785727
B   14.29717107393650   10.10507843846672   13.40440732382866
B   12.93375872747549   9.14098005845842   13.29743395646571
B   14.31099932336795   8.72403576472547   12.39821599084843
B   10.18647515128940   11.29082103055320   14.00829486724165
B   10.81043826054605   12.85884061959893   13.81359035519941
B   10.30903045393033   14.01652659978750   12.67158940229552
B   9.02341672267182   13.77517297706713   11.48579430305280
B   12.11648953672158   10.59648648856702   8.99066868689072
B   13.54263912003749   14.37374020514012   10.62066855314003
B   9.07341485859119   10.96624214515349   9.54213810541806
B   7.39071048720916   9.61596245824541   11.54737168161599
B   10.62973302670764   11.33184076183039   9.14846769011644
B   14.64083871259098   14.10353933822343   11.84903686585529
B   13.67847019431858   11.14761450391212   9.04747267127888
B   8.31757862336638   9.68491317692419   10.21095500542330
B   14.96044947506542   10.33819808394448   9.75605708111421
B   8.88265567210614   8.84540144242618   11.61592385575259
N   12.84625911991026   15.25423878378220   13.94671997540267
H   13.17746598200756   16.06157028935441   13.41385249707630
H   11.96885981323613   15.49123497410689   14.41512910438708
H   13.55133819678224   15.02677537714528   14.64829479998695
38
F:    ...  E:  0.041464029999986
W   12.40872260475038   11.30418048518043   13.83801894056661
W   10.77008621708152   9.39371253244491   12.69954770695784
W   13.06031373586026   10.57901408137836   11.34355694410791
W   15.77325823142313   10.16136183792188   11.69766105329616
W   14.95619075442327   12.16041187276757   12.90353154832252
W   12.52836333412851   13.51320744820489   12.49933513719113
W   10.44801739180455   11.80976396363947   11.64931055531366
W   14.81709522314944   12.48597674475720   10.40055132585961
W   7.78653832017068   11.79752257920086   11.21910445461512
W   10.61756129104064   9.31689458861459   10.14681869460750
W   8.36261674379795   10.26319594945530   13.31428941509595
W   10.96977387730272   14.71376512500900   10.66964295678889
W   8.55055290874802   12.79620846535215   13.44222768896706
W   12.26410100515971   12.82304645156461   9.68750544422965
W   9.51199508199335   13.20897800750854   9.45209669742969
W   12.56868395874233   7.80262786770513   11.47152806598082
W   13.23312569007062   8.81499404400058   9.40373980471233
B   14.27234326803520   10.11584421120470   13.42282368242824
B   12.90808091359281   9.14535253753948   13.31830173745991
B   14.28862414474969   8.72827360482039   12.42875230277175
B   10.15863517697866   11.30244906717856   14.01280176208549
B   10.79269812699855   12.87082071594368   13.81691763817315
B   10.30308049926749   14.03367177244938   12.67818614108347
B   9.00352717522141   13.79517193956522   11.49344770222041
B   12.08171014837725   10.60794403182254   9.00968102430791
B   13.55266004846429   14.35366512761059   10.61207085089442
B   9.04505218924475   10.97851289401475   9.55301555318613
B   7.36370421313960   9.62236967179596   11.55322211882197
B   10.59959549423690   11.34781744773212   9.16083506024395
B   14.65030977975130   14.08747940392765   11.83069631909359
B   13.64771246206900   11.14175680686017   9.05484068481866
B   8.28788456452343   9.69278881457750   10.21656368902840
B   14.91671000558102   10.30849093152769   9.76432922064960
B   8.85576831122179   8.85086927024056   11.62361890040854
N   12.99977130975827   15.21977831819613   13.90979321896199
H   13.05690464343054   16.06954161827824   13.33173390321782
H   12.30820658808329   15.36498415836242   14.65633240363648
H   13.91516335926556   15.05269440328442   14.34870844410356
38
F:    ...  E:  0.140843879999977
W   12.38061410313364   11.30480859379582   13.85108804216481
W   10.75467889875499   9.40520189020324   12.70086582884210
W   13.04179550155498   10.58948939591525   11.36016724488293
W   15.75364595794997   10.16018951538541   11.70534479614346
W   14.94362708477557   12.15285336349163   12.91355397323164
W   12.50179191334986   13.50603339263201   12.49147607762358
W   10.41548690077696   11.82535269430817   11.65288551443575
W   14.83823287737554   12.45602062870510   10.38443499216275
W   7.75684946860480   11.80886518450451   11.22342757001325
W   10.59679547386781   9.33062114825645   10.15316512836621
W   8.33810716526714   10.26654866453518   13.32385242926773
W   10.94062379135571   14.71965305661285   10.68454995885664
W   8.52126383653399   12.79998365654375   13.45125541095390
W   12.25206023829218   12.83546792399263   9.69984791191889
W   9.48832815269644   13.22309649739473   9.45923389199924
W   12.55595072902998   7.81029264126458   11.47301959616998
W   13.19986454416754   8.81212711980068   9.39561993932788
B   14.24820033611754   10.11631847611716   13.43819455092918
B   12.88503366839913   9.14231552749708   13.33243446329801
B   14.26357003508240   8.73123179280616   12.44316527900626
B   10.12781923308559   11.30987262669377   14.01779086070677
B   10.76976040440098   12.88135994373410   13.82695746506094
B   10.28389625165742   14.04900664589104   12.69495136172736
B   8.97355150299617   13.80767173300623   11.50661237484978
B   12.05976614042226   10.62342279270774   9.03630916655172
B   13.56979257877809   14.32302161190050   10.61626292681110
B   9.02901895149123   10.99185838961698   9.56313399599608
B   7.34484014022510   9.63373682433079   11.55931585511703
B   10.57904597106615   11.36825852625007   9.17072390641433
B   14.66142207697605   14.05342726491363   11.82628280141875
B   13.62760179375855   11.14312900643224   9.07009612669003
B   8.26687355253621   9.70678299178900   10.22234097888568
B   14.88284409376688   10.28202906723418   9.77192055294152
B   8.83597421373594   8.86355553988203   11.62779720169375
N   13.13230115324718   15.21023326734262   13.86144389103359
H   12.92287348359363   16.08648899415987   13.37825272606737
H   12.73685211593028   15.23277808488170   14.81145729949353
H   14.15438445688072   15.07203431710816   13.93590670058368
38
F:    ...  E:  0.529539269999987
W   12.34309566272978   11.30225051528118   13.87055214442138
W   10.75552213005082   9.41939535781191   12.70026165077152
W   13.04589725783070   10.62820741486050   11.40278372454228
W   15.76172625433089   10.20702699019877   11.75715867791040
W   14.92019336838238   12.15975911768446   12.97601298357916
W   12.42380921876151   13.49006112598480   12.49509413892577
W   10.37643177982489   11.83423737504440   11.65813033926069
W   14.87675321296099   12.46204654938237   10.41092815500073
W   7.73162285123252   11.79522771152329   11.20820628147188
W   10.62146883930699   9.36036641332922   10.15661358843706
W   8.31491012372943   10.24168475541505   13.31689995785411
W   10.86914047890881   14.74859707237790   10.70790636630614
W   8.47026567343269   12.76353757544692   13.44418332443668
W   12.25468352596595   12.88856204283900   9.72832166498664
W   9.47474986056059   13.24613951627028   9.46579911131072
W   12.56942330736815   7.83330858595501   11.45996404398937
W   13.22413329909971   8.85591708543823   9.39997223421430
B   14.22994425929706   10.11267562236882   13.48815730512294
B   12.87644155985690   9.13662700887557   13.34899091871777
B   14.25813476283323   8.75683385192257   12.45470244852354
B   10.08767528401305   11.29841145246697   14.02640797637097
B   10.71732563905740   12.87505705996724   13.84793320122314
B   10.21847467473577   14.02689796087818   12.70939473826680
B   8.92013621783941   13.80052297074043   11.50755768413456
B   12.08643295869878   10.66917961200055   9.07784734715729
B   13.59387741827303   14.30421246468802   10.66462171713579
B   9.04590943309330   11.01326063136195   9.56751114410788
B   7.35119690286331   9.62166976972966   11.53246310588558
B   10.59724072077154   11.40931867189892   9.18939675682226
B   14.67911658070707   14.02875478806160   11.85948918982470
B   13.65310659182845   11.19497522287885   9.11593085180629
B   8.29718265928981   9.70872773520537   10.21021553522198
B   14.89724838998614   10.29825581917866   9.81704503167989
B   8.85118734503334   8.86615054817912   11.62285516398607
N   13.15145437751193   15.18054255719676   13.78696557876919
H   12.87932875007874   16.10201079129212   13.47919586547945
H   13.10420157918262   15.11478613908533   14.80357681929734
H   14.10569584220785   14.87994290881632   13.36609202468618
38
F:    ...  E:  0.654681970000013
W   12.34170140120127   11.33559175363339   13.84269921857860
W   10.74305253701893   9.41759724387090   12.70897010653699
W   13.05836564217195   10.62707011022584   11.40362096518652
W   15.74517616917967   10.19301716866847   11.78101080534668
W   14.92677880396861   12.15254717514668   12.96866897767802
W   12.42993975105721   13.66624540671685   12.64555825387355
W   10.39655318676774   11.84422621751352   11.66112287068035
W   14.89709592894522   12.47124808658214   10.44490087357805
W   7.75842818988112   11.78498607143627   11.21177935711132
W   10.63250464095498   9.37104999692068   10.16635233154317
W   8.31298209322552   10.22122309643729   13.32092886221498
W   10.85706635238203   14.73355999857060   10.73633155058141
W   8.47515970703151   12.76158976908667   13.46567106132232
W   12.24286264393647   12.88426567273869   9.75405316393614
W   9.46641121351123   13.25676446185353   9.46918410305980
W   12.56338258311947   7.84676972537525   11.46207394075212
W   13.26523135986466   8.89051353745213   9.41228837996342
B   14.22031443198942   10.11547665706212   13.50916336002559
B   12.85908537664593   9.14547766287977   13.35666621597120
B   14.24867912003024   8.75186123893711   12.47861080843216
B   10.09163418817959   11.29594646156939   14.01548291314725
B   10.70982969850864   12.87544936044832   13.85166232447806
B   10.17078115896008   14.02625145323420   12.71953994003660
B   8.91948543080162   13.78776902821889   11.52204501349636
B   12.09702976630120   10.67749005754551   9.07762299496961
B   13.54772949390441   14.28968856788191   10.66141205966332
B   9.04980211194370   11.00830938350961   9.55708881396315
B   7.35613844818879   9.61304255719782   11.53010184696540
B   10.59911548638756   11.41316988697499   9.18974168226776
B   14.71796909733410   14.10469595006022   11.79562540122797
B   13.65792979390963   11.22275061022916   9.13338655106601
B   8.30281581306556   9.70937878862265   10.20702135136490
B   14.92141815821249   10.33333977881446   9.81230429086633
B   8.85780160993450   8.86211503645485   11.61519157933044
N   12.78976600329627   15.21839459653690   13.85784007467426
H   13.07568548220619   16.08812251940936   13.43461178260798
H   12.85366018119533   15.26368830212410   14.87616727188649
H   14.47577573642218   14.37445540169650   12.97863769325483
38
F:    ...  E:  0.352461380000022
W   12.36774304836294   11.34108374955787   13.84720604207581
W   10.75780680614455   9.39436122459601   12.69103687499661
W   13.06981688325730   10.63052202804896   11.38533620203016
W   15.75837201152973   10.20455358506342   11.78569117945041
W   14.88545243508052   12.15170933831916   12.99419637851579
W   12.45299925930978   13.73635524470875   12.70277116423187
W   10.45864082862302   11.83043439618130   11.66717997817427
W   14.88057040209705   12.49285242527391   10.45730917112261
W   7.79874219227828   11.75739575113157   11.19384075226622
W   10.66176077241021   9.35811388067657   10.15169305769551
W   8.33755983074583   10.20827708449301   13.29341867116039
W   10.88323416516909   14.71557213824393   10.73997045822071
W   8.49404512245110   12.73220793975596   13.46214339051763
W   12.27325600065584   12.88420447320840   9.77974998324216
W   9.48428680930424   13.24814099158697   9.46965845345716
W   12.58981459259842   7.83568130253944   11.45494124629703
W   13.29251891895735   8.87739209011606   9.40398996361437
B   14.22670095179941   10.11368056266570   13.50588346858218
B   12.86361492912781   9.15904172559825   13.33818883016041
B   14.26301018973721   8.77039801636952   12.46026206826211
B   10.11903836676773   11.27984060470123   14.00110764087484
B   10.73505124996069   12.86453593618714   13.87357942969493
B   10.18828982386776   13.97823836699652   12.71711917735763
B   8.94273699858829   13.75886783013335   11.52010922239988
B   12.12031783155349   10.66985648272151   9.05451248928562
B   13.55236201288428   14.33186366406856   10.74025540927526
B   9.07000293944350   10.99378963946159   9.53046425228265
B   7.38191344026263   9.58877084120003   11.49450915844143
B   10.62574230030299   11.41154376484716   9.20383397153638
B   14.69848246956333   14.10463526662247   11.89726160036881
B   13.68070461372979   11.20857148128597   9.11373448070067
B   8.33574252153909   9.67989886203326   10.17506415317732
B   14.93711656803075   10.33778233155533   9.81977244452438
B   8.87259117901966   8.83074048502735   11.59010083774190
N   12.64376541516646   15.36236356560581   13.81045172040102
H   12.85357192132857   16.27318446148525   13.39886917093430
H   12.27462941153272   15.47066730047686   14.75023972524611
H   14.80313357845595   14.04800995909348   13.15968657331951
38
F:    ...  E:  0.047811299999978
W   12.36863441081942   11.30005051161823   13.86762504747993
W   10.74845695121588   9.35996344684748   12.69635696262527
W   13.05149652805598   10.61087085459373   11.37069646544881
W   15.75895036414628   10.24050395880617   11.80967533587853
W   14.88232471313741   12.19558826800681   13.01646680507506
W   12.46220134901053   13.67586323169608   12.67585093861774
W   10.46790618564426   11.80497011272830   11.66872752732136
W   14.81620904535587   12.54751598173814   10.52891667612030
W   7.80433729878381   11.74438947809027   11.16298935941293
W   10.67084627389958   9.33858076310247   10.15757098537057
W   8.33630951933709   10.19743839249520   13.27923074265446
W   10.88876052304563   14.70697509302284   10.75577044772413
W   8.47668870704308   12.71046545464488   13.45333964291216
W   12.26937102892157   12.87584337928608   9.79491696086422
W   9.46651703076478   13.21930582872415   9.45141574428430
W   12.56417771717723   7.80733207757967   11.45841679448546
W   13.33768688521628   8.89031813140183   9.44652735565802
B   14.22926057423488   10.10946546174829   13.48690302177678
B   12.87484177064642   9.13507536895446   13.31879529702700
B   14.27096374188049   8.76363221871690   12.42494687345850
B   10.11878923789058   11.25093932968953   14.00351413978620
B   10.71994515619618   12.82920958847356   13.86304457830957
B   10.17535100901764   13.94224047268361   12.70671332457330
B   8.94333929052446   13.73702037849362   11.50727459397788
B   12.13882077173069   10.66194805202904   9.02976483245880
B   13.52401952794857   14.40938670038448   10.77743108283539
B   9.08970799177724   10.98015864030197   9.52005307414147
B   7.37988870821134   9.58623862986528   11.47802839477206
B   10.64467073662196   11.39461657307712   9.18845455202504
B   14.65926995377980   14.18830162659802   11.96850765382974
B   13.68976096180475   11.22425936938536   9.10189352286454
B   8.34555863985163   9.67501481700192   10.16442289954095
B   14.95992338666344   10.41482421006958   9.83484122532277
B   8.87164872933069   8.81946433145108   11.56983655642004
N   12.56106533028986   15.28927034937445   13.83508849903675
H   12.95234321423297   16.18852048976314   13.53725309840968
H   11.91263504491189   15.42390626526842   14.60661127649048
H   15.20246048251808   14.38567095392466   13.11726650264649
38
F:    ...  E:  -0.117076929999996
W   12.35933358695401   11.25656872315426   13.88000987322977
W   10.74133539860895   9.35208650084857   12.69469141399752
W   13.02817214602013   10.59060729535676   11.36737550098815
W   15.73529463722571   10.22850164083673   11.80545027450188
W   14.85745706858726   12.16098725330163   13.04352026421930
W   12.48185074499420   13.62176297515898   12.64032226622398
W   10.45650107917340   11.79240359847612   11.67116044686621
W   14.74035071696492   12.56358586720903   10.59635305843403
W   7.80253380104234   11.75100577922124   11.17353468211160
W   10.65673356463881   9.32750031161173   10.14175498071360
W   8.33759959169516   10.20527839378487   13.28025186489768
W   10.89892838942582   14.70428671294640   10.75161988465918
W   8.49115163712923   12.72744765571379   13.45730528201642
W   12.25712874755220   12.87198386244640   9.79348149944970
W   9.47940929750221   13.21750702672936   9.45161950643771
W   12.53665725929258   7.78567085699434   11.46048110826947
W   13.32025343445805   8.88120251724948   9.46490010668859
B   14.22632901208146   10.06718008887817   13.48994892332957
B   12.86530611348560   9.10977165265308   13.32198804970663
B   14.25209062169595   8.73939289282836   12.41233925639337
B   10.11103997517954   11.25271546987740   14.01443729767588
B   10.73307179705574   12.81627270080933   13.83897927021918
B   10.19446212386475   13.94241421911620   12.69753495849098
B   8.95311749629747   13.73454396732696   11.50392157113787
B   12.13098995700523   10.65247333393873   9.02107791784605
B   13.47672782648468   14.42759038850806   10.76785835644672
B   9.08044505318433   10.97342839763183   9.52167086608074
B   7.36617347671248   9.59537675192913   11.48986978321421
B   10.63361812252491   11.38204277124685   9.17732080921428
B   14.68424629887252   14.26992833361828   12.01057642628517
B   13.67707980989667   11.22754870525496   9.09604789838381
B   8.31784748302448   9.68322636612434   10.16728454376864
B   14.95310727146680   10.44227642251881   9.82828774043670
B   8.85798232725363   8.82222289640646   11.56679761861351
N   12.60585722220400   15.17159207198743   13.88581173007544
H   13.14772362261226   16.01726843572986   13.67822498164603
H   11.92195641348233   15.35665807412931   14.61989711771665
H   15.26527566599073   14.91282788008530   12.85143166125247
38
F:    ...  E:  -0.230017229999987
W   12.34614336493572   11.24135573480310   13.88666594848239
W   10.73506871913200   9.34774038789966   12.66721741545273
W   13.00639433412597   10.55812297919680   11.37238892777622
W   15.71799304111431   10.18523190675561   11.81810645206846
W   14.84129732073098   12.15540001683786   13.03850713687232
W   12.51755636182202   13.59411007286441   12.64201980548711
W   10.44418157995683   11.78120808424208   11.69144405727649
W   14.67067389662008   12.58594375813942   10.63009982906992
W   7.79486189756989   11.78081984923709   11.20263605222421
W   10.62247287892585   9.31186763118581   10.10899036245312
W   8.34794864798713   10.23681252677276   13.26735361475758
W   10.89112328490751   14.73225033605413   10.73264706657187
W   8.50664929498313   12.77113005809814   13.46182136741041
W   12.22352449257500   12.83224368936869   9.79369150037970
W   9.47493297258632   13.22667137885223   9.46195546544432
W   12.53341617231549   7.77089090671222   11.46576068057939
W   13.25217189759551   8.84349773151757   9.44847604731603
B   14.20966407869192   10.06502979842282   13.48540458015134
B   12.84844632190259   9.10206078049031   13.33457661088829
B   14.24023353316074   8.71926314215112   12.43432811421872
B   10.10680043903111   11.28114696419100   14.02446801327898
B   10.74378543830210   12.83941332305237   13.84569597593257
B   10.22706710391899   13.96918604848858   12.69916804647048
B   8.95231853792319   13.77676566281240   11.51839752362523
B   12.10122963406834   10.64610868576390   8.99943904559756
B   13.40745985152251   14.43257003925728   10.74134858313195
B   9.05181973512051   10.97268178634942   9.53673684554951
B   7.34005901241264   9.61291115391743   11.50286212129998
B   10.60098015192643   11.36529589024493   9.17735562216644
B   14.68412660849333   14.34562936470610   11.93475812216022
B   13.65356605120058   11.19650889078763   9.10939996424766
B   8.28317665028589   9.68600711197661   10.17718294828721
B   14.91360971340236   10.42157844207031   9.86643247890838
B   8.82287253037932   8.81909709447594   11.57869136841047
N   12.77073884751919   15.07389667774144   13.93446671925883
H   13.40899233362432   15.85324540838141   13.74261080672914
H   12.13566353892178   15.29694181589558   14.69767916934640
H   15.20611852193950   15.20450366192207   12.60435440235685
38
F:    ...  E:  -0.298629020000021
W   12.33456238985750   11.25549049741228   13.88239527088517
W   10.70246350037235   9.36800751034471   12.69908137113321
W   12.98389212510026   10.57688125120342   11.39099301305317
W   15.71033889929751   10.19412827890630   11.79172019424214
W   14.82996251052498   12.17826975346975   13.00127945183088
W   12.52507827445659   13.59489065194928   12.61885845151882
W   10.41478572671953   11.81033116952630   11.68519476828907
W   14.73201973906449   12.51387849651200   10.56320754590304
W   7.76486249889705   11.80148067285996   11.21332386435415
W   10.57193818018697   9.34403740889820   10.14791340295345
W   8.29877111778512   10.24443123341333   13.31161976319062
W   10.91408774695457   14.70918260094506   10.75649627090845
W   8.48598333126451   12.76980697298816   13.49793713560382
W   12.21683447616304   12.82659056334760   9.78024921934309
W   9.42959455530866   13.25001845469557   9.48541681253177
W   12.51845771391330   7.80647738941173   11.48099046710339
W   13.18730226009296   8.83978234752911   9.42481353388524
B   14.20432363333986   10.09266753770924   13.48382041247747
B   12.83834660274120   9.11744480934964   13.35238192271103
B   14.22816975063497   8.73496529351885   12.46010624829487
B   10.09367076952940   11.28139052214526   14.01715856000626
B   10.73871501808305   12.84250892440482   13.85559353712707
B   10.21667453095127   13.98085526547107   12.72858433573897
B   8.94551060757288   13.77712888652531   11.55330249014083
B   12.05079257550503   10.64645308799766   9.02623041018337
B   13.45885850709302   14.37513241440447   10.68048843399507
B   9.01171521779427   11.00207650761407   9.55374757024560
B   7.29718745850140   9.64350129528892   11.53233924476558
B   10.56159899029667   11.39071152583784   9.18850486358098
B   14.69737157745199   14.32675895164171   11.85409405637559
B   13.62128156884575   11.16619277198780   9.11253368443552
B   8.23324757908246   9.72571199320041   10.19873424824241
B   14.86981559260143   10.33587465137658   9.84795713481977
B   8.78725866477830   8.86583968098906   11.59599882598565
N   12.90985671358865   15.02962145720671   13.94043572076118
H   13.63752131562171   15.73332788119783   13.82437786808255
H   12.32059235589896   15.22387275046236   14.74800410085242
H   15.29169471576649   15.25941732989599   12.34925458608638
