38
F:    ...  E:  0
W   12.49223742973833   11.59315106160533   14.12412543545121
W   10.91543874679330   9.69845338479215   12.83928052901496
W   13.22849685521627   11.00087279027188   11.66535498750404
W   15.91839068946275   10.65860072019596   12.06088528597481
W   15.00859329527608   12.60092543605105   13.31062556081296
W   12.58967426179390   13.76366995292204   12.69495445552995
W   10.52155872316663   12.13159106949659   11.88539481931289
W   14.91773242170908   13.03515465304111   10.79274212362060
W   7.92188031698054   12.14904538998720   11.40255638352599
W   10.81209334789622   9.77737634059234   10.26991484023007
W   8.48085354839640   10.51208364410706   13.43446290477679
W   11.01470161036206   15.16561648929392   11.02670067334298
W   8.64581571141139   13.05434648717781   13.68387209186502
W   12.37366481079713   13.32435274114401   10.00523268745871
W   9.63308453339653   13.68273223379124   9.72772679419517
W   12.85955906396299   8.32459572929592   11.53525879588373
W   13.47423970423693   9.35444123884021   9.44644980706114
B   14.40165650795672   10.48900828081146   13.73245726622803
B   13.06015080254446   9.46949650659762   13.54526932086353
B   14.50263896801981   9.14422742854082   12.70122964351616
B   10.25018717646237   11.56665852674591   14.21716151163597
B   10.87660814327333   13.14144535696530   14.07474059691246
B   10.39314643827055   14.34977519391759   12.99421877508730
B   9.09386962269259   14.16316879315662   11.79206282316111
B   12.26277384322887   11.14103886695644   9.29484294129538
B   13.62880328305500   14.86433307075063   11.01702058284240
B   9.22869853948707   11.42168005361768   9.72011774134811
B   7.51823592811386   9.95591506637474   11.63278402558962
B   10.76316576927467   11.86057169519136   9.33443465635329
B   14.63227794786623   14.57360151978134   12.30785443220977
B   13.82044195305896   11.68567009113931   9.40634510807595
B   8.46861796800183   10.10362260417176   10.31294704530529
B   15.06119254560637   10.82640418892638   10.12250402630221
B   9.03292037980513   9.21982249731690   11.69205700544645
N   14.52240898293063   7.91285561709913   8.04018649701464
H   15.36138590174564   8.32055116413285   7.61520677634282
H   14.81420352002248   7.10345184666694   8.59778487401856
H   13.91537682393036   7.56770571597286   7.28972434350409
38
F:    ...  E:  0.0511447200000248
W   12.48815626977050   11.60262913007441   14.14439948492771
W   10.91667072255810   9.70818741990445   12.84548548985851
W   13.22900471026687   11.02033715642812   11.68299130536395
W   15.91839141189146   10.65893382302291   12.07646556685886
W   15.01086564805826   12.60960115277654   13.32269568438797
W   12.58900784940060   13.75515069647878   12.70472524931459
W   10.52114728952837   12.13678915158553   11.88337080020009
W   14.91450388525924   13.05076498439617   10.80653006858673
W   7.92099112033057   12.14766709665029   11.40217129900978
W   10.81899518712382   9.77881065877120   10.27266569773987
W   8.47778619333900   10.51383800003432   13.43069627153587
W   11.01760979465616   15.16309102636036   11.02717918971444
W   8.63839612512804   13.05777955598702   13.67815702746569
W   12.37625726537512   13.32830214402682   10.00156775195602
W   9.63368289056160   13.68551529381152   9.72317042442233
W   12.83471081498224   8.31786768821637   11.57122039828780
W   13.48067143219636   9.36801902760010   9.51488311818161
B   14.39914431616559   10.50042752061337   13.74429952052893
B   13.05798358743855   9.48481620179253   13.55878460617656
B   14.49434796001348   9.15162436203862   12.71255638273671
B   10.24232830201969   11.57200333853564   14.21810855093416
B   10.86718033012527   13.14781857058248   14.08173922267527
B   10.39209269820105   14.35054929718289   12.99339153231930
B   9.09321598487773   14.16191297902394   11.78849237458743
B   12.27039025311365   11.14022247247797   9.29589298274454
B   13.61149268369822   14.87306881501050   11.02460453625670
B   9.23028113023536   11.42453784024017   9.71949572741521
B   7.52085315146962   9.95231271970467   11.62620346135221
B   10.76913956376340   11.86043720677508   9.33507309675876
B   14.62288050713839   14.58378811097606   12.31559967323878
B   13.82782634979837   11.69233909779134   9.41539758892728
B   8.47374628548971   10.10080284371183   10.30886043420308
B   15.07163645320791   10.85215642909145   10.14290611677091
B   9.03596652658512   9.21813147414101   11.69069975664636
N   14.42917180794239   7.97880535503450   8.02048618782300
H   15.33683767607457   8.27352060062215   7.66206392394462
H   14.48794567839047   7.03811738250854   8.39591966268462
H   13.76518874030804   7.94777098983000   7.24250188613002
38
F:    ...  E:  0.17920509999999
W   12.48396189216241   11.60877861946510   14.15811552963836
W   10.91549359824151   9.71446119534548   12.85304013789098
W   13.22868292207618   11.03430207575832   11.69838102356147
W   15.91767279841778   10.65935851145330   12.08744782199688
W   15.01087263777973   12.61764683285524   13.33179545436013
W   12.58750674596574   13.74943165985850   12.71327678777540
W   10.52120853958187   12.13998917088376   11.87803184814154
W   14.90973203822484   13.06015243860443   10.81622840054890
W   7.92143904562816   12.14628952779067   11.40329769290167
W   10.82393652943870   9.78104446628344   10.27434494561010
W   8.47354215037909   10.51233081616396   13.42410402539827
W   11.02217537276055   15.15738144040037   11.02871910075802
W   8.63274704363348   13.06166105364074   13.67512566418449
W   12.37827003445859   13.32823407249363   9.99634453363449
W   9.63406693840749   13.68967471905688   9.71833247790521
W   12.81075403678102   8.31182773146869   11.60840832747529
W   13.47895970832126   9.37216869823477   9.58060829400426
B   14.39897665175171   10.51030276854223   13.75488986793139
B   13.05825163014320   9.49737599600637   13.57261323145690
B   14.49004809732281   9.15792659302420   12.72273726618441
B   10.23457383090477   11.57433621149770   14.21311147601202
B   10.85919451004053   13.15070084208475   14.08540495251193
B   10.38941490544114   14.35126872764260   12.99319712514857
B   9.09259651128064   14.16121007750427   11.78584327593903
B   12.27387620816976   11.13715054289593   9.28979674500449
B   13.59668267100325   14.87759166865010   11.03114710382908
B   9.23474279860766   11.42994301729500   9.71982373075769
B   7.52368796180102   9.94619245043532   11.61739197338760
B   10.77440407749242   11.86113415460184   9.32810168869729
B   14.61497609123997   14.59012273308541   12.32166832236153
B   13.83278625827654   11.69024439180693   9.42302995206029
B   8.48157366711486   10.10013292182352   10.30465454095234
B   15.07897333712339   10.86532596694098   10.15723703155956
B   9.04038796631817   9.21457190577156   11.68812881968695
N   14.32453147767231   8.03634073611799   8.01920445193482
H   15.28097436797699   8.20575660401344   7.72115758863224
H   14.12519111513110   7.04890987740167   8.13383585667240
H   13.68534270450058   8.36873611692651   7.28861618038317
38
F:    ...  E:  1.01467908000001
W   12.47527528437155   11.59279796601741   14.12779675107472
W   10.90775747169887   9.69660803898571   12.83179470551425
W   13.22020498980578   11.02730082162685   11.68709021745448
W   15.91424352676322   10.67344303670991   12.07859610798627
W   14.99174601922471   12.61453303639075   13.32945174830214
W   12.57870408855842   13.75535058000703   12.70869227392049
W   10.51934904070770   12.12766134190848   11.86180050628040
W   14.90854404328271   13.04845793600498   10.80731653679894
W   7.92581153827502   12.14998959340483   11.41443782292447
W   10.82685681175581   9.78431152286485   10.25174094741367
W   8.46731431979367   10.49923026741537   13.40889938872450
W   11.02568365493279   15.15046612271427   11.03446478454884
W   8.63852055191895   13.06427411198657   13.68699795459400
W   12.37397703920186   13.32718404773042   9.98450247008471
W   9.62646051687811   13.70518909279584   9.71885498391885
W   12.83691759755767   8.33049713058030   11.56553791231652
W   13.52648055603476   9.40219095541945   9.56350269733197
B   14.39688702189083   10.50207650593777   13.73778236958723
B   13.05712764260671   9.48128826523782   13.55342322437416
B   14.49878180118251   9.15871733570188   12.70474276088850
B   10.22995017106182   11.56383071657686   14.18038316405618
B   10.86098147200787   13.14159900960069   14.07389796118936
B   10.38132721996145   14.35284684206462   12.99932382122529
B   9.09106244164681   14.16404885612899   11.79218221077783
B   12.26301895484360   11.14337366278000   9.27592407082687
B   13.60117144997090   14.86725502645533   11.02874953183053
B   9.24832059264303   11.44626069223282   9.72740744807106
B   7.52286108095413   9.93675801123866   11.60381728673016
B   10.77322935178019   11.88261748454767   9.28929794098722
B   14.61556211504048   14.57444542361633   12.31807897674551
B   13.82612861810271   11.68389870060424   9.41976385964460
B   8.49491122521582   10.11459166073193   10.30933915385645
B   15.08414947791446   10.86417184650185   10.14073339132807
B   9.04316163852002   9.20383332479483   11.67541133308289
N   14.25381338311586   8.04358124460198   8.09737744937725
H   15.26949287085451   8.12402363220309   7.88857138683525
H   13.88849789913434   7.12165334294332   7.85696630722730
H   13.49251250701547   8.78506321501096   7.70946948252113
38
F:    ...  E:  0.513646250000022
W   12.48274766712550   11.58473251716592   14.09858183287656
W   10.90651580464290   9.69028720463913   12.80402340048035
W   13.21217582453563   10.97119079652843   11.62896230402230
W   15.91393316383303   10.67923180068910   12.05277948326956
W   14.97818666333802   12.60568319476866   13.31899542760670
W   12.57659588467364   13.78812560617114   12.69982491729488
W   10.53454098946856   12.11970416680642   11.85323023277264
W   14.91168284602871   13.02366885141560   10.79442301082512
W   7.93831556019051   12.14893578915100   11.41881087016647
W   10.82559151777316   9.75826943346618   10.25268088610214
W   8.46543797603913   10.49636475468596   13.41627303664872
W   11.02085990790168   15.14498459374884   11.05004903044482
W   8.65016463465114   13.06248165550991   13.70206714197319
W   12.36903628476270   13.31542213985150   9.97884437382004
W   9.60990957733479   13.70282589277245   9.71514948960978
W   12.86733767400935   8.33023884163355   11.51772080399096
W   13.62042872210229   9.35041848304707   9.33372766632827
B   14.39630914042069   10.49265335553506   13.70958985927160
B   13.05043800955972   9.47177204908404   13.53062146291912
B   14.49718713253560   9.14428683469415   12.68319337721841
B   10.23722560915080   11.56080426544208   14.16373620499876
B   10.87256201847491   13.14074293445332   14.06138291030970
B   10.37225638629345   14.36042279244280   13.00965674046470
B   9.09152684322555   14.16485459246966   11.80140507972619
B   12.25614925177804   11.13270068905714   9.31607160933604
B   13.61693886523102   14.85952193211993   11.02382756247095
B   9.25697945482938   11.44206308529617   9.72458605169110
B   7.51754727757339   9.94668563656737   11.60696346600123
B   10.77678005711853   11.89069186256272   9.28696956635161
B   14.61819474946217   14.56035606837207   12.31901068879723
B   13.82417667381286   11.65903970602283   9.38860676450286
B   8.48766556599859   10.12574206087963   10.31525258581744
B   15.09391006095232   10.87351837478665   10.11396211090319
B   9.03654779036605   9.20294739109518   11.67019645923822
N   14.65656419438590   7.85965935013480   8.42613706718319
H   15.44219943946288   8.10675325915913   7.82040506626478
H   14.19460455835555   7.01881014644513   8.05882846324849
H   12.95447291047963   8.94017381548839   7.75111844505045
38
F:    ...  E:  0.0903886599999737
W   12.47322648096587   11.56266353552962   14.11422849837328
W   10.90096984128781   9.67730289382460   12.80597985195288
W   13.20715010606780   10.96450329800459   11.62149314757131
W   15.90776124940779   10.70409607557777   12.03913643200888
W   14.94507444863231   12.60455467401381   13.33237120861844
W   12.58309048413927   13.78992052508565   12.70132708474471
W   10.54666645878979   12.11615175180505   11.85089744039597
W   14.90309401676071   13.01780929748685   10.80201654929242
W   7.93257748070316   12.14782700093514   11.42757639246407
W   10.83802424988644   9.77703933591136   10.25070742924479
W   8.46505001492529   10.48813344643541   13.40857427214272
W   11.03215366083199   15.15800989178015   11.05488715782507
W   8.64919876410200   13.05871076117113   13.69246559469147
W   12.37211913161930   13.33111026073804   9.97462844121814
W   9.61629551696046   13.71227223731092   9.70729175924103
W   12.85889225157741   8.33234574196885   11.51400142941432
W   13.59458295644493   9.38763446914134   9.29173581386043
B   14.39837756715781   10.48836426796526   13.71094240012528
B   13.05606811607183   9.47270821773910   13.53507349589316
B   14.48586198179735   9.15351224520966   12.67059099695166
B   10.23188374490851   11.55927335182892   14.15451073714815
B   10.87519597466443   13.12899177230542   14.05358398298035
B   10.38312804980001   14.35484693395399   13.00175106319728
B   9.10212364581223   14.15977950735101   11.79682956610887
B   12.26487874430761   11.15442060715955   9.31696067268000
B   13.60430281116114   14.87393134644954   11.02697094475326
B   9.26197776978160   11.46157579831491   9.75095607880371
B   7.52218021855006   9.94013287387317   11.59687624302428
B   10.78535212136857   11.90275741655468   9.29853432813613
B   14.61475165212313   14.57062073162401   12.31688313351261
B   13.82963613477729   11.69170062688434   9.36543627867622
B   8.49825073985988   10.12716850394575   10.31578913338484
B   15.08727684058781   10.87030955108329   10.08395718464675
B   9.04107750370687   9.19020467215899   11.66119766268356
N   14.53195927645072   7.81317431959566   8.43659417423354
H   15.51568265319886   7.84475125582696   8.16564797503780
H   14.06673623706852   7.16788780186317   7.80094633916957
H   12.72827867960908   9.30625933241831   7.79176827107380
38
F:    ...  E:  0.0382324600000175
W   12.46532002271523   11.55784853685254   14.15947914523657
W   10.89232671061980   9.67967888472511   12.84003707310602
W   13.21005052033380   10.99506940116409   11.64552012537905
W   15.89755894765411   10.73418502618637   12.04710931891634
W   14.93481606470825   12.62277907830516   13.36175042584473
W   12.59887460670194   13.75113744552242   12.70453759224751
W   10.54276443175081   12.10662971801754   11.84837031912297
W   14.90765848709228   13.01508744499404   10.81486359807490
W   7.93187180803049   12.14599148486846   11.42168510691857
W   10.85159596381360   9.79860424886815   10.28711858769011
W   8.45777576344185   10.49775018298306   13.39346886299076
W   11.05856828651352   15.13967027432468   11.04784498383916
W   8.64842344618550   13.07185578404648   13.69236558433863
W   12.37931818994631   13.32370990507195   9.96207903153069
W   9.62429185500156   13.70921952607793   9.68747660464835
W   12.83103203107357   8.35116347367395   11.51541664040260
W   13.59041193584765   9.43422425237410   9.32114051050399
B   14.39914128610752   10.48841725943554   13.72305836961076
B   13.05433705589510   9.47400514728788   13.53945284729839
B   14.47688256904220   9.16231158562832   12.66157260617586
B   10.22320999670316   11.56287971572209   14.15671939377959
B   10.87166384137122   13.13173883066301   14.05658959898293
B   10.39169003730730   14.34262945504143   12.98814132188621
B   9.11194200055159   14.13675833904733   11.78633165911750
B   12.26925563538140   11.15840996565435   9.21670796052938
B   13.58962028263832   14.86720830171383   11.03027158103298
B   9.26531934361742   11.46173357668928   9.75666079610321
B   7.52279278192558   9.93144124137498   11.58527604305476
B   10.79201628590956   11.89078304062808   9.29616452691846
B   14.61405314301765   14.58015652953508   12.31476881967388
B   13.83565379051242   11.71211948257507   9.37983643001957
B   8.50918026728863   10.12452175070688   10.31855698168858
B   15.07774269571259   10.86200996559236   10.08962875231187
B   9.04299465187571   9.17682266591633   11.66331807312848
N   14.37820707133148   7.86668966602950   8.33020973472601
H   15.36156331907310   7.61885241280558   8.36590529116866
H   13.92857175360851   7.33982935040911   7.57990000820646
H   12.63890587433395   9.66213097379322   7.88138039458996
38
F:    ...  E:  -0.00391796999997496
W   12.46752404723449   11.56872724191502   14.18942753641503
W   10.88260214639497   9.68802522919712   12.88610738354505
W   13.22522286287136   11.01559463282321   11.70355249005544
W   15.89326786056357   10.73579159636098   12.07210849120319
W   14.94863396330901   12.64125790558376   13.38266563511081
W   12.60957094843102   13.73285457374837   12.70408147892535
W   10.54849911115065   12.09379716842047   11.84190471807903
W   14.89710715174917   12.99330090656428   10.81945642613526
W   7.94919550911064   12.13497870783642   11.40160107971310
W   10.87934203728070   9.80324308689487   10.35168021811078
W   8.45205348367169   10.51183078012490   13.38660936600457
W   11.07933352873047   15.10757379973569   11.02529352874277
W   8.65020169162737   13.08709718072554   13.69787863937309
W   12.38729985776854   13.27448434197381   9.95444511765286
W   9.64197925928615   13.67845679729794   9.66511061965227
W   12.84553388691018   8.35673240499374   11.54141623775352
W   13.60350302934138   9.41255140116325   9.38032871256898
B   14.40475098907066   10.49443969823836   13.74492300116461
B   13.05315632083877   9.47250319752379   13.55420724974598
B   14.48705620450897   9.16456345456391   12.68995189629828
B   10.21688805465972   11.57277550980990   14.16159283102213
B   10.86602251345217   13.13871285911424   14.05824661979762
B   10.39488999981805   14.33854968379880   12.97392592122681
B   9.11926506356629   14.11431680784598   11.77530577992863
B   12.26948186462464   11.02959531614403   8.90694146836618
B   13.58469683494096   14.84805719780001   11.02071545526786
B   9.28852662569373   11.44571552428377   9.74120578533913
B   7.52501324032191   9.92945813550701   11.57687369890785
B   10.82766298856004   11.82315742172441   9.26572549671707
B   14.61427804976312   14.58373500962215   12.31002883730032
B   13.79926696518362   11.66242893496063   9.40681253249875
B   8.52175452616891   10.12396993630630   10.31771141143174
B   15.05464976318062   10.84681362064521   10.11332464832245
B   9.04130260759318   9.17177525715515   11.66946121066558
N   14.33564815234508   7.89034807329271   8.29132338122131
H   15.31758445465811   7.58856395905149   8.38429116674160
H   13.88956742146867   7.37125046089276   7.54574492296403
H   12.50052639823484   10.12203249731700   7.96453312235986
38
F:    ...  E:  -0.170663090000005
W   12.46687821136212   11.58245488115585   14.20088005937808
W   10.89753725693480   9.68720293013504   12.87493946751988
W   13.23711535337262   11.00975002614169   11.73678588866131
W   15.89005365499312   10.72858060910173   12.09084332966957
W   14.95443332716825   12.64774789611558   13.39243188509058
W   12.61365154710027   13.73373086329837   12.71335025589354
W   10.54537620173131   12.10544645522990   11.85314987701953
W   14.89766603166992   12.99555389214515   10.82084846929528
W   7.94489311883954   12.12917298928765   11.39309010352111
W   10.87698161220905   9.82329201113507   10.34703424061779
W   8.45562947335508   10.51523584431476   13.38565653276083
W   11.07249088638409   15.10464369999317   11.02084467429599
W   8.64343163203878   13.08424536200032   13.69275939030215
W   12.39452951817307   13.25266502717147   9.99268278497975
W   9.63007066267008   13.68609932774494   9.66112824330530
W   12.88402907120067   8.33760263432259   11.59104793486349
W   13.54177644517905   9.37612315028133   9.42408440634845
B   14.40712440345512   10.50501489242258   13.78394901626855
B   13.05643577383205   9.48010742928122   13.58327126572199
B   14.50270826678024   9.16958953023478   12.74313593294771
B   10.21439098963037   11.57797324340626   14.16721490880100
B   10.86107509342061   13.14688213720344   14.06425516029410
B   10.39184564450612   14.33882366285576   12.96892846229612
B   9.11505265648723   14.10820947302589   11.77214101286010
B   12.26423785105802   11.04883471261897   8.81315841031576
B   13.58285697581753   14.85719906713032   11.03130590017453
B   9.27671092381701   11.44118833330484   9.73940834787483
B   7.53059244193175   9.92649627626353   11.57154798604349
B   10.81572197911655   11.84571671770502   9.31366086611607
B   14.62045294131283   14.58451460154980   12.30884765631305
B   13.78738609699348   11.64070964066811   9.42721811864025
B   8.52169444242724   10.11744895818636   10.30706720868364
B   15.04188253985524   10.83881039285000   10.13442187569136
B   9.04564463634715   9.17604906544255   11.66893165742301
N   14.25447151645120   7.88448742499536   8.30246254365624
H   15.16866266491309   7.43861815103082   8.45398950369785
H   13.81827159675875   7.49122200642821   7.46491661204751
H   12.34796203336437   10.54951242730686   7.69292392699682
38
F:    ...  E:  -0.290265390000002
W   12.46109234664609   11.58844621903934   14.20400084946886
W   10.90687483406896   9.68231423350212   12.85741957331901
W   13.24457244555098   11.00019124805059   11.74995292028728
W   15.88589072121879   10.72361316293673   12.09698905553639
W   14.95633248241135   12.64829071131328   13.39558277367842
W   12.61735802392577   13.73757016620750   12.72685921377152
W   10.53968012312923   12.11448291285950   11.86921247477638
W   14.90107865711530   12.99980931415600   10.82075238077397
W   7.93224679267612   12.12810411402554   11.39453445433778
W   10.86218982320201   9.84648188088938   10.31683768494470
W   8.46181559136837   10.51256538090836   13.38607545504080
W   11.06488593248214   15.11285777942195   11.02846097578317
W   8.63525180024340   13.07825954754266   13.68782483074802
W   12.39717676457950   13.25253331794884   10.03614715546382
W   9.61382643328723   13.70307649789831   9.66925868829098
W   12.89412553716916   8.34761067366599   11.61057951519332
W   13.48885749082575   9.35967984286655   9.42307507619710
B   14.40553850869638   10.51226438918266   13.80882360628415
B   13.05700043801475   9.48735475722775   13.60581470673952
B   14.50883563507975   9.17235699626297   12.77237304903312
B   10.21257980039636   11.58133288697772   14.17933987983456
B   10.85612135415276   13.15269318759796   14.07139630604784
B   10.38858964583532   14.33867271797564   12.96933018653035
B   9.10875364815641   14.10867292591789   11.77179681022430
B   12.24325833716423   11.13425149955699   8.75597769066491
B   13.58198410311467   14.87721959334723   11.05197185439503
B   9.25751814899276   11.45351761138957   9.74289391034032
B   7.53094545238823   9.92310755611846   11.57376292088491
B   10.80631374502759   11.87122733078381   9.38815920087564
B   14.62852087652775   14.58686520575800   12.31329406789533
B   13.76784884513008   11.63425795722081   9.42842185480608
B   8.51254290299226   10.11155348272658   10.29482680098449
B   15.02745756343330   10.84128577055959   10.13630098096352
B   9.04667376271654   9.18107332645259   11.66514363579823
N   14.16936794587101   7.86405718655199   8.29929815972282
H   14.97291217229803   7.27047280047792   8.50174533429740
H   13.77135901451324   7.59648748999368   7.39665964832079
H   12.17426516500100   10.97232298557475   7.54114699527093
