38
F:    ...  E:  0
W   12.69968975136372   12.00004847398499   14.46045385099544
W   11.13848031169569   10.12565602640293   13.15467782088168
W   13.45136176934710   11.42393504672004   11.98184587749654
W   16.14561242948165   11.11084594847884   12.37731363970890
W   15.22276684716253   13.04239119283242   13.63938887165803
W   12.80834406132027   14.13989168936289   13.01213395410298
W   10.71957941414679   12.55010059864598   12.20202114099779
W   15.13904722126713   13.46796426201447   11.11887231312767
W   8.11988358702548   12.61466419134820   11.78579862682775
W   11.01142747550843   10.15567539014895   10.58835180399830
W   8.68699282907757   10.94563031069617   13.77687942419010
W   11.25031739557052   15.57336139286058   11.36778559855554
W   8.87755271025585   13.49650109455922   14.03887083316617
W   12.59366976941225   13.73899850204033   10.30862613890872
W   9.83667548309846   14.13321792749712   10.05843684849700
W   13.09484892554020   8.71409423858577   11.90108175067913
W   13.71163318645200   9.78817370992471   9.85039765359514
B   14.62346725631152   10.92401757974332   14.05508549157815
B   13.28868506860672   9.89843208370062   13.86660848730432
B   14.73049537855112   9.58167923414808   13.02542876380896
B   10.44902794628689   11.99066740413403   14.55361159392394
B   11.09777197363915   13.56927958000398   14.41229596977714
B   10.61721312751111   14.77832693718787   13.33874999463918
B   9.31453663130492   14.61763167713044   12.13314367534501
B   12.47556504712803   11.54733004467296   9.60680878290260
B   13.81297446839552   15.29309439242776   11.33911879772077
B   9.43331710089462   11.88844980682724   10.11295220365176
B   7.68606756223833   10.38738090143407   11.99655771847959
B   10.97806057464667   12.27373136121551   9.71828616190445
B   14.82632445859309   15.00941746002596   12.62923222572831
B   14.03910835794764   12.11396577007685   9.72656375897664
B   8.62751222064586   10.61565208063011   10.71603832604416
B   15.30093419882166   11.29822941434839   10.44256810939163
B   9.22066191115933   9.65346955924393   12.04653682355719
N   10.23817974767816   8.49304173044507   9.22993332472464
H   10.52805199205761   8.63852236313237   8.26052812749820
H   10.62471068391396   7.59883216245060   9.53774085675523
H   9.21458991758066   8.44283725255578   9.26441345053977
38
F:    ...  E:  0.104889619999994
W   12.69039125430827   11.99302351092973   14.47157969313546
W   11.11865248905872   10.11343550159791   13.18803140178832
W   13.43715604119425   11.41389670390240   11.98949370768167
W   16.13095007111142   11.09898947193697   12.38026240617728
W   15.20884520641294   13.03173987118460   13.64104513562274
W   12.79500161931130   14.12396210077408   13.01293175722679
W   10.70135932908149   12.54184598666969   12.21297462670439
W   15.12334005084691   13.45230167207919   11.11616469735820
W   8.10180262909065   12.60233092937225   11.79922562900745
W   11.00458494597875   10.15223711163096   10.63695595520846
W   8.66693949489493   10.94352839194870   13.79198073350958
W   11.23726515191672   15.55351769097979   11.36994807449081
W   8.86366276561367   13.49481670798139   14.05134434898689
W   12.57801977638286   13.72221208146608   10.30459654371697
W   9.81866679514762   14.11479153172800   10.06315703251111
W   13.08327214082262   8.69952930041679   11.91518255436287
W   13.70429496590308   9.77116961519558   9.86271170819759
B   14.61193659259865   10.91333397105536   14.06243241765197
B   13.27509951786512   9.88975745557681   13.87513768520407
B   14.71677608085257   9.57198576410902   13.03371350781354
B   10.43448371001311   11.98461316977248   14.56343602984212
B   11.08579638935608   13.56219993691971   14.42273321132708
B   10.60330295170524   14.76721317899598   13.34359780620338
B   9.29889824500071   14.60271510551292   12.13945314812722
B   12.45950949504178   11.52657555166466   9.61583213572566
B   13.79482222344679   15.27671982614930   11.33679621552123
B   9.41643904038939   11.87192819973517   10.12698484165488
B   7.66918293547183   10.37531800142808   12.01279189541189
B   10.96243253187493   12.25625024763502   9.73016430628267
B   14.81159516301138   14.99409521225421   12.62482079439341
B   14.02401638272647   12.09504251238727   9.72806597887850
B   8.61671978421455   10.59734216995214   10.73508241101587
B   15.28691625098102   11.27990521699291   10.44480364291895
B   9.20284369273928   9.63830232578350   12.07038521389972
N   10.30626140562096   8.55604196627453   9.18391451994574
H   10.78007771973636   8.86515522169615   8.28855149947344
H   10.68820910076535   7.65226959020343   9.42271669996202
H   9.32561485114962   8.53504598774621   9.06613882469914
38
F:    ...  E:  0.17826690000004
W   12.68129486909857   11.98327370821798   14.48017691398287
W   11.10342528762373   10.10028121998182   13.21216105430582
W   13.42384101421541   11.40495991769864   11.99365663224503
W   16.11605075443890   11.08436949943605   12.37906342625599
W   15.19464270408576   13.01919412525240   13.63834483267750
W   12.78271561254661   14.10782850310282   13.01614333144048
W   10.68576145132400   12.53413124215825   12.22166250374490
W   15.10737744688890   13.43804359605881   11.11220525698886
W   8.08538521071995   12.58749548040687   11.81025646754557
W   10.99140038047921   10.15139581695746   10.67858427400142
W   8.64935315782152   10.93687204507054   13.80388143647937
W   11.22385873373959   15.53272304157598   11.37285762508664
W   8.85055982919477   13.48791391585129   14.06212066719962
W   12.56051733999246   13.70303280743221   10.30325471410444
W   9.79746548799362   14.10005957212168   10.06611912440869
W   13.06728747162557   8.68699648507708   11.92057615410397
W   13.69426315179761   9.75863127549541   9.86698747435945
B   14.60032856048351   10.90061422756635   14.06491525482252
B   13.26243716894166   9.87897595117676   13.87972673753620
B   14.70089744926748   9.55992906213409   13.03490136730600
B   10.42188314872986   11.97422363932286   14.56869157972581
B   11.07363240287313   13.55217068512253   14.43124718127679
B   10.59122662745873   14.75459435234408   13.34715033159003
B   9.28408659565791   14.58480920067433   12.14497293248957
B   12.44290424118331   11.50981213095708   9.61280532065034
B   13.77241219929405   15.26080225740462   11.33544583360739
B   9.39779859441363   11.85827891362702   10.13813349895858
B   7.65508592441892   10.36086251483274   12.02443822054719
B   10.94399374656453   12.24379596655471   9.73787560171173
B   14.79617340966612   14.98076870595220   12.61879296659279
B   14.00660794957755   12.07676859887575   9.72697805291705
B   8.60338197253291   10.58004959868609   10.74656003426429
B   15.27106539047612   11.26265369353096   10.44319164179364
B   9.18715832348384   9.62634779892745   12.08649839195041
N   10.41001354653402   8.64661102355986   9.13360825069464
H   11.02156742458367   9.07883395815329   8.43331829419094
H   10.74492920977221   7.69065690018168   9.31637750667926
H   9.43235500213712   8.63637736015976   8.87145790340271
38
F:    ...  E:  0.837552119999998
W   12.67893549944091   11.97152417268942   14.46940369505676
W   11.10451529646491   10.09556664915446   13.17474968056968
W   13.41761157074344   11.39768549095783   11.98401571621731
W   16.10225594058466   11.05615910915085   12.35661299266210
W   15.19485163703949   13.00929030374563   13.62318050793013
W   12.79130533060505   14.10630782095671   13.02468547772231
W   10.68660787367527   12.52732546655445   12.21263851318976
W   15.09486194036475   13.43148658180759   11.11176706563607
W   8.08589122140250   12.57898257528830   11.81139584836855
W   10.96873769506105   10.16077535812903   10.62247941252637
W   8.65271423575415   10.92939883383023   13.79175239357413
W   11.21434098053241   15.52762110842018   11.37587960439187
W   8.85692830530969   13.47582593284585   14.06835899211140
W   12.55327106635958   13.69285936954350   10.32461167641410
W   9.76939021912670   14.10832620416472   10.06741073741685
W   13.03696078763417   8.69543560730227   11.89687375131631
W   13.62083457321427   9.76259056682892   9.82319620977805
B   14.59669561222195   10.88941555439114   14.05103410306520
B   13.25577170313304   9.87083436103183   13.87195054907258
B   14.68384737219933   9.54529593845057   13.01606999072331
B   10.42985565516627   11.96116608401584   14.56185281788780
B   11.07444221437151   13.54049091984466   14.42169333092962
B   10.59563112879141   14.74620506936014   13.34374409528326
B   9.28083364392944   14.57177909002736   12.15391058484524
B   12.41516726568143   11.54672038626764   9.57420376699306
B   13.75716638539925   15.26982061656667   11.34170593526228
B   9.37690687482076   11.85510153014246   10.12590867647523
B   7.65067735984490   10.34827039822557   12.01633950494939
B   10.91469125768317   12.26521116947627   9.71633325080636
B   14.79349767465984   14.98565985731632   12.61425889620836
B   13.99301631042397   12.06571034341745   9.71355469559870
B   8.57707791363074   10.57098654662913   10.72258734908380
B   15.24800802969949   11.24508704958196   10.42792723209513
B   9.18977339491796   9.63552573715105   12.06510389339109
N   10.44133759908919   8.63773279057061   9.15282639157947
H   11.33165660643484   9.20398531906706   8.79323531780165
H   10.75954990229572   7.68354729721710   9.31305452786051
H   9.43952071392951   8.66943158151889   8.89883160684552
38
F:    ...  E:  1.32233625000003
W   12.67648148447196   11.96719971290038   14.46491988743679
W   11.10826902248034   10.10001973283895   13.16198888459908
W   13.43859528164186   11.40517461466371   11.99103178746163
W   16.10400504144027   11.05061023335394   12.35562405125083
W   15.20542987977293   13.01667461744956   13.62115145377934
W   12.80138600891762   14.12606930621354   13.03217374546810
W   10.69553565579998   12.50230926380854   12.19001439010915
W   15.08806884592375   13.44688268387169   11.12185050468704
W   8.10171414744045   12.58053263380364   11.81146671554542
W   10.95417119724362   10.09767726521940   10.48593289830530
W   8.65761898337954   10.93594165769345   13.78191430001092
W   11.22646457560288   15.53798790167591   11.36926392612234
W   8.87133808113938   13.48794843995276   14.07615926202726
W   12.55237970881705   13.69139589106974   10.33303752027586
W   9.78409534684863   14.10386984639878   10.07035833625424
W   13.02191749925293   8.70430850826634   11.89870574126070
W   13.54791794892417   9.75877218170044   9.80806801256922
B   14.60420704585131   10.89461311375260   14.04934995186578
B   13.25961363375693   9.87749205478372   13.86730656582602
B   14.68457069357781   9.54678921709587   13.01057654862435
B   10.44003847944549   11.95683186281024   14.55998977113255
B   11.07732016763206   13.53452107050986   14.40594641237406
B   10.60728636944887   14.75031019815510   13.33898549659203
B   9.29244575644572   14.57544412568349   12.15984625284105
B   12.41822588253721   11.56985939988900   9.56900246715961
B   13.76146403403219   15.28281403625701   11.33775079361319
B   9.38230746497940   11.85228358572526   10.11092887378978
B   7.65641088628477   10.35453269897894   12.00806840818453
B   10.91722181056765   12.26300441582145   9.69744204171148
B   14.79434797042123   15.00018661655921   12.61949544053761
B   14.00031461347958   12.06668129514986   9.71727086551878
B   8.58031320442688   10.57709454930148   10.71632601012504
B   15.26235481731301   11.26007763136889   10.42458302011831
B   9.19971498652091   9.64890705539369   12.06046178297366
N   10.25479381699309   8.59833255931858   9.20730010832658
H   11.65672468815930   9.31041244803019   8.89859667303973
H   10.69968048478436   7.67423625501996   9.29039490721308
H   9.25039327588179   8.52734011115412   9.01185498290841
38
F:    ...  E:  0.55739165
W   12.67683333528531   11.96320266507299   14.46114681680398
W   11.12163881247710   10.10280727382499   13.13846611727831
W   13.46470027911438   11.41770277850402   11.99792017530839
W   16.10851932548385   11.03868590759860   12.34439096786829
W   15.21060595537451   13.00716042434083   13.59236819479470
W   12.81244004783074   14.11842959416371   13.02305890304308
W   10.69965335850309   12.48840637837637   12.19094968526582
W   15.10166073177931   13.47422846370518   11.09047870096829
W   8.09878948704442   12.58978431464974   11.79339828737156
W   10.92055621830338   10.05198301761495   10.38454051620174
W   8.66570961503279   10.93452697464091   13.77250231162445
W   11.23372933365848   15.53806267376003   11.38945503042975
W   8.87219735385730   13.48430565998623   14.06459243227686
W   12.56208600374607   13.68649905397202   10.35226835081142
W   9.75878681195274   14.10916685325484   10.05192645624706
W   13.00248812176539   8.73708079430307   11.88303806883440
W   13.50744575516018   9.77652832532580   9.77741835887085
B   14.60955265312524   10.88895166377745   14.05820912329592
B   13.26354035054153   9.87704916610404   13.87387748107192
B   14.68077942304462   9.54495969812016   13.00669932659381
B   10.45095656280754   11.95589642552915   14.54752565452989
B   11.08508265189700   13.53896288749803   14.40664624044582
B   10.60266568464773   14.74341559380331   13.33451196618833
B   9.30157705942226   14.56056377417156   12.15787214372354
B   12.41563124758910   11.60034046485382   9.60005375872232
B   13.75617267511385   15.31188575233666   11.34938085355957
B   9.38831088120786   11.86344282509071   10.12332341673060
B   7.65452502634771   10.36254510244128   12.00231104324833
B   10.91600016769267   12.28456672629536   9.69874190642205
B   14.80551969661031   14.99901935031285   12.61541466333145
B   14.00515743996155   12.06516647824164   9.71823386102768
B   8.56292573099273   10.59794220888659   10.70566352695755
B   15.28452436317627   11.28438585473429   10.41823654459208
B   9.21048680692044   9.67627430500864   12.05407301546639
N   10.08219530802378   8.50404377330454   9.41628342754253
H   11.99647062274338   9.39228585833867   8.82809324870205
H   10.63162562620364   7.66084030728331   9.28684590560539
H   9.11359826719846   8.40403942241234   9.12522230988227
38
F:    ...  E:  0.526220550000005
W   12.66737055114733   11.95184390644108   14.48116796014476
W   11.11258565225870   10.10332417224420   13.17130973878192
W   13.44811230001898   11.42301137655965   12.01228853784763
W   16.09078250377568   11.03552190153135   12.33048556371809
W   15.20433574854986   13.00063473744883   13.58815243352422
W   12.80202393749193   14.09324923546889   13.02216592754337
W   10.68362143839455   12.48322905313298   12.20503437798481
W   15.08426775230601   13.45557198169699   11.07539982764106
W   8.07927465926412   12.58372924091700   11.81332863837880
W   10.91384321298570   10.04882802703853   10.46172589377579
W   8.64915327391556   10.93182992769688   13.78366592939961
W   11.22216367263613   15.51766868404663   11.38366367078569
W   8.86315378620317   13.48526060060844   14.07050327605867
W   12.54321702955003   13.66682662645441   10.33764512209554
W   9.74915896439248   14.09920105018657   10.05578420476031
W   12.95745193039859   8.71833774800072   11.89114493677910
W   13.59165391213352   9.78908171428066   9.80774361205542
B   14.60236101601270   10.87951651547461   14.05491173942177
B   13.26007045003714   9.86619250975736   13.87719651533603
B   14.66081664690432   9.53728194220767   12.99216719584449
B   10.43439276075318   11.95389750165055   14.56640231546026
B   11.07722471919663   13.53402234589464   14.41680169760284
B   10.59752348852802   14.73543709753133   13.33578382852973
B   9.29106056415967   14.55107688355079   12.15867730015967
B   12.39637964584414   11.55652127782532   9.58101262111471
B   13.73683101306547   15.28395723815246   11.33861496319873
B   9.36777349335848   11.84951706872587   10.14391781521820
B   7.63636850772295   10.34741203732851   12.01939669310331
B   10.89793275152359   12.25566728736350   9.71186991753730
B   14.79417754422155   14.98174792696119   12.60017698729831
B   13.97451276342513   12.06283943267334   9.71210600553774
B   8.53709238117573   10.58342210077004   10.71852396427644
B   15.26158590706819   11.27897400158145   10.40728105426981
B   9.20134272300279   9.67988807416662   12.06395059121574
N   10.13189597686832   8.51624089020748   9.42729081626076
H   12.29052680339510   9.70614916713262   8.60442409564763
H   10.63342673729496   7.64041909846323   9.35002632571347
H   9.18967257265623   8.44780841046698   9.06339669761723
38
F:    ...  E:  0.698569520000035
W   12.66124877737103   11.95123364268036   14.49355608301662
W   11.10348106658782   10.10660646740692   13.20539597493823
W   13.43157901013440   11.41586550672322   12.02019200248732
W   16.08675226054705   11.04551399784091   12.34294439096182
W   15.20408810144336   13.00855921877200   13.60312923736709
W   12.79520709424212   14.08347005726533   13.02447895579544
W   10.67876303737748   12.47016507898564   12.20733269470837
W   15.06490228308518   13.42912941263254   11.08589602761959
W   8.07982313947680   12.57505418672097   11.82983204171127
W   10.90301692491878   10.02728345131390   10.52847137772166
W   8.63464508453729   10.93633507555012   13.79191177376448
W   11.22749012243646   15.48805946175577   11.36412803013781
W   8.86284042847661   13.49981285838472   14.07964380219613
W   12.52611312244041   13.62907624708723   10.31325743451466
W   9.76081377471765   14.07169321512708   10.05244428767437
W   12.95692174180257   8.71194205795224   11.89479151774877
W   13.63965037583834   9.77451656089796   9.81521289248971
B   14.59914052295895   10.88345888825144   14.05223036262730
B   13.25806808042445   9.86313066400643   13.87794835381889
B   14.66160858421326   9.53597855700522   12.99419783939219
B   10.42075252361951   11.95726986937726   14.57891412581905
B   11.06754798296311   13.53525270422034   14.42278792874523
B   10.59798878572254   14.73398151221755   13.33046906823118
B   9.28357203879293   14.54764136115421   12.15571739522237
B   12.37688994107867   11.47428282575478   9.45349979600499
B   13.72702003206265   15.24230401536639   11.31983138979549
B   9.36676085847225   11.82919051911074   10.14525098860013
B   7.62576400449416   10.33738727073364   12.03161436833344
B   10.89918428851761   12.20041980486558   9.71663837657795
B   14.78314833504524   14.97087062041254   12.59441555918355
B   13.95173114514347   12.03756825303691   9.71252053346442
B   8.53368750290481   10.57083276075528   10.73492365609092
B   15.22940614117137   11.24954399845404   10.42171310277881
B   9.19059283244313   9.66772772790250   12.08214868975806
N   10.18988111371838   8.54059586472309   9.39054509935125
H   12.35856792721686   10.10751421823406   8.58334702528068
H   10.64738613727084   7.63517647050925   9.36615295414979
H   9.24910366796897   8.49069438845140   9.01765365355972
38
F:    ...  E:  0.718909020000012
W   12.65945944202607   11.95498734843759   14.50439719158728
W   11.09371214782852   10.10487328253597   13.21994421480202
W   13.42233031076979   11.41309638055485   12.03902554460987
W   16.09865811066614   11.06241982105861   12.38347365910941
W   15.19840957262334   13.01547598062404   13.62700258861364
W   12.78807201945824   14.08053812056574   13.03106282847362
W   10.67324746522896   12.46022333417793   12.21775856332071
W   15.05922094595453   13.41524895792469   11.10463443236591
W   8.08133362452725   12.56306961555422   11.83782201114170
W   10.88698606777959   10.01583225048321   10.57442930611357
W   8.62187509727177   10.93878988838647   13.80091308313582
W   11.22831603291510   15.46298246399495   11.34727627360558
W   8.85903118027231   13.51049014627350   14.08619276949786
W   12.51963560514683   13.60295066209392   10.30712157714867
W   9.75867302017651   14.05275486928763   10.04538308991171
W   12.99053234613160   8.70376526936197   11.90634115471531
W   13.68489573842506   9.71296304221549   9.83541015400655
B   14.59774635757695   10.88749672120051   14.06425646182814
B   13.25428009827719   9.86178448774872   13.88540595678760
B   14.67436859643262   9.53897049837851   13.02133181362987
B   10.40623368950775   11.96037040265368   14.58513099885492
B   11.05940986284364   13.53521686336036   14.42764742374895
B   10.59350110905801   14.72806921184657   13.32610607278767
B   9.27623241881644   14.54006812143612   12.15093585576532
B   12.37226129875841   11.39921223196037   9.34129178008022
B   13.72504299110748   15.21998878019521   11.31838427346407
B   9.37259228186515   11.80845836363857   10.15058883495089
B   7.61590003628289   10.33168663425663   12.03964684245383
B   10.91550684914473   12.16871493118116   9.73594723277475
B   14.77605762094395   14.96560850145863   12.60161779734273
B   13.95221621270374   12.02021217682202   9.72453972442965
B   8.53485878486311   10.55807464046725   10.74832522522516
B   15.22855533551306   11.23784687781012   10.45076375974134
B   9.17556264325988   9.65106189839585   12.10092937130377
N   10.23384313011561   8.55814975965831   9.36783422442066
H   12.28679611540428   10.42977268866352   8.38947433591613
H   10.65728474886721   7.63425640329156   9.36908403451044
H   9.30249988309039   8.52965716368630   8.96770832946380
38
F:    ...  E:  0.603652269999998
W   12.64481527257226   11.94148340246303   14.51728966931100
W   11.08055835702019   10.09026199860111   13.21633010746657
W   13.41604103226773   11.40588722782137   12.05531001888934
W   16.09014297737946   11.04630875856019   12.40656280200366
W   15.18455237229418   13.00301423996948   13.64509438505431
W   12.77634272545773   14.06645233678616   13.04509611629870
W   10.66004034662415   12.44860539357145   12.22619514052646
W   15.06353040826542   13.41182131734075   11.13000767880052
W   8.06897417285141   12.54093323529563   11.84039965900126
W   10.90324497023829   10.02412843703501   10.57216332158948
W   8.60724149169299   10.92719919812866   13.80438482150269
W   11.20493676048355   15.44462145974141   11.35362139032648
W   8.84465530402779   13.49781112717741   14.09348223340692
W   12.51447700491508   13.58878708469532   10.33016954013244
W   9.73632034130671   14.03795801143177   10.04682652925687
W   12.99063485622476   8.69892378473199   11.90119904822649
W   13.65830010957221   9.76297993010852   9.83783961558586
B   14.58255561961490   10.87195129767876   14.07824222152880
B   13.23703911587152   9.84764994275166   13.89316238776817
B   14.66086890639308   9.52894401691617   13.03148193562161
B   10.38820647930262   11.94889224913448   14.58939652544242
B   11.04363758336403   13.52276668471500   14.43777993616787
B   10.57753145330780   14.70975074174452   13.33155592809389
B   9.25839653752068   14.51848691107599   12.15630245946355
B   12.38853119599753   11.41858177241853   9.29135939099744
B   13.71530687206227   15.20810722711647   11.33683484022049
B   9.37306051912350   11.79138294938097   10.15910694979811
B   7.60385525256173   10.31288069123244   12.04197780900784
B   10.91300505903373   12.15823706426165   9.73622835421862
B   14.76201962249969   14.96219340327593   12.62462212027655
B   13.95306480335232   12.02348906904866   9.76852543961135
B   8.52972296961283   10.53821958470225   10.75439943566380
B   15.22090771472570   11.22677110920766   10.47944879901272
B   9.16110092429564   9.62885315339292   12.10802235191432
N   10.27997494778335   8.58613031343407   9.33310318235486
H   12.50190836414945   10.66720200648870   8.24168166344248
H   10.67836156622143   7.64900147431722   9.33176649478659
H   9.36127478165039   8.57847018588484   8.88816848886785
