38
F:    ...  E:  0
W   12.69968975136372   12.00004847398499   14.46045385099544
W   11.13848031169569   10.12565602640293   13.15467782088168
W   13.45136176934710   11.42393504672004   11.98184587749654
W   16.14561242948165   11.11084594847884   12.37731363970890
W   15.22276684716253   13.04239119283242   13.63938887165803
W   12.80834406132027   14.13989168936289   13.01213395410298
W   10.71957941414679   12.55010059864598   12.20202114099779
W   15.13904722126713   13.46796426201447   11.11887231312767
W   8.11988358702548   12.61466419134820   11.78579862682775
W   11.01142747550843   10.15567539014895   10.58835180399830
W   8.68699282907757   10.94563031069617   13.77687942419010
W   11.25031739557052   15.57336139286058   11.36778559855554
W   8.87755271025585   13.49650109455922   14.03887083316617
W   12.59366976941225   13.73899850204033   10.30862613890872
W   9.83667548309846   14.13321792749712   10.05843684849700
W   13.09484892554020   8.71409423858577   11.90108175067913
W   13.71163318645200   9.78817370992471   9.85039765359514
B   14.62346725631152   10.92401757974332   14.05508549157815
B   13.28868506860672   9.89843208370062   13.86660848730432
B   14.73049537855112   9.58167923414808   13.02542876380896
B   10.44902794628689   11.99066740413403   14.55361159392394
B   11.09777197363915   13.56927958000398   14.41229596977714
B   10.61721312751111   14.77832693718787   13.33874999463918
B   9.31453663130492   14.61763167713044   12.13314367534501
B   12.47556504712803   11.54733004467296   9.60680878290260
B   13.81297446839552   15.29309439242776   11.33911879772077
B   9.43331710089462   11.88844980682724   10.11295220365176
B   7.68606756223833   10.38738090143407   11.99655771847959
B   10.97806057464667   12.27373136121551   9.71828616190445
B   14.82632445859309   15.00941746002596   12.62923222572831
B   14.03910835794764   12.11396577007685   9.72656375897664
B   8.62751222064586   10.61565208063011   10.71603832604416
B   15.30093419882166   11.29822941434839   10.44256810939163
B   9.22066191115933   9.65346955924393   12.04653682355719
N   10.23817974767816   8.49304173044507   9.22993332472464
H   10.52805199205761   8.63852236313237   8.26052812749820
H   10.62471068391396   7.59883216245060   9.53774085675523
H   9.21458991758066   8.44283725255578   9.26441345053977
38
F:    ...  E:  0.0603823200000306
W   12.70987063932193   11.99575984868781   14.47652003894536
W   11.12496765153663   10.10088980213287   13.24133518547235
W   13.44469826110398   11.38778270876177   12.00342329122501
W   16.13858010979813   11.07528291083706   12.38105312909087
W   15.22645858490409   13.02301681739400   13.62573609158520
W   12.81062547892259   14.10875657219645   12.98618686304753
W   10.70918546541332   12.51722778072417   12.22352758834962
W   15.13163238631611   13.41533543498066   11.09347099121448
W   8.10314299073818   12.59018270036402   11.83403469411403
W   11.00502412486675   10.12302598609573   10.68095355982079
W   8.68364100712771   10.94741222781453   13.84050877910039
W   11.24805283639769   15.53397699928343   11.34186927313013
W   8.88714584375805   13.50878865742137   14.06217345850142
W   12.57937530617266   13.68579489099234   10.29156166445338
W   9.82476258794966   14.07755913595025   10.06274127493080
W   13.07091866809993   8.67674076120262   11.96345901026531
W   13.69648569618286   9.72055207225389   9.89777850808465
B   14.62916347635828   10.90931055213159   14.07488749491194
B   13.29230605822013   9.88512830835440   13.90701230992912
B   14.72516738652222   9.55636405012149   13.05819821937642
B   10.45419551077621   11.99736058873247   14.58466398726995
B   11.11323884650228   13.56898136041557   14.41631638409385
B   10.62661866931451   14.76068213329292   13.32413468347131
B   9.31525969506952   14.59096901730723   12.13140673331979
B   12.45609527456261   11.48104001514698   9.64819684784441
B   13.81207526966019   15.24237410255607   11.29882108373193
B   9.40955980731916   11.84375971065381   10.16501497219313
B   7.67349820088390   10.36150630877999   12.07932955382729
B   10.95675256748643   12.21407955119150   9.75136328417677
B   14.82843382862858   14.97214796633780   12.58972298237476
B   14.01991541496431   12.04608323108132   9.73067167963269
B   8.62771493405360   10.57475902849300   10.80768663680915
B   15.28751800658816   11.23672619702319   10.44933011314590
B   9.20727661231836   9.61003577957914   12.13575448727403
N   10.27506396844671   8.71689649532922   9.07840659501122
H   10.51660159256241   9.20586112848430   8.20678174049633
H   10.75635409951034   7.80827494599143   9.09332182840171
H   9.25776193328028   8.56471301354275   9.09778377301624
38
F:    ...  E:  0.401808520000031
W   12.72125697982503   11.98489503342403   14.48415216918896
W   11.11583830611913   10.07731987104991   13.31215134493267
W   13.44192395222907   11.36551248842119   12.00788056114611
W   16.13386915732481   11.03765711603120   12.36828400300112
W   15.23109963156567   12.99603234898880   13.60611816305394
W   12.80953782344516   14.07621783082252   12.96685203997801
W   10.69921333227020   12.49846414973887   12.22954580378672
W   15.12809582038017   13.37364577495597   11.06658083889521
W   8.08742278886793   12.56324442462202   11.85430852136317
W   10.99182147312263   10.10066915776510   10.78873370865985
W   8.67605462463447   10.94098248502038   13.87468052166244
W   11.24947801917589   15.49241387313334   11.32563232947393
W   8.88688838142674   13.50292586462686   14.07119951216268
W   12.56773876651256   13.64542932922197   10.26414579784990
W   9.80872441167007   14.04266929286887   10.05304226619075
W   13.06268571476955   8.64354282446273   11.98302435512386
W   13.68092182535654   9.67887845848523   9.91298632400654
B   14.63316378662783   10.88590246559202   14.07138154364252
B   13.29449275795037   9.86250876322386   13.91747972379613
B   14.71821247236663   9.53033612291243   13.05797213645585
B   10.45736662586790   11.99038442097954   14.60255319775975
B   11.11794766520610   13.55775762392166   14.41481330379803
B   10.62275625764113   14.73833638317773   13.31011124286706
B   9.30821757308227   14.55565553244472   12.12169683299762
B   12.43463210734644   11.43437086079829   9.66327108919749
B   13.80548604751798   15.19964581685546   11.26964721057720
B   9.38439315013310   11.81685830090036   10.17800091644281
B   7.66969086124132   10.33688456012925   12.11487558402947
B   10.93880340392342   12.17757948857734   9.77484690454257
B   14.82641820052227   14.93475321047316   12.55872590241080
B   14.00396424812904   11.99651990905184   9.72387015494419
B   8.61603453858240   10.55189206937969   10.84015998270979
B   15.27662480699592   11.18934323886481   10.43851510129759
B   9.20077097062596   9.59650856020009   12.18059344442571
N   10.28110794469745   8.85417607410336   9.06327234254459
H   10.59761634973167   9.69063393353276   8.54216290787517
H   10.86251703089565   8.05879359752364   8.81504170616160
H   9.29235098385991   8.65579753535858   8.80682930268607
38
F:    ...  E:  2.12736154999999
W   12.70632482522847   11.98362788050719   14.47310097294969
W   11.14187004574409   10.13979982683513   13.23036911051487
W   13.44935408866188   11.40400829974450   11.98309992781007
W   16.13862461202224   11.05469210608852   12.35224113648098
W   15.24069931626289   13.00513519526790   13.60367667824030
W   12.80851576035962   14.09968353517710   12.99139715306018
W   10.71395850103294   12.49785014858212   12.22565530997600
W   15.12913236846547   13.42854055696600   11.07551568003917
W   8.10114476893380   12.59299745295061   11.78436268494494
W   10.96508173361483   10.06336672550451   10.51335240834612
W   8.67816804681335   10.94392401299105   13.80848967902759
W   11.25761869659923   15.51601290789727   11.36418420860555
W   8.86949828438495   13.48147313451530   14.04327003418775
W   12.57996532530820   13.67359065887235   10.28269839440637
W   9.81491787772536   14.08690727222180   10.04051933876086
W   13.06176019319837   8.69270583985366   11.90704157334200
W   13.68649543119694   9.73111079638654   9.85055070793712
B   14.62719405981047   10.90082064398594   14.04533711351614
B   13.29217374356415   9.87466743746679   13.87039088533667
B   14.71716896330701   9.55263906442067   13.01991047523156
B   10.45417728310206   11.97485114749209   14.60169723074113
B   11.10182647484002   13.55011458220092   14.40722141745353
B   10.60297212300469   14.74240179669937   13.31823840596027
B   9.30780351876603   14.56937703913679   12.11693330199701
B   12.44694460589103   11.49432288027802   9.65176634357695
B   13.80016562321148   15.24684390640283   11.30866822352738
B   9.38568691959921   11.86219476233505   10.10940273507509
B   7.68551907595726   10.37328947948119   12.02747427153503
B   10.94698599602433   12.23788963989223   9.76483672075418
B   14.82723461080680   14.96287609279496   12.59569190671328
B   14.01523573625207   12.05118652170467   9.70981213719040
B   8.59206633132658   10.59344627514466   10.72685077678815
B   15.28543271865526   11.25199025208885   10.42329988700691
B   9.23505357223566   9.69204101364298   12.08983484960443
N   10.14765087368093   8.42652500407601   9.44599088628853
H   10.87060996333848   9.86058853891637   8.74817017732603
H   10.69487089444854   7.61516655847689   9.16865822296068
H   9.25523582826395   8.40647980464032   8.95542782442576
38
F:    ...  E:  1.70805048
W   12.70506650926497   11.97597950577005   14.48285091838157
W   11.16485255439913   10.16938275937068   13.21256929647185
W   13.47760302197579   11.42629498282395   11.98674210344251
W   16.15492643544404   11.02627942244736   12.36611351139091
W   15.25964120075001   12.98684595239892   13.57690143581948
W   12.79991228091849   14.08419719482490   13.00413424272247
W   10.71327381096038   12.48348917705830   12.23039881050976
W   15.13781449438463   13.43670703052431   11.05197283286603
W   8.10995061142946   12.58941089545022   11.81432762744567
W   10.90279907180276   9.95544000927905   10.36940211753189
W   8.71017676176930   10.91750879353670   13.79279713047999
W   11.26973900294762   15.51415928983544   11.36779360259859
W   8.88816873503906   13.47889842277828   14.06341756456789
W   12.57186577363521   13.65690930641713   10.27394362505121
W   9.81049170003866   14.09836655062082   10.05873659153457
W   13.06481388406629   8.69750063337825   11.89199091050706
W   13.67898712780638   9.72752760154808   9.85364989788910
B   14.62555208008554   10.90032324475311   14.05692491676740
B   13.29076689189984   9.87625110745544   13.86516634036511
B   14.71949609961805   9.54960900494674   13.02884034186059
B   10.45923277929661   11.97025733783751   14.62380425894928
B   11.10217466841855   13.55367787632403   14.42583236629991
B   10.60324528506618   14.73766942759936   13.32927495435446
B   9.30339470430871   14.58378456648157   12.13471654007669
B   12.44809868081957   11.49445287113032   9.68059894098604
B   13.79315226204443   15.22888696556044   11.30820847111945
B   9.36052059062287   11.89865596515800   10.12974904427535
B   7.70499010618147   10.34754233530073   12.02094982249110
B   10.93372228621108   12.24052515232393   9.80269745729672
B   14.82486006141876   14.94636973253723   12.58903105693081
B   14.01860801321342   12.04969767934390   9.71088649122744
B   8.55278872986110   10.60862754492566   10.69165071864058
B   15.27737609598591   11.23080828799745   10.43874998852732
B   9.28019218502058   9.72281313169552   12.02097841525736
N   10.25484896331840   8.33311099196872   9.37602439026368
H   10.59988965464830   10.44916348853668   8.76907650080054
H   10.46345808972942   7.36822665907381   9.63898213949336
H   9.59868758723769   8.31978789262683   8.59525341644497
38
F:    ...  E:  1.60932495000003
W   12.70726745680818   11.97442229278901   14.48548122029793
W   11.15276052760995   10.14020505840365   13.22977362977614
W   13.45685325868843   11.41818180383433   12.00234888728728
W   16.16155051053897   11.05911947586226   12.38657628057938
W   15.22037714723605   13.01066343377713   13.58910110329908
W   12.76358784619805   14.08913691822720   12.96556564413210
W   10.70677644178284   12.45126984543589   12.23524213482646
W   15.12806075967100   13.42030955959546   11.05805584522271
W   8.11655900623885   12.59276515463358   11.81900344624069
W   10.91658304564733   9.91354379481331   10.49761550679091
W   8.68777299106260   10.90821158223547   13.83561322542937
W   11.25147043085839   15.49381906886454   11.31323350704771
W   8.88807997050862   13.48441371627160   14.03788933693542
W   12.53080227283756   13.58287472319453   10.24516430829047
W   9.85155934053882   14.02640653965782   10.02872168229830
W   13.02345292773742   8.69745942638310   11.90884599509349
W   13.75100733879761   9.70032234943314   9.87766204312621
B   14.62833576048514   10.89862509077308   14.05111496675746
B   13.29754357475429   9.86901885948568   13.87273045880404
B   14.72325443801426   9.55329773926039   13.01540851297350
B   10.45241277078765   11.97888933361088   14.60904252997792
B   11.09656199076228   13.56302339991076   14.40759014753869
B   10.59405120591674   14.75344621740403   13.31420450549449
B   9.31467109476195   14.59771798017948   12.08947592385736
B   12.50174835059805   11.41381477601025   9.72650912472001
B   13.74873637296909   15.16992154864946   11.23424663396967
B   9.40861462830822   11.83681918493078   10.23216381231670
B   7.69454801229074   10.34620176562251   12.08023760210721
B   10.92681850054197   12.04709616275844   9.52797799702246
B   14.76048527303399   14.95595865924924   12.55279801327356
B   14.04933268304467   12.01987832281453   9.71924657984768
B   8.58541743583780   10.55684393299130   10.77022819932097
B   15.30146107473726   11.21959366053568   10.46004017609201
B   9.25572216010601   9.65694713245663   12.10872760224065
N   10.28373599374916   8.38617614164310   9.35519334826557
H   10.70226248939190   11.02551120486662   8.71965401177628
H   10.54357696533931   7.41503112912346   9.52086897303186
H   9.45132674344751   8.40820180595066   8.75178587557665
38
F:    ...  E:  1.08152430000001
W   12.72638153946718   11.98561025425695   14.50782889038634
W   11.14384972229932   10.11894238580344   13.31251682075585
W   13.42933038169665   11.40673351678771   11.99828761068780
W   16.14280455769650   11.06165787556026   12.40053079802613
W   15.21436397466059   13.01760123972017   13.59751412558889
W   12.77497771739102   14.09891879851883   12.97731167785611
W   10.69193102938360   12.45247703415324   12.26576781282692
W   15.06634184030151   13.40616697014187   11.04941915700240
W   8.14558614980252   12.57264525644204   11.86295827985269
W   10.94246807946124   9.91106427498007   10.60972630320559
W   8.66660958465950   10.93082435662447   13.82593334771379
W   11.23924172932850   15.49106269843300   11.31666350802257
W   8.89986670129618   13.54291080610093   14.07732361856820
W   12.48428023065729   13.54887096472364   10.24726060848706
W   9.86904648028581   13.95724425409584   10.04988358489672
W   13.01357244616630   8.67731446533521   11.97282885394083
W   13.71987897764739   9.67444486087567   9.91679844768804
B   14.63661238518241   10.90801047123495   14.07219233052199
B   13.30136995765453   9.88965408622746   13.90390851812823
B   14.71519275163066   9.56321766402025   13.02868737395182
B   10.45191289085159   11.98150538398950   14.61434127833864
B   11.11424444187150   13.56088885147040   14.42063829040611
B   10.61857623675464   14.75011815060880   13.32095959776767
B   9.32859238870602   14.60170533794460   12.10954865092367
B   12.45263292803818   11.37292226505707   9.73342470861813
B   13.72762515795834   15.15579534005025   11.22888925422387
B   9.51389163730292   11.76025547170277   10.24971655055284
B   7.69160470359649   10.29800623083631   12.09451138152613
B   10.89527247314220   11.91873104376060   9.24665091816139
B   14.76402715353175   14.95680318647113   12.54165579692508
B   14.01166189676514   11.98401320413099   9.70732681864650
B   8.64712925173055   10.51950097560690   10.84011868929325
B   15.26156415923403   11.20215275742313   10.47391743830248
B   9.23987088545953   9.59340617464111   12.19364460247907
N   10.30629574198320   8.46809516376129   9.37063742858681
H   10.74275631147111   11.29310762944495   8.21289820229716
H   10.62778423813295   7.50407999516893   9.42821462220708
H   9.41599005843943   8.49867939553434   8.85470289427386
38
F:    ...  E:  0.680639350000035
W   12.72932427105765   11.97927552654660   14.51943645626994
W   11.14213240039619   10.08713860249007   13.32475206086423
W   13.41267563004275   11.36228106882461   12.01771552772479
W   16.12764207857780   11.02876901344403   12.39879889100190
W   15.23898509079893   13.00098898726317   13.57519750973251
W   12.79997756181222   14.07849893960629   12.99013015489676
W   10.69503399677084   12.44384449723280   12.28853509160209
W   15.07051228843562   13.35828532665464   11.02916395192208
W   8.14322038569103   12.51115073998912   11.89949349012035
W   10.94023666126305   9.95008288384319   10.62780488197290
W   8.64604459183405   10.94933191636044   13.82841896566953
W   11.21868805422913   15.46113612678817   11.31361286454014
W   8.92442750618058   13.54876122044405   14.12517965923327
W   12.47352051724589   13.52597967233371   10.28783960856580
W   9.82817938568597   13.93115852355344   10.08811616822702
W   13.03694237668151   8.66538171830969   12.01582965797111
W   13.65463732326264   9.63194717649945   9.91393507436942
B   14.64334635110560   10.90115565096961   14.09488444315479
B   13.29998344346584   9.88244487690816   13.94987206333318
B   14.71833955202746   9.53529235859992   13.08575913964404
B   10.45560102954740   11.96825806871055   14.62531564495796
B   11.12566377775344   13.55124437395325   14.44556368831267
B   10.64856732019814   14.73470766722965   13.33622179896525
B   9.32340450769135   14.55291432349395   12.15378717862590
B   12.40311443865339   11.37032101279967   9.66913670302224
B   13.74210912721109   15.13364848708051   11.23209018781421
B   9.55402905668633   11.71654110504830   10.27805202864700
B   7.68078362514430   10.23495994737407   12.10025986484869
B   10.86408925710477   11.97812043158483   9.18745358270385
B   14.79429182345818   14.92963792350896   12.51064635664943
B   13.97337975402576   11.94003970248439   9.73004140420876
B   8.66149950315642   10.46780737047859   10.86265132493590
B   15.22280087695793   11.13794780250711   10.47808939408060
B   9.23418589818238   9.54759211840795   12.22831382176103
N   10.36128728026460   8.53884111014621   9.32741799974265
H   10.64620994110815   11.81360177767308   7.99665545218285
H   10.64898256226641   7.56356010887291   9.39481177341533
H   9.55128954566433   8.62249063362469   8.70415492594810
38
F:    ...  E:  0.637386200000037
W   12.73651421394195   11.97723356660165   14.52951255341046
W   11.13240477713962   10.07431353348016   13.31559200611225
W   13.42170364075434   11.33962814767811   12.02914423311443
W   16.12292599191535   11.00521352728970   12.40441045483917
W   15.22663769774133   12.98901236214601   13.56844059085072
W   12.81451105928488   14.08826215564436   12.99415873125696
W   10.72258028920509   12.39896169989990   12.28888926500486
W   15.09216280566386   13.34742506035487   11.03154931956119
W   8.15103861373409   12.47975951057109   11.88331026541777
W   10.94348931790412   9.93961703535080   10.61125762963949
W   8.65609561118028   10.94097852858388   13.83430486855314
W   11.22599670385591   15.40758992693422   11.26743775002864
W   8.93378182192819   13.54094061299554   14.12917010912942
W   12.50622364180218   13.49158121715640   10.31971474189838
W   9.80426314741291   13.89043808223798   10.02021581170055
W   13.04072494274366   8.66311610727312   12.02626091126429
W   13.65597180997051   9.60968543842785   9.91115540603320
B   14.64206993122630   10.88849502046762   14.10484238787431
B   13.29237775945925   9.86675516550241   13.97233556067320
B   14.71690907090315   9.51701557479730   13.11289721897542
B   10.46572698274875   11.97555233803224   14.60832675143044
B   11.13086439633759   13.55589382480238   14.43011246527666
B   10.64863290661517   14.72215295380521   13.30148442332729
B   9.34019859084311   14.46529183112303   12.14036669512230
B   12.39910582826178   11.35540173876860   9.63026793171183
B   13.74958530497000   15.13399983848827   11.22852453877937
B   9.53515872146374   11.68720015405629   10.32530650616511
B   7.66300595278178   10.21484479154744   12.11484604748462
B   10.87961583023971   12.05224330774611   9.29996006385545
B   14.80934249462146   14.92866476761436   12.50071200746830
B   13.97882196388724   11.91036636274617   9.73631488447867
B   8.63677329145695   10.42740690749214   10.86366779789219
B   15.23183404525385   11.11114683476796   10.47886470115331
B   9.22977843577096   9.52564008209981   12.22505606227756
N   10.37655579621943   8.54568208575324   9.28657469545027
H   10.45739195500873   12.34192961361838   8.15440805900677
H   10.60938267139355   7.55794158727119   9.38270586541465
H   9.65498077599855   8.66775749851578   8.57303948000601
38
F:    ...  E:  0.537553339999988
W   12.72915322505868   11.96326889707363   14.51382438015437
W   11.13006008747219   10.05562867331730   13.29102637044563
W   13.42295727607625   11.31664645210071   12.01026618200215
W   16.12035191423979   10.96950852295200   12.39964518870577
W   15.21775033251615   12.96895212438375   13.55170579120443
W   12.80732988662594   14.09650839462378   13.00024425657021
W   10.73649526630553   12.38412808074894   12.27891136550892
W   15.10089975364826   13.31577674637794   11.03096284728894
W   8.15738934938905   12.48568751549697   11.89168524660994
W   10.92670120080066   9.92558448992189   10.59852762841061
W   8.66939215254917   10.91257364219600   13.88065186785293
W   11.23010807173074   15.38404257641115   11.27722100801764
W   8.92134789763137   13.50069685114373   14.12560935993064
W   12.53714111361828   13.47864366326971   10.32545477159402
W   9.80881997910556   13.86628823049811   9.98520601301312
W   13.04749705587926   8.63474977120431   12.02411610987234
W   13.63257507467862   9.57901657352755   9.91001629405985
B   14.63631981891506   10.87338470790621   14.09001408368146
B   13.28584374117464   9.85183323771486   13.96219615984584
B   14.71689616797211   9.48642471663552   13.12052232704340
B   10.47215402504658   11.95852097486211   14.59841296887681
B   11.11905026226500   13.53967940580253   14.41324835002918
B   10.62861748423674   14.72236280985224   13.30668638008170
B   9.33789994483647   14.47437007077286   12.13756078608038
B   12.39774552096159   11.34007730579833   9.61534569899688
B   13.75807996614679   15.12083274081897   11.21799593160996
B   9.48638723729534   11.67317796539537   10.31517850798666
B   7.65919266053011   10.24417159569004   12.14376555507957
B   10.88733886998869   12.07706000165460   9.43985405706431
B   14.81424449039647   14.90933382395470   12.48868676466505
B   13.98187091835501   11.88290602702437   9.72177954715123
B   8.59470162729526   10.42421457907242   10.85434979921116
B   15.22678702545126   11.07768338367302   10.46800952841847
B   9.22001712437446   9.53931390974968   12.21196733131287
N   10.41427807585992   8.53624497580186   9.24360760278657
H   10.39878476839187   12.82279842448440   8.40060759264694
H   10.61464323484606   7.54202349841095   9.33553126138131
H   9.78831618997408   8.70102343131604   8.45474387644753
