38
F:    ...  E:  0
W   11.80971203191062   11.81091185226250   14.11482040358389
W   10.25506332690655   9.91854360218220   12.81636947932343
W   12.53895724986739   11.24437810236802   11.61237755398704
W   15.29316758943711   10.95382492173412   12.04955949714285
W   14.30127518535889   12.88324880639708   13.34076587976254
W   11.88375818847557   13.95572597715502   12.69080813038546
W   9.84248509049257   12.34460451396931   11.84719048330477
W   14.25119616826652   13.26125694645608   10.81622281630517
W   7.23810888219048   12.32083461008476   11.38200486745443
W   10.16283021638314   9.98385927174462   10.25248253789708
W   7.80761621344512   10.70104493350645   13.39568142717374
W   10.31594493242166   15.36285217089875   10.99502785844185
W   7.94564627949500   13.25219071712118   13.65108484281931
W   11.70218142554364   13.54615071119470   9.97462134254248
W   8.94601081473722   13.88086580872639   9.68634609271917
W   12.17660258257335   8.50805428368768   11.54928278766170
W   12.79266965695174   9.59788861094252   9.50733787041833
B   13.73511415536305   10.75361019806043   13.66826071209797
B   12.40976832796709   9.71563151494832   13.48945428640752
B   13.85263453805137   9.41974908188598   12.61800782500657
B   9.55170388118728   11.77073745410941   14.19238675264777
B   10.16882947557550   13.35450483025273   14.06363507656202
B   9.68435087037971   14.54358461297137   12.96725558921855
B   8.39491090195265   14.34679084151925   11.75213873616626
B   11.61905575435352   11.38145623250732   9.22615286950694
B   12.91047618174899   15.08914256082168   11.02528897378922
B   8.56090423231244   11.62135713732522   9.69880670044573
B   6.86235794905675   10.11515774137673   11.58672363495062
B   10.10261524907390   12.05997032742364   9.33949753063283
B   13.91558722737118   14.82633271044060   12.31320954760342
B   13.18140254343179   11.93832565664338   9.37316174603424
B   7.81787052043494   10.28776718290250   10.28258600411396
B   14.41360357002913   11.08643467626633   10.11905693781484
B   8.38336711357839   9.38981876876417   11.65967300066108
N   17.43695533498298   10.19366414220856   12.13820191091999
H   17.85662378193342   10.18185507624425   11.20273255398433
H   18.02220836490574   10.79317584279208   12.72892569250308
H   17.49157298349184   9.23983636174304   12.50799883964801
38
F:    ...  E:  0.0367800299999885
W   11.81438409344459   11.82859309304163   14.11572402963673
W   10.26648750871951   9.93111196783284   12.81907712434443
W   12.55337829282560   11.25775380945561   11.60948204551555
W   15.28678051676528   11.01822532492151   12.04846237811298
W   14.29479354973562   12.92603139605275   13.35827505226506
W   11.90982884646655   13.96671126792337   12.67046340030181
W   9.86328516126269   12.35489682180745   11.82860924581110
W   14.25996766159651   13.27373282687518   10.79773174478619
W   7.26354003567646   12.34215137397714   11.36598821493196
W   10.18433422911343   9.99125608845448   10.25263771957581
W   7.81921837899548   10.72352873297408   13.38133222755330
W   10.35307101954282   15.38102764605372   10.97027010097396
W   7.96580284222959   13.28348381495171   13.62882446979508
W   11.72518486415458   13.55227428118752   9.95207487164294
W   8.98086477512050   13.89118664893854   9.66387759128903
W   12.21206815364323   8.53159129687343   11.56083080762344
W   12.81142299270190   9.59964597554569   9.50154871409415
B   13.74558693889616   10.78877137253236   13.68500445586843
B   12.42608818698496   9.74041012543023   13.50164545607310
B   13.87251928817841   9.45814784089450   12.63136496953073
B   9.56044768176253   11.79601759868564   14.17408520844016
B   10.18814379129177   13.37607936850025   14.04126153013851
B   9.71257524817459   14.55980051192408   12.93739023644189
B   8.42753975689039   14.36778590582000   11.72514337018648
B   11.63909533296911   11.38123319313565   9.21631057844495
B   12.92230370524939   15.11205478085946   11.01296530330531
B   8.58725029443453   11.63131317486355   9.68690641456251
B   6.88011408849607   10.13661839508100   11.57174346127199
B   10.12819481149144   12.06257966932401   9.32264082917502
B   13.93878898515738   14.84661281054626   12.28932659444998
B   13.19973792342534   11.94102577342012   9.35491057488222
B   7.84144071585194   10.29948314487586   10.27268306785413
B   14.42388967703632   11.09418028926467   10.10522127336105
B   8.39851725476573   9.40343893132843   11.65482355917009
N   17.31086916577695   10.08852112058379   12.20841156866480
H   17.80326347446945   9.99891606054484   11.30518092781284
H   17.95820444753977   10.56182400498021   12.86196588319489
H   17.10615510080214   9.13712235217710   12.55094379055409
38
F:    ...  E:  0.277530399999989
W   11.82749982827438   11.83134771851445   14.11364534222455
W   10.27115677281906   9.93301350963392   12.82010499008852
W   12.56729533237529   11.24069038096123   11.60903067190472
W   15.28034114697528   11.06009692896490   12.04166076374704
W   14.29386325960448   12.93441749891453   13.36562427010849
W   11.93988540468555   13.98083478387557   12.67058085002703
W   9.89020757450208   12.36200653319146   11.82311064490420
W   14.26235861856412   13.27690152222631   10.79095434681424
W   7.29022074694289   12.35364749568743   11.34715660079858
W   10.19630940174917   9.99333852279144   10.24506821174412
W   7.83271934198497   10.74087708804503   13.37104046945344
W   10.38639359280373   15.38006203513159   10.96074409889637
W   7.98963200210846   13.29625642643522   13.61796724665655
W   11.74893084244571   13.53776301115735   9.95837584566505
W   9.00603292685258   13.89037513178528   9.65253174374132
W   12.21642378577713   8.52859317900004   11.57185102828696
W   12.80976102209323   9.57684371114215   9.49899547737705
B   13.75386620344311   10.78195010069481   13.68763136642503
B   12.43232217940355   9.73428957411754   13.51389800610838
B   13.88113950585621   9.45463140464618   12.63241384599758
B   9.58290156757243   11.80636997841558   14.16596722377160
B   10.21040193385935   13.38623430600642   14.03225846407235
B   9.73807184382860   14.57291853732325   12.92752061997447
B   8.45623197264871   14.37399679196526   11.71403256728163
B   11.65851593357607   11.37060109204686   9.20272016993683
B   12.94376052011633   15.12499333475145   11.01429677894498
B   8.60840654613281   11.63168680401411   9.66947417896979
B   6.89302037200708   10.15515322398259   11.55991631981849
B   10.15195624824725   12.05842150632321   9.31765957053996
B   13.96946124868020   14.85427596974070   12.28128527806496
B   13.21520450334272   11.92745937988849   9.34937950864584
B   7.85245002047016   10.30688039432149   10.25519336437903
B   14.42888863863000   11.07508870224870   10.10281100547633
B   8.40939613726335   9.42167136555646   11.64085738928292
N   17.26156305636765   10.10905520905325   12.21915042083858
H   17.82101651078288   9.79831323874423   11.41860551899747
H   17.88574832034454   10.45507713771497   12.93906536998704
H   16.67178392850700   9.31900526262561   12.53255922168403
38
F:    ...  E:  1.11359756999997
W   11.84718482532869   11.82371163868310   14.11336369454946
W   10.28312162247725   9.94345625105914   12.81167592946814
W   12.56258983734360   11.23856963436988   11.60990720349304
W   15.32919625274613   10.96342762063617   12.06180915371349
W   14.31648270432050   12.87464175583690   13.35251274171718
W   11.91566804662383   13.99313040404428   12.71381079007212
W   9.88828023902054   12.36491470327852   11.83237732421695
W   14.26487894941094   13.26573472112331   10.82792029504955
W   7.28861660148094   12.32954618635078   11.35093593584709
W   10.19441925530828   9.98263820812234   10.23901977988801
W   7.82749246741287   10.72047708972774   13.38930705838323
W   10.36844967550519   15.33640689094890   10.99292435144012
W   7.97793834818544   13.26218659281532   13.64102979736608
W   11.75320639761283   13.50852110686785   9.98692881030371
W   8.98131832395375   13.87154762188302   9.67093540828987
W   12.15558717763897   8.47403208126473   11.59259737546953
W   12.79999920038738   9.54974937849320   9.55698731994167
B   13.75060662778980   10.73588450285670   13.66275877947714
B   12.42898949346073   9.70300380255988   13.51017610462111
B   13.85522920356483   9.40626469865353   12.60529248615854
B   9.58590572462245   11.78265853389676   14.17039820244123
B   10.19561221198711   13.36671025458726   14.05952888932610
B   9.70828063975183   14.57501351432821   12.97691836154699
B   8.43400825612026   14.35133653374368   11.74341460195771
B   11.67249851887681   11.35850221483208   9.20192749688749
B   12.94847895822831   15.08048119010526   11.03164036247736
B   8.60262703965203   11.61276782526954   9.65964816029076
B   6.89178106487060   10.13698444309697   11.56820017773128
B   10.15317278071084   12.04285268850929   9.32774441151198
B   13.95116552330294   14.81770049781107   12.32745087185250
B   13.23199860038011   11.90516428366361   9.37312405295877
B   7.84139960243752   10.29517456919694   10.25025031730286
B   14.43485804468600   11.05126531974734   10.14908489251029
B   8.41417227476325   9.42920006095235   11.63835861164348
N   17.36227560985262   10.41502672149794   12.03775983187980
H   17.92788084643105   9.83562044715981   11.40050525336120
H   17.97588464831526   10.70240353339260   12.80878203831681
H   16.51388319707687   9.52843127027317   12.38813191817470
38
F:    ...  E:  0.82769012
W   11.85402726225097   11.81598963460887   14.10219494058240
W   10.29462186275554   9.97152362591571   12.80890301851402
W   12.55575896347249   11.27498839458287   11.60060499537436
W   15.45419738138041   10.81257552772733   12.07539644962889
W   14.35850310917789   12.84146562946345   13.32192779843488
W   11.90643529866038   14.02114278520286   12.71872047443569
W   9.87160426729753   12.36971426868466   11.82064053779262
W   14.28256298960344   13.26488286860757   10.83348086382239
W   7.29246344467584   12.34268301264220   11.35133555924406
W   10.19350770767240   9.98440318678206   10.23396548269124
W   7.83862214565043   10.71975158340577   13.37968686373474
W   10.37806675070043   15.33859771984067   11.02121438863649
W   7.96871552155230   13.26453803498716   13.66734152598331
W   11.76393867799586   13.49715960213316   9.98637473268453
W   8.99173140485417   13.86233491460513   9.67626378625330
W   12.13999151452687   8.45716937582527   11.59452579312171
W   12.79261762094987   9.55091954785314   9.57246777833835
B   13.77078342380403   10.73711390311042   13.63460460824574
B   12.43047557926946   9.70579179226393   13.50568963320470
B   13.83021138931998   9.39654489085338   12.60046995314633
B   9.57311035539516   11.78836834240312   14.17603777045437
B   10.19642922947815   13.35869434191568   14.04810233617800
B   9.69191653978448   14.57765916952216   12.97821354847295
B   8.42922862590954   14.35366560544779   11.75161559368529
B   11.68070033264419   11.36056330619494   9.19675186334349
B   12.95088702182823   15.06594488460893   11.01558200126802
B   8.60294079221132   11.61481189803631   9.65343481964230
B   6.88970819753658   10.14332520079225   11.56772565360098
B   10.15982227457698   12.03578608519991   9.31972375152560
B   13.93764779029862   14.80189793685572   12.34475785270736
B   13.24666171254959   11.88901551012999   9.37217161366477
B   7.84475563087395   10.30247305986433   10.25619611652351
B   14.43864343120172   11.04437134520368   10.18695698322149
B   8.41101827617410   9.41842898219085   11.64363073290498
N   17.51458348142430   10.72649851819865   11.89408878208235
H   17.92151734321953   9.92017063283671   11.39949973416907
H   17.99158774192585   10.71058955542898   12.80291036998809
H   16.18514369903632   9.29358411771323   12.52193008433479
38
F:    ...  E:  0.364154819999953
W   11.86707322164197   11.82032064541707   14.10769741639633
W   10.29570142192351   9.98144495220211   12.81065815021509
W   12.56552091054835   11.26361038036758   11.60198683280536
W   15.47009555310554   10.84269337783534   12.09048263440921
W   14.37099409913339   12.83492275786291   13.33173296775067
W   11.91810276849864   14.01689392605671   12.72195146054446
W   9.88936539314772   12.36528022055237   11.82418432015786
W   14.29596624995967   13.24789949922270   10.84634457639209
W   7.31219058103676   12.34099822127523   11.34649882619608
W   10.19818606165584   9.98283478900704   10.22342080791463
W   7.83688145340618   10.72229999096630   13.38920367376249
W   10.39416997782144   15.32212451886916   11.01601644219102
W   7.98333338572534   13.26834676704391   13.66025261733351
W   11.77677124212969   13.48473688645392   9.98692817032319
W   8.99583247391211   13.86478584804160   9.66735836544694
W   12.13416712805917   8.46778676267358   11.60266603167825
W   12.80713100555919   9.54199781237496   9.57667437058569
B   13.78185182770872   10.72805874385647   13.63380189920743
B   12.43563986294752   9.70320441437650   13.51515829721176
B   13.84918901670625   9.38926846555522   12.58961595274875
B   9.58207567878605   11.79098392790047   14.17271781002565
B   10.19895728539393   13.36546813281368   14.05112798714194
B   9.70404366155880   14.59025716607468   12.98628182312073
B   8.44662782140652   14.35552611220245   11.74946991741009
B   11.69762278303395   11.35177846617500   9.19533470846404
B   12.96430498099739   15.05617729328299   11.01964799303697
B   8.61768016237615   11.61323249100520   9.64484829554224
B   6.89937246866527   10.14873627625248   11.56754015142091
B   10.17337013348851   12.03271735996528   9.31695995201191
B   13.95434174888882   14.79662106553620   12.33897580671532
B   13.26805877765662   11.87719568689210   9.37682829532968
B   7.84975612587124   10.30365979542067   10.24759705789521
B   14.45216534195253   11.03127181619647   10.20244524938798
B   8.42155033068484   9.43408346771241   11.63701806164424
N   17.49020439898984   10.72632302657630   11.94871516275989
H   17.93724956866443   9.91473534801153   11.51179514520963
H   18.06949528300706   10.95294373615274   12.75663994384757
H   15.73009860558988   9.10391864345771   12.36856161740189
38
F:    ...  E:  -0.381519670000046
W   11.88481478820860   11.79575869482631   14.11018220775530
W   10.32531526515752   9.93490164697653   12.80735910207105
W   12.61461037144627   11.22819829168797   11.61894599549774
W   15.50471315593034   11.03113879673747   12.07339471387066
W   14.37379131310970   12.90250184216076   13.35559700066625
W   11.91236989727439   13.96703484717890   12.71435777304117
W   9.89057472984211   12.33990308683723   11.84073361412305
W   14.27820624488844   13.26758362190222   10.82815580337843
W   7.29441445561350   12.30158299152652   11.37496743260179
W   10.20021272392288   9.96828936153377   10.23366297748113
W   7.84849454026866   10.68671483012045   13.39816175567621
W   10.35703278948004   15.32118753359710   11.00270121124797
W   7.98858147121571   13.22764712977857   13.66328533185664
W   11.74814199578814   13.49511878575807   10.00025648633697
W   8.97172709656469   13.85926610760992   9.68947883053204
W   12.20802611630597   8.50260893362136   11.58031149712916
W   12.82043525410544   9.54861730042823   9.53409751997509
B   13.83017764586768   10.77457585310538   13.64121932267311
B   12.53247049196198   9.68904028146549   13.48956375668214
B   13.99419075687033   9.43842686580592   12.56076744724955
B   9.60934053118801   11.74792582111372   14.16901444063948
B   10.19748384905112   13.33619598390374   14.06444415162215
B   9.70949201895645   14.55684996224596   12.99701535796567
B   8.42581647311473   14.33840011136276   11.76742172536976
B   11.68359792869637   11.35371125070666   9.22352373545580
B   12.93597427018211   15.07512638627469   11.04134626181469
B   8.60515883379457   11.60022069712606   9.67541022059829
B   6.90803791837107   10.10348468561137   11.58439480807541
B   10.15428061705064   12.02842230508620   9.33750419027137
B   13.93476126092400   14.82370542327635   12.33077238845252
B   13.25684119141874   11.89333436078492   9.38665461144061
B   7.85113482866217   10.27709548889499   10.26432538914958
B   14.46380240363913   11.04237613372987   10.18239834028718
B   8.44154656531644   9.40816034578432   11.65077112098361
N   17.49590804103050   10.72015495256025   11.95598051530480
H   17.94595571184304   9.95394986325700   11.44143434825288
H   18.14960002193041   10.96715323330866   12.69827836132406
H   15.28810522264779   9.12877498395397   12.34724904478498
38
F:    ...  E:  -0.697222100000033
W   11.87122156535066   11.79104129094651   14.11602241568546
W   10.30561446711046   9.91542795541164   12.81265899706246
W   12.61909304297578   11.18183018541739   11.63112652970754
W   15.45814609377247   11.03844043538074   12.11443773723965
W   14.37907192732835   12.91420365947828   13.35304893163665
W   11.97464487302668   13.92609866858551   12.64814332168367
W   9.90624138045778   12.32686443569096   11.82714145497573
W   14.30290236372910   13.25373517329363   10.81538010685436
W   7.31094187479649   12.34350707198865   11.34367318352051
W   10.19600417099121   9.97650705183121   10.22300984153858
W   7.86530184531614   10.71965739313530   13.37962634689716
W   10.41329903335915   15.36815271882579   10.95678112436916
W   8.02623983393033   13.26073014202321   13.62589834639371
W   11.78194849795005   13.51406846424773   9.97882741957431
W   9.03095296606472   13.88838017069346   9.66122755785672
W   12.20570482518375   8.53462261491048   11.55226850105862
W   12.81393953906627   9.55631737083603   9.48334759409173
B   13.80959759791756   10.78018238259017   13.69978326946351
B   12.49672972960402   9.68529895870428   13.54902183555102
B   13.94293677256718   9.45032908964307   12.62666268686989
B   9.62613057400331   11.76476507898858   14.17767337581471
B   10.23994626783967   13.34227885520688   14.02327769043535
B   9.78320320696837   14.53077941599081   12.92176486989610
B   8.47926005592225   14.36298906271567   11.72518841231135
B   11.68872433315310   11.36307473240947   9.25300628747368
B   12.98063653063885   15.10576128690687   11.00679019992703
B   8.62003720495609   11.62846026776150   9.66588668949717
B   6.91306336653727   10.15029744993829   11.57726577353990
B   10.17150920643209   12.04822049351647   9.32565495809517
B   13.98417439207059   14.84968088876817   12.28485387157985
B   13.27144584040858   11.87827397747866   9.39981528250662
B   7.86341741882690   10.30865825675361   10.26284057585136
B   14.47470426878299   11.01867391990060   10.18621983839624
B   8.43227791269220   9.41440754666729   11.64465514837165
N   17.39880520825406   10.59640419181091   12.14333904271368
H   17.83339356104404   9.86236240429589   11.57948265334098
H   18.10020054321418   10.96514435809179   12.78336875546386
H   15.06367649939560   9.01951137080378   12.27596816439122
38
F:    ...  E:  -0.76940159000003
W   11.86832015160995   11.79721324376954   14.09670626742689
W   10.28787964737695   9.92652617368448   12.80936281553081
W   12.62514465457204   11.15963920894855   11.62739413207008
W   15.44504218624539   11.02721481845034   12.13110036670647
W   14.38569850772236   12.89885060976071   13.35172254030241
W   11.99235584296858   13.94520895748015   12.62743027131612
W   9.92368568458689   12.34096847560117   11.81875589394462
W   14.31761136166720   13.24182364315229   10.81050501511313
W   7.33035711292899   12.38914314865693   11.31377946296818
W   10.18573539878445   9.98868019474791   10.21686622807150
W   7.86400811116319   10.76160939281175   13.36734610870879
W   10.45864770384062   15.39144078860366   10.93330035662482
W   8.04048170427130   13.30143621125937   13.59369785431623
W   11.80394636752191   13.51867304553972   9.95723308348935
W   9.07261157058313   13.90935051056819   9.63689341951911
W   12.18031681621239   8.54533817296774   11.54070574477720
W   12.81891497884574   9.55435670781667   9.47760835763476
B   13.81025657709409   10.75876386846075   13.71896101864730
B   12.48094192547568   9.68431263918119   13.55406772186234
B   13.92282323245294   9.42299559261478   12.69271825661582
B   9.62846837905984   11.80038004483120   14.17337823998344
B   10.25975980992100   13.36796192273909   14.00155597062037
B   9.81210497211562   14.55658720719976   12.89424480654599
B   8.51516315782257   14.39515728972821   11.69256664898135
B   11.69862496053994   11.36046642873664   9.24779264823875
B   13.02007725889045   15.10132031588578   10.98060913379188
B   8.63461951449207   11.65106152591763   9.64628662674471
B   6.90829879190506   10.20400623161907   11.56286803719475
B   10.18896364766352   12.05605557316082   9.30220827467621
B   14.01122316790655   14.83783989608075   12.27320837794069
B   13.28189235451369   11.87220772850213   9.39834406678584
B   7.86288321146305   10.34024758703252   10.24678263711552
B   14.47771687247458   11.01085236923761   10.19152330219334
B   8.41708514007198   9.44895095627600   11.63521220105547
N   17.36785795204297   10.56146864123411   12.24325396664453
H   17.79852921275097   9.80696843987812   11.70649373335846
H   18.07075844422853   10.99392230458592   12.84087251145076
H   14.86633240785168   8.70613892491858   12.32178269266405
38
F:    ...  E:  -0.804332250000016
W   11.86883817029150   11.82029585833017   14.08858231633106
W   10.28543240988389   9.93199064352173   12.80379735687966
W   12.63560546917949   11.15674672196031   11.62510825808392
W   15.44582655273596   11.01715807377964   12.14623858671662
W   14.39520125771518   12.88620900349791   13.35261821916589
W   12.00388859427483   13.96808835618380   12.62133756398600
W   9.94413011204187   12.35527683507043   11.81206020203031
W   14.32913493880269   13.23539532662391   10.80683909081518
W   7.34881517828568   12.41468838215395   11.29094775290986
W   10.18861788843950   9.99193109775159   10.21576413640660
W   7.86715710987122   10.78947767502960   13.35933830553210
W   10.48168690211743   15.40377442143141   10.91789341923252
W   8.05093492378814   13.32832557581235   13.56846201880913
W   11.81920118327367   13.52107884493084   9.94684874198376
W   9.10052688576232   13.91808292555118   9.61660291931208
W   12.18982639882475   8.55292599119545   11.54567170031867
W   12.83529285684373   9.55219850595462   9.47688243095636
B   13.81145409259071   10.75053361853754   13.74170325332892
B   12.46212264088715   9.70899194484397   13.56123095047391
B   13.92281691805050   9.41251578450220   12.72129321543248
B   9.63347853032609   11.82910700215696   14.16316791171343
B   10.26916991602876   13.39614437053238   13.98880171456085
B   9.82442404175198   14.58641634532276   12.88004060092120
B   8.53861256588079   14.41510728932243   11.66735042246522
B   11.71008418021939   11.35490812082357   9.24461126017082
B   13.04686495693020   15.09464265114157   10.96743424295003
B   8.65011125239606   11.65765077852236   9.63271727158278
B   6.91202326053065   10.23479323137677   11.55399015881189
B   10.20493709992571   12.05786426582470   9.29392956468345
B   14.02954950101282   14.82957137259618   12.26974471170321
B   13.29227544473039   11.86876959522239   9.39470233595481
B   7.86831885244369   10.35319120132236   10.23467289362596
B   14.48782648812532   11.01129860444422   10.19348319780023
B   8.41473763868390   9.47170182402270   11.63022872573490
N   17.36007890571330   10.54377772272720   12.30536525405564
H   17.79275813268085   9.77262876587438   11.79338588173754
H   18.06032039009364   11.00016509040328   12.88933027295670
H   14.55305715050491   8.44171497334010   12.31296193150487
