38
F:    ...  E:  0
W   12.43542529988680   11.30023659484479   13.82762286058801
W   10.79171530022532   9.38617129245728   12.69810811535052
W   13.08015783782059   10.58031279967133   11.32867128741383
W   15.79668648398979   10.16585876472855   11.69022571486504
W   14.96548225161349   12.15991887534358   12.90641821334502
W   12.54138267863567   13.52780429376145   12.50786313813476
W   10.47806091730564   11.80161708926073   11.64496303218186
W   14.81550210086834   12.51125675088608   10.41394824762735
W   7.81534426277515   11.78465956811455   11.21009934319898
W   10.64870051802280   9.30691616335912   10.14129407189592
W   8.38656532451235   10.25100008233652   13.31121486567655
W   10.98886608953615   14.70700947644881   10.66816182726444
W   8.56987577849555   12.78094401752693   13.43917809241363
W   12.27945096438987   12.82033903405524   9.67791733015148
W   9.53521128925178   13.19026508442292   9.44550719393414
W   12.57257974223486   7.78932346554043   11.46906123734885
W   13.28593942020593   8.82229192146708   9.42280144785727
B   14.29717107393650   10.10507843846672   13.40440732382866
B   12.93375872747549   9.14098005845842   13.29743395646571
B   14.31099932336795   8.72403576472547   12.39821599084843
B   10.18647515128940   11.29082103055320   14.00829486724165
B   10.81043826054605   12.85884061959893   13.81359035519941
B   10.30903045393033   14.01652659978750   12.67158940229552
B   9.02341672267182   13.77517297706713   11.48579430305280
B   12.11648953672158   10.59648648856702   8.99066868689072
B   13.54263912003749   14.37374020514012   10.62066855314003
B   9.07341485859119   10.96624214515349   9.54213810541806
B   7.39071048720916   9.61596245824541   11.54737168161599
B   10.62973302670764   11.33184076183039   9.14846769011644
B   14.64083871259098   14.10353933822343   11.84903686585529
B   13.67847019431858   11.14761450391212   9.04747267127888
B   8.31757862336638   9.68491317692419   10.21095500542330
B   14.96044947506542   10.33819808394448   9.75605708111421
B   8.88265567210614   8.84540144242618   11.61592385575259
N   12.84625911991026   15.25423878378220   13.94671997540267
H   13.17746598200756   16.06157028935441   13.41385249707630
H   11.96885981323613   15.49123497410689   14.41512910438708
H   13.55133819678224   15.02677537714528   14.64829479998695
38
F:    ...  E:  0.0346351599999934
W   12.44780146433361   11.29393755231856   13.83017566451013
W   10.81047151133560   9.37672070617702   12.68405794092363
W   13.09882606109258   10.57666162092567   11.33118077145251
W   15.81920650017106   10.16311803401201   11.70333365597966
W   14.97934303645798   12.15942826467217   12.92238979387782
W   12.55451945711952   13.51678347611450   12.51278629627604
W   10.49305247854662   11.79884704085699   11.64418765604510
W   14.83759600331641   12.50091082416454   10.42887487866432
W   7.82684302843436   11.78261098200781   11.20815092937847
W   10.66719145570851   9.31414463200057   10.12803607492871
W   8.40252727857101   10.23981953102147   13.30135948922010
W   11.00057151989060   14.70667560124201   10.67299043125619
W   8.58247045609944   12.76907269018095   13.43870509090290
W   12.29988830053543   12.82427567411791   9.68568260030217
W   9.54961311549432   13.20109076589815   9.44766117168197
W   12.61286801214084   7.79380755974584   11.45577317901571
W   13.28934346696749   8.82295708062018   9.39961637924913
B   14.31247183177596   10.10523996682028   13.41114603001328
B   12.94888476768891   9.13882703290547   13.29550442935154
B   14.33672201052038   8.72130747708385   12.41279645066203
B   10.20115251820388   11.27815739386769   14.00325405818328
B   10.82102183893248   12.84880205074078   13.81825702458174
B   10.31824763846689   13.99770066017633   12.66866871639766
B   9.03129835079241   13.77295694347855   11.48787191461345
B   12.13485519791316   10.61050950661147   8.98891915055541
B   13.56805034721974   14.36661667635158   10.62976331356147
B   9.09154087659662   10.97711036035575   9.54156882244357
B   7.40776534352696   9.61024215974899   11.53511135306802
B   10.64711537197247   11.34390364974758   9.14600326304837
B   14.65675137745507   14.09760770223991   11.86414319790337
B   13.70093383194048   11.14988244638556   9.05086464814257
B   8.33380049572844   9.69068237425465   10.19884629081621
B   14.96980120494514   10.32382159909368   9.77051721226746
B   8.90309021547005   8.84481736445402   11.59843446581024
N   12.73631534715362   15.27080591871858   13.93855641697228
H   13.18746123510596   16.06210531318824   13.47618076551448
H   11.78780781473390   15.54212548423015   14.21503039865530
H   13.26791802928166   15.04105467510829   14.78873886541137
38
F:    ...  E:  0.126571109999986
W   12.46655267257511   11.29355924908445   13.82526460510399
W   10.82790069342695   9.36563256375172   12.66719959344591
W   13.12819493758994   10.56691816966511   11.32812632669865
W   15.84450865013924   10.14340732052858   11.72441620734738
W   14.99864376546734   12.15647677867420   12.92746285500740
W   12.57400055511857   13.51200315126086   12.53174068537180
W   10.52467922305909   11.80326106719099   11.64253736964787
W   14.86503682902072   12.49532231968086   10.44141137712798
W   7.85566117367426   11.78055244159063   11.20573255597225
W   10.68134415287055   9.32957632020765   10.11379374231082
W   8.41458947070735   10.22112096833070   13.30014337124481
W   11.00752319399538   14.69530406444273   10.69914743305963
W   8.60271884976416   12.75279054616956   13.45221071698572
W   12.32357302726312   12.82054176915834   9.69754750454745
W   9.55817042636975   13.21874769302730   9.45140293301250
W   12.65236337562964   7.79922518916161   11.44414550208192
W   13.29013041563356   8.81811902730752   9.37717644079046
B   14.32920460646434   10.10153047777304   13.41196688257056
B   12.96229383789760   9.13681319417546   13.29141926713496
B   14.36598361036399   8.70601063010503   12.43634679160362
B   10.22043658466980   11.25937850102773   13.98986429214586
B   10.83078215410930   12.83804247749884   13.82268278858877
B   10.31117359593844   13.99622518555704   12.68584141262782
B   9.04155993462265   13.76135374203334   11.50235989812869
B   12.15619905178582   10.62285921237257   8.98528025612646
B   13.58468234471238   14.35388233175990   10.64489438527101
B   9.11719661288234   10.98927931469218   9.53779442446094
B   7.42214808629060   9.61269382991167   11.52551699410114
B   10.66736355556793   11.36230430933037   9.13406616154980
B   14.67079782162631   14.09138645332305   11.88100834128025
B   13.72651012092062   11.14768066971590   9.06271468977249
B   8.34537688368713   9.70431673832649   10.18342861618293
B   14.97928392164096   10.30331627829077   9.79419293675811
B   8.92069401129960   8.85597088710596   11.57605608725873
N   12.63244675846272   15.28408968017006   13.92737419661579
H   13.18330792665064   16.05756514882382   13.55748220146867
H   11.63858990291416   15.59277321269099   13.95572096941320
H   12.91351605682844   15.08510787772172   14.89966797882036
38
F:    ...  E:  0.301526060000015
W   12.48958122957938   11.28114242449394   13.83533784699800
W   10.85489984976331   9.36193481504732   12.64769900828243
W   13.15452689690857   10.53668492877500   11.33449968626046
W   15.86470573042933   10.12889281764858   11.73384903266231
W   15.01091358735530   12.14622845518549   12.91763900286494
W   12.61013585354327   13.49023584209554   12.54645615563469
W   10.59478276058150   11.81639475040179   11.64909544663515
W   14.88094070316080   12.48523694338811   10.44065122600692
W   7.92477874962705   11.79897000233380   11.22151183084922
W   10.68872767617414   9.34712903035541   10.09592523311445
W   8.43228362213987   10.21233186090191   13.31229420712455
W   11.00335801613353   14.71726868947925   10.76815493457229
W   8.62628061553255   12.74138683387064   13.49181165913122
W   12.33685137139685   12.81599267394963   9.71944349227431
W   9.56534182162341   13.25558392878493   9.47838255350100
W   12.68680124492538   7.79409363888461   11.43323419749250
W   13.27662193984726   8.80162925176555   9.35829384638901
B   14.34839558801500   10.08713070904050   13.43168933152830
B   12.98112332293908   9.12697850830784   13.30445965395453
B   14.38478561428145   8.69633679962268   12.45209795935983
B   10.23936466096469   11.25438530593355   13.98259069512554
B   10.85571217939351   12.83442078518763   13.82692120286052
B   10.28603700975857   14.02737305152164   12.73452632117642
B   9.06329297810445   13.77031890766709   11.53926038514210
B   12.16751546805824   10.64003182354658   8.98941206075095
B   13.59098252008916   14.34541494246285   10.65788933543964
B   9.15047556412138   11.00854147261588   9.53122918812569
B   7.44075973385023   9.63935139108448   11.52164418906173
B   10.68262023787792   11.39102432067060   9.10606037022418
B   14.68770348778141   14.08476865408864   11.88830310828189
B   13.73398611044246   11.14069996270277   9.08445569596589
B   8.36150449077275   9.72792616659449   10.16904686582147
B   14.98203673247268   10.28645683934541   9.80639285692402
B   8.93733132287124   8.88404188690842   11.56382196566130
N   12.51251857864930   15.27706753069390   13.90534766208652
H   13.12291941223180   16.01440234589663   13.60449843868689
H   11.55654511916591   15.55127176096618   13.62783807064287
H   12.54799699107817   15.11605873941969   14.92337407502163
38
F:    ...  E:  1.34569161999997
W   12.48346258396503   11.29139446326976   13.82760814184818
W   10.83650665660198   9.35809859794476   12.65531337554864
W   13.12431266125469   10.55492399170249   11.32796210234885
W   15.85466990411034   10.12762776208249   11.73227679735883
W   15.00183310667900   12.15790349357821   12.91383771176245
W   12.67077134280557   13.53869402897267   12.59596244997620
W   10.56475846038820   11.80481925307539   11.65960120998579
W   14.87057496788018   12.48714686471500   10.44616027526816
W   7.92264935295673   11.81535102869338   11.27132361480743
W   10.68075677447628   9.36558232683819   10.11059325138233
W   8.43877681045668   10.23277117493102   13.29008060997379
W   11.02037939735038   14.71272423576337   10.78764877133496
W   8.64042971938281   12.78072033120193   13.53494935480948
W   12.33046949450396   12.81505834479564   9.71934324530734
W   9.58640739185790   13.26843327113039   9.51099411696207
W   12.67005354649435   7.80703566423191   11.42292103503115
W   13.26896254491236   8.79328831218296   9.34319493593790
B   14.33631521360646   10.09742672765784   13.40728372158508
B   12.96436158713694   9.12759121021650   13.30155354021046
B   14.36806507438111   8.70829514885138   12.43113614180240
B   10.23508380131083   11.27733379564996   13.97657729076604
B   10.86196362361808   12.85114390259200   13.82294535577517
B   10.28824989641863   14.17992525942641   12.85327865422016
B   9.11070517197686   13.79502287279201   11.60360439086172
B   12.15875609341791   10.63180619069873   8.98567973685771
B   13.59700982817106   14.33810251958570   10.65320486586477
B   9.13076138190308   11.01771091550472   9.55087355017012
B   7.42648859967444   9.62640784312426   11.51438596526527
B   10.67026735638750   11.38842950237813   9.12402977320794
B   14.71172430712202   14.10440942602527   11.86738717771962
B   13.72460932893009   11.14286777117759   9.07225724875933
B   8.35682931309508   9.71999318516209   10.18391515713175
B   14.95335542863533   10.27254024884219   9.81624298481321
B   8.90953969920292   8.84500035789227   11.58234376216720
N   12.58248166249564   15.27082909704229   13.88933042915171
H   13.20345995352083   16.00150587738950   13.56078568646532
H   11.24129992497954   15.26304277554133   13.42149058248731
H   12.83803682957936   15.06418101897873   14.86706177671050
38
F:    ...  E:  0.624797569999998
W   12.47569359780345   11.31421128301373   13.80582425477553
W   10.80978899075644   9.35166185534780   12.66990601100360
W   13.12180555811568   10.54366318435969   11.32119649645175
W   15.83147367121454   10.13156677456044   11.70322670869331
W   15.00028973625071   12.15765327668380   12.88722427992852
W   12.72461621112811   13.61901119524993   12.66308219913293
W   10.57532240439154   11.79189988282004   11.66206707030819
W   14.85740949577025   12.48461337202641   10.42107751532570
W   7.92620308827580   11.81531846126008   11.26390104608546
W   10.67453344865750   9.35455944409948   10.12330056204108
W   8.42880567486986   10.23999368551091   13.29401370702050
W   11.05033723001048   14.71709515156277   10.78287095989801
W   8.63722284814100   12.77148326183202   13.54972941407369
W   12.32108450135783   12.82073576935785   9.73845558683244
W   9.58757987536703   13.25645084422571   9.54325877991885
W   12.62863383470913   7.78863964872093   11.44903025833425
W   13.27061957354612   8.79929732259130   9.37815740576992
B   14.32302076585382   10.10212520464719   13.40418658305969
B   12.94585307670231   9.13831295476979   13.29544054150983
B   14.33935602686159   8.71207860643198   12.41993615408217
B   10.23742452010809   11.27198883983531   13.97622528301866
B   10.86735815681448   12.83657158638735   13.83557907054170
B   10.27608226544017   14.17497326176482   12.89515991499106
B   9.12432575105719   13.80779568424862   11.63064802378067
B   12.14714880007391   10.62884589998417   8.98868267729790
B   13.59556642464586   14.36032862556389   10.66656903139995
B   9.11827744299154   11.00685831752829   9.54490304163586
B   7.41842944968277   9.63683266492079   11.51286832116038
B   10.66224260283980   11.38281521483566   9.13617031890600
B   14.75312462122370   14.10955553731341   11.81592561456833
B   13.71122047106936   11.13815386383594   9.05905539770710
B   8.35055380925202   9.70952392486836   10.18270930000985
B   14.96901514225909   10.29711014522252   9.77865329486676
B   8.89357269641830   8.84479794206383   11.58776621875828
N   12.87170633049442   15.19358302814955   13.89642797992765
H   13.28625253917549   16.03941161863073   13.53415522760328
H   10.81067138456593   15.22425533311360   13.32562334044753
H   13.01251677374424   15.06136612430097   14.89213120077075
38
F:    ...  E:  0.234081409999987
W   12.47249128736648   11.29688004833071   13.81122430414838
W   10.81663929141339   9.34213579687203   12.66465990182747
W   13.11962420913991   10.54672310572559   11.32405640127158
W   15.82969636795854   10.13782118297010   11.70190740605326
W   15.00489121926532   12.15236791556443   12.88181564361923
W   12.72879688504699   13.62040218581475   12.64734437760082
W   10.58036601866403   11.79590117691180   11.66110685384984
W   14.87047265652517   12.47490367782766   10.40956218131333
W   7.92770761706678   11.82056773584926   11.26185988027801
W   10.67687107074921   9.35269118382370   10.12526677815065
W   8.42884153181419   10.22618349044737   13.29538720581873
W   11.07306105437634   14.71379377776031   10.79734423334881
W   8.62892869440972   12.75056705880128   13.54286036978851
W   12.32675529429280   12.82914151075569   9.73734835698451
W   9.59911675126102   13.25624386394032   9.54751852827112
W   12.65043064125862   7.78632085388630   11.43467465993526
W   13.28440257422192   8.79770359109413   9.36607311595123
B   14.31921042259952   10.10341059111824   13.41748196409576
B   12.94446345741562   9.13502448407465   13.29672549795887
B   14.33763327297912   8.72910009333768   12.41323581641011
B   10.23555730093084   11.25997593837897   13.96797733212552
B   10.87639874898345   12.82740002574557   13.84225723246553
B   10.30187003151739   14.18258509527976   12.91027608519353
B   9.13006489822743   13.80191792029061   11.61897242997155
B   12.14755197835528   10.62624804643004   8.99692022945624
B   13.61714727806262   14.36115973273781   10.65485653716770
B   9.12409896813799   11.00722823752129   9.55073514877566
B   7.42308126760340   9.63765286436672   11.51305075841211
B   10.66735189247066   11.38403392359620   9.13754713955586
B   14.78714747917118   14.10517254425848   11.79187590081882
B   13.71040799696698   11.13805140422567   9.06018943161713
B   8.35752769312590   9.70752538555718   10.18710178733120
B   14.97001087212910   10.28763436896497   9.77051476923585
B   8.89844549603947   8.83751168494134   11.58968979028055
N   13.03165376651846   15.15383977574747   13.88445710926910
H   13.48854011129778   15.99245180844630   13.56255707104333
H   10.48441280153991   15.28034896080015   13.39595643483919
H   12.76346989273762   15.17651774944419   14.86275012740268
38
F:    ...  E:  0.102927490000013
W   12.47672714038225   11.28188034365142   13.81955192665971
W   10.84376260541150   9.34369089540173   12.65747886063923
W   13.12845659656202   10.55732339580841   11.33804730367125
W   15.86032406413442   10.15032211311690   11.72091093132500
W   15.00048946720989   12.14592877537640   12.89915211631609
W   12.69861933063195   13.63282915400789   12.64818479953979
W   10.58527051837351   11.80136934948229   11.64692203827205
W   14.89979320610282   12.45367508628285   10.41786478103394
W   7.93054221655342   11.81640111637263   11.25740906154514
W   10.69701151509780   9.36413639827215   10.12614804740026
W   8.43418661141116   10.22361779106761   13.29786034856203
W   11.07874845559927   14.69944882066294   10.78644914341133
W   8.63418582379444   12.74027709643374   13.52957198670130
W   12.34157295338610   12.82230955064765   9.72186690402172
W   9.60822119400569   13.25826259622735   9.53600598984622
W   12.69083769523199   7.81175309102991   11.40742447171392
W   13.28982757899379   8.79614372954131   9.32289804120600
B   14.34158925611976   10.09354763625178   13.43253225663962
B   12.97185774993185   9.12507617446002   13.30811034495389
B   14.37099964266033   8.73001029046240   12.42136018135915
B   10.24485604928056   11.25400862530082   13.96054517087978
B   10.87757472625714   12.82787820216191   13.81920815384879
B   10.29640800486749   14.19363038707251   12.92898575220835
B   9.12793398989909   13.79624938505227   11.61041584506285
B   12.15967749621686   10.63331225812226   8.97951231949008
B   13.63240406030724   14.32343666980996   10.65472589569407
B   9.13661338603968   11.01268427206874   9.54262433829094
B   7.43900405108512   9.63707932193197   11.50907633024431
B   10.67581223476266   11.39201216221632   9.10635943372237
B   14.77186592208113   14.07784993613762   11.82074322619789
B   13.72663963034778   11.12969947694189   9.07191522585423
B   8.36990970580377   9.71683728363596   10.18160287919276
B   14.96588247013036   10.25515689918937   9.79608528136285
B   8.92017684917859   8.84959328566631   11.58215055460714
N   12.99398728543177   15.15440245279724   13.90306281364125
H   13.60620034229803   15.92253672212253   13.67907625864989
H   10.33932021041515   15.30902968626487   13.43021030414194
H   12.46784875564337   15.30173836058812   14.76308947372943
38
F:    ...  E:  0.021102409999969
W   12.49354907262681   11.25861927044165   13.81421608053134
W   10.85715985538390   9.34933038648991   12.66885193688737
W   13.15116062576604   10.55848927576944   11.34611183314429
W   15.88127314034266   10.15784056241511   11.73956510754542
W   15.00795529912162   12.14380785546923   12.93468182232673
W   12.66533106770119   13.67603742287414   12.64927715982897
W   10.59908907305253   11.79843070817886   11.62731189703058
W   14.92526166521882   12.44078969107793   10.42974448924149
W   7.95059723258284   11.80384590780244   11.23979630947150
W   10.70834568646527   9.37962882233050   10.11858708255447
W   8.44435747841311   10.20310147200200   13.29226190614567
W   11.08220804085243   14.68983968240364   10.79009924147561
W   8.64503324393408   12.73006904085638   13.53121666374193
W   12.35673397303604   12.81096504014642   9.71030929037172
W   9.61361527587591   13.26130013311060   9.50766766905887
W   12.71429769118490   7.82817995994028   11.39995988302448
W   13.29861350057267   8.80145628290643   9.30314180137113
B   14.36149827319725   10.08161983549951   13.43481344615502
B   12.99501938573407   9.11120638550854   13.31186945081042
B   14.39782375282129   8.71591052276949   12.43287238378710
B   10.25422753858617   11.25067557013135   13.94797247133663
B   10.88217844488829   12.82225806280727   13.79198365379871
B   10.27238981991525   14.21398109784464   12.92164859785310
B   9.12623799675365   13.77642123311474   11.59089666898895
B   12.18073167383885   10.63604018573560   8.96235020821219
B   13.63434524505861   14.30002677736787   10.66526011841649
B   9.16075002157495   11.01757071334784   9.53326577187224
B   7.45405012430933   9.63235869968124   11.49978120531509
B   10.69619938851896   11.39241837287847   9.09028775487135
B   14.74853976987901   14.05347226669701   11.86705093378337
B   13.75174963206419   11.12981101232567   9.07661592421695
B   8.39057385760192   9.71895572546590   10.16810172434855
B   14.97704542679630   10.24581696540204   9.80986722070761
B   8.94475777848065   8.85602448319191   11.57078676456118
N   12.91463196457853   15.17628636706842   13.92495107349104
H   13.65412572960846   15.86036188389577   13.83851898618318
H   10.20789510176764   15.32338271093690   13.44563117365885
H   12.23578594353920   15.42880840575410   14.64781308551364
38
F:    ...  E:  -0.0342506700000058
W   12.49513683635833   11.25702412962048   13.80649141559031
W   10.87652748015284   9.34501206243268   12.65865870316937
W   13.17302329185234   10.55829262066320   11.34946335485395
W   15.89777676649071   10.16105069022755   11.75213272361082
W   15.00299912263094   12.14208285427135   12.95576616057435
W   12.64526439361363   13.71803416662135   12.67322266345528
W   10.61977657325333   11.79842772235535   11.60979035704149
W   14.95244802953016   12.43269048531849   10.44618361011714
W   7.96482304172774   11.78306198638382   11.22024541271389
W   10.73201360687276   9.38142571985912   10.10894818161848
W   8.45630000244923   10.18084083717123   13.29039389525089
W   11.08818509102079   14.68020780838841   10.79256714475184
W   8.64541918909232   12.71060044514609   13.51182459628989
W   12.37845873284271   12.81308766321979   9.70427061217801
W   9.63194988948556   13.26316139142874   9.48060353701706
W   12.74178274713928   7.83083426051280   11.39143545940786
W   13.31967993351461   8.80276191327889   9.29315519307229
B   14.37159831666046   10.07642619009498   13.44658658456398
B   13.01013248698402   9.10559837949653   13.31630741625666
B   14.41724835505882   8.71222600544598   12.44469542759610
B   10.26314805702598   11.24658251253439   13.92735017760343
B   10.87447224102718   12.82259618133319   13.77725882172264
B   10.23710735728862   14.22437408611627   12.91131977916986
B   9.12719265177965   13.74694734683962   11.55987461764376
B   12.20744729094260   10.64251215239299   8.96503171992576
B   13.65051785237228   14.28711975016139   10.68245501663484
B   9.18516104405990   11.02104895461754   9.52486382059207
B   7.47457089844810   9.62141078751783   11.48737647826450
B   10.72315896463278   11.39735576644454   9.08682428116883
B   14.74058644726702   14.04515560229403   11.90355132514507
B   13.77960330964427   11.13583594881058   9.08262940517984
B   8.41348917252713   9.71751778647999   10.15229924254520
B   14.99604333611951   10.24352521219677   9.81723402221997
B   8.96942037099460   8.85802681298168   11.55375125073781
N   12.82686955837341   15.21117992692159   13.94952995583135
H   13.65032775093058   15.80399059530701   14.01670652953039
H   10.02471721151745   15.31397049865808   13.43867054106069
H   12.07076138995646   15.54314153809408   14.54566935753269
