35
F:    ...  E:  0
W   9.54170342009295   11.14729031784747   11.58660016361337
W   10.15464602790730   13.75962375414450   11.41444380716483
W   8.72795512074788   11.05663713250973   14.22286142154454
W   10.92649468306366   9.75725450408021   13.67836202911502
W   10.92980759683461   12.39824497335614   13.69937619679844
W   13.05808224209328   10.89121326814270   14.66337865741037
W   12.39476627588228   11.18594440586361   11.73442053924236
W   14.83271663897965   11.13412276123185   10.30851448161141
W   10.91680882574236   12.12217960439452   9.49543231578865
W   14.31890503239955   13.34903228603583   11.47213296050258
W   13.53318796542369   9.04084875609997   13.11832327644402
W   10.95860744309634   9.49646127764586   9.82615790363440
W   8.18163272446444   9.05669036862488   10.64112901744085
W   8.74355068901769   10.62826414479529   8.88707591570716
W   13.53747378807505   8.89134351762319   10.42150390170163
W   14.90210473683713   11.33441184945786   12.90907850098859
W   6.97385132973012   11.35107014551782   10.55513439345202
B   8.70037282637682   12.70526479301225   9.95640811138201
B   8.05198402674650   13.08931137006024   11.49587752815716
B   8.83854807244477   12.96131789667989   13.04951657845511
B   13.23056234988286   12.74164092835180   13.39740941833071
B   8.84154757630558   9.26115258520998   12.85922082529143
B   7.49253736389888   10.24471368620283   12.47161254238314
B   12.25659908232759   13.53417815519923   10.62723082072790
B   13.16475823473383   12.40982393966957   9.72621027695030
B   10.09510762069513   8.79928367659361   11.80639566933059
B   15.15921838343305   9.45326285911696   11.71000073784405
B   12.77686097843622   10.77245268301548   9.40558097159853
B   11.79433034135733   8.79482405177409   11.79083558864881
B   12.24202727055007   13.62529727838062   12.33402395577422
B   7.47588212313441   11.93371808202627   12.64140224533857
N   15.92982687082178   14.93572714541343   11.36747590890825
H   16.25143259877037   15.17376082037900   12.31218636010769
H   16.72511604846877   14.50666220320875   10.88300894808254
H   15.69075372336430   15.80673481047066   10.88143806266486
35
F:    ...  E:  0.0303351200000179
W   9.55465102469951   11.16369060113493   11.60588530101639
W   10.18701018911616   13.76512388481153   11.43468467711384
W   8.73615112055227   11.07811652705589   14.24247003689510
W   10.93513441948345   9.76607371822309   13.70020168265880
W   10.94777010042682   12.39943683442928   13.72293780371345
W   13.06441077103407   10.87036369015931   14.69776173929227
W   12.40011149852313   11.16552995632275   11.75435787755910
W   14.84545249600153   11.09637689830642   10.32222011217836
W   10.93853087473447   12.12386933751654   9.51584262920339
W   14.34126530585740   13.30279659319096   11.50053062436101
W   13.53216484157113   9.02397546498803   13.14135462174320
W   10.95873415708280   9.49979912828808   9.84694898986328
W   8.18296995998707   9.07919725224611   10.66313748990047
W   8.75386144885580   10.64413297704185   8.90315875649353
W   13.53505721038551   8.86928676177143   10.44410424529571
W   14.91653812941132   11.29937770791246   12.95061523043072
W   6.99145030424588   11.37306330163409   10.57310824262952
B   8.72140738468181   12.72363842985366   9.97323229277575
B   8.07597769311901   13.11268293029110   11.51212790585117
B   8.86001194691178   12.98081712658226   13.06684817733932
B   13.24403521178503   12.71420383627746   13.43110937191561
B   8.84850612798930   9.28228271050602   12.88169548520473
B   7.50298176104253   10.27119160953459   12.49527269282078
B   12.28289756726911   13.51748828888872   10.65030849003357
B   13.18250807460233   12.38720955234123   9.74082006708468
B   10.09676865553010   8.81320951922172   11.82669384752036
B   15.15573454853452   9.43455940399996   11.73317893349905
B   12.78400173770892   10.75792708665369   9.42445654000894
B   11.79478732847910   8.78471192407581   11.81151171557385
B   12.26643028318072   13.61122517308674   12.36226455765311
B   7.49291884368674   11.96045982795465   12.65923251262814
N   15.85278859305219   14.92890119316204   11.23313016407272
H   16.03809099229127   15.46680044219607   12.10027256252930
H   16.75264004230132   14.49500263955114   10.95579061627860
H   15.57600938800216   15.58723770292649   10.47249403899957
35
F:    ...  E:  0.0792676899999947
W   9.56574228873141   11.18016236343605   11.62657175474276
W   10.20840683253654   13.77415539661301   11.45757990244723
W   8.74210698892933   11.09570676213544   14.26254692129894
W   10.94424685131541   9.77610113946159   13.72310009453434
W   10.95847000961780   12.40366302363362   13.75140231996092
W   13.06981712487788   10.85729956953189   14.73350104588443
W   12.40605039434965   11.15692670527891   11.77817282169268
W   14.85935499144140   11.08386187826754   10.34295069338403
W   10.95688318560919   12.13043821778155   9.53712745807646
W   14.35896036954047   13.27613729371244   11.54520770949554
W   13.53680395204637   9.01671752087248   13.16295992455111
W   10.96489083242608   9.50868365911908   9.86736871027081
W   8.19058806196314   9.09910584837488   10.68181131172279
W   8.76562265579749   10.66030813981265   8.91759077637355
W   13.53921043655382   8.86313426231015   10.46691735495317
W   14.92887815466501   11.27811338916162   12.99659943495212
W   7.00816834193331   11.39121581737364   10.58998180953329
B   8.73977014445764   12.73949939641220   9.99046342362976
B   8.09427039509971   13.13126850372632   11.52979414856302
B   8.87586452876914   12.99754331564822   13.08596080996948
B   13.24893474731956   12.69732412170454   13.47144964578835
B   8.85777107468986   9.30075943799851   12.90236220900753
B   7.51307944809493   10.29109369798788   12.51506800294222
B   12.30238111828731   13.51318879823299   10.67942869231249
B   13.19829542671603   12.38341568426200   9.76252196548436
B   10.10403205582897   8.82847768053874   11.84672147612333
B   15.15919418762138   9.43445329810298   11.75514393147803
B   12.79687901671812   10.75713489368773   9.44492584902851
B   11.80089994108601   8.78502400368061   11.83290747827846
B   12.27810532816056   13.60401248880676   12.39600361589066
B   7.50664010693324   11.98102213156995   12.67700298413075
N   15.79410571870605   14.90133125795416   11.08976856828075
H   15.80844395713390   15.71013495544176   11.74928081249515
H   16.76053027813618   14.53746502263666   11.04049578509410
H   15.50636108604302   15.20488035686756   10.13907058976756
35
F:    ...  E:  0.219778309999981
W   9.57431821118717   11.19575972061586   11.64362546009614
W   10.20960588418886   13.79214719318366   11.46792847024585
W   8.75357882829158   11.10924546963536   14.28271039328731
W   10.95660538003875   9.79040597438488   13.74314084214899
W   10.96039559405127   12.41661498355347   13.77524096476456
W   13.08431071084572   10.86811405516342   14.75592189024153
W   12.40741238904279   11.16753704558231   11.79331292719903
W   14.86984179102726   11.09595957858988   10.35799152051119
W   10.96683280782121   12.14401207947346   9.55259509375646
W   14.34440027664362   13.25392147040443   11.58089503745035
W   13.55598466615647   9.02942571311004   13.17306254405913
W   10.97252976232023   9.51858949870881   9.87947875526251
W   8.20445079196045   9.11594311768805   10.69846249002515
W   8.77289761588229   10.67251831993421   8.93220586435360
W   13.55201415434369   8.87889064094350   10.48006256595649
W   14.94250723294349   11.27360629951136   13.03322931618537
W   7.01884610668105   11.40319422831574   10.60684446260582
B   8.74862169292207   12.75058477377202   10.00643858299675
B   8.10398679630170   13.14325600694832   11.54974954764605
B   8.88811083065217   13.01174436279013   13.10437410052818
B   13.24528536435184   12.70629189231381   13.50505851228696
B   8.87393811364069   9.31830871452748   12.91995522111205
B   7.52603315483674   10.30617215883623   12.53528710462989
B   12.31231623187315   13.52589616795827   10.70285676335779
B   13.20603731506044   12.39836879515413   9.78126773224677
B   10.11949084383062   8.84470182664924   11.86456661817673
B   15.18116787389937   9.44532347240748   11.75515833919050
B   12.80849610449419   10.77463140746496   9.45543519668337
B   11.81776783795050   8.80687348395796   11.85002912107042
B   12.27031900214409   13.61421223040806   12.42136425312078
B   7.51672817741170   11.99503397081462   12.69545974075519
N   15.76236571831135   14.83987352181367   11.00388965613420
H   15.58904114086769   15.78771859492015   11.29996946268107
H   16.75763265144060   14.61621405979046   11.08834954339352
H   15.47588897872115   14.73866920281081   10.05384193798038
35
F:    ...  E:  0.828849170000012
W   9.55002067592345   11.17284945405718   11.61331796610333
W   10.22172499524547   13.70216230464819   11.45474027258548
W   8.74779190343325   11.08120466751477   14.26873805822899
W   10.93344073506620   9.82638512278063   13.69554339941696
W   10.96305610927978   12.45104628781419   13.74579848168387
W   13.08861562018609   10.91981294619197   14.70538117080047
W   12.42009718737911   11.24665748645172   11.74748584711244
W   14.83520946410734   11.11214557763414   10.28996420167972
W   10.93802422897289   12.13908183575220   9.47963302667817
W   14.42813842771634   13.48562910561985   11.39626397786076
W   13.56878986170260   9.09947758151905   13.15511008307263
W   10.96059278794097   9.51364703916577   9.86409125679458
W   8.20336894319902   9.07503335295213   10.66467740988400
W   8.74642230092274   10.65579586212742   8.92205859507062
W   13.55904444298986   8.92583721190330   10.43387686333679
W   14.93544687830163   11.33367928020143   12.93292775535462
W   6.99233319922203   11.38631494647782   10.57884338108064
B   8.71454532016565   12.73861236690059   9.98212886737837
B   8.08751290295406   13.11640942684771   11.53264426800962
B   8.85346458218324   12.97632055354487   13.09542769081814
B   13.25779915048646   12.73169288373409   13.44195338837261
B   8.86443241641533   9.28260186173502   12.89044833900985
B   7.52142806134478   10.26785269769712   12.50510832471757
B   12.28684954189139   13.54962380141177   10.62725922185168
B   13.18481548547150   12.43191190263792   9.74515858306650
B   10.11779690248743   8.80529759026669   11.84166117231485
B   15.17946682788211   9.45677101483875   11.71424847789391
B   12.77598715615056   10.81743106357961   9.43059792031036
B   11.83210930795859   8.85998359222738   11.82841618688285
B   12.30708192651648   13.66632821613376   12.35030330606926
B   7.50110965247103   11.95624901169116   12.66844525318775
N   16.00685226076062   14.72629113262003   11.73099597247182
H   16.00308199874141   15.65807715977635   12.12009249656066
H   16.60842067974102   14.77927553226373   10.88407524661138
H   15.15488809692520   14.40227016141790   10.01234356986737
35
F:    ...  E:  0.216258030000006
W   9.56712989445770   11.19056472630207   11.61963214426287
W   10.23798411454933   13.71868712392844   11.47348030675354
W   8.76931019487662   11.10216781083925   14.28470817499628
W   10.96421662021646   9.86351934267448   13.70442183141006
W   10.99195840757703   12.48286885799108   13.75382640585063
W   13.12695072647042   10.95510633572741   14.70039992272432
W   12.42430274360550   11.24648050341383   11.77556448387055
W   14.82248558481794   11.11639077047710   10.26156546138287
W   10.92867732469658   12.13987292321140   9.47774022911622
W   14.43794281125425   13.49522205528678   11.38820619036077
W   13.59558350797567   9.12008193763892   13.17305130823396
W   10.92998622538138   9.49784487755295   9.88914607455090
W   8.20564119477468   9.09497162039616   10.68719688062744
W   8.75205489685020   10.65113687690919   8.92732411045699
W   13.57749863881004   8.91991793606377   10.43576678892537
W   14.95770500759194   11.37339630131158   12.88758771535635
W   7.00847959514656   11.40007423153119   10.60699974066542
B   8.72278955033165   12.75699002271805   10.00401147973367
B   8.10722776572746   13.13344853280409   11.55532450355990
B   8.87604444797515   12.99466936296592   13.11279299590264
B   13.27299684266504   12.76609759134716   13.43553163189876
B   8.88611435578697   9.30205166615335   12.91408160194305
B   7.54344421466479   10.28608169471246   12.53002053467635
B   12.28835497583803   13.55458267276515   10.61658238252464
B   13.13595711624151   12.38299475214266   9.77640240498444
B   10.13183126348451   8.80383925053633   11.86736565020947
B   15.18958406226438   9.48993042476916   11.72080657285831
B   12.73851306553352   10.77354901590979   9.42339561570309
B   11.85575476521906   8.88095292205164   11.84285338316044
B   12.33947036170156   13.70911579617546   12.33646860032641
B   7.52158677782861   11.97353381200056   12.68890036409252
N   15.92433327834629   14.80360035386100   11.75200500565160
H   15.85757825404102   15.81273295818738   11.93719462330949
H   16.73738680304641   14.71140134879096   11.10171371882586
H   14.92288464238731   13.84588362298934   9.68769119323444
35
F:    ...  E:  -0.0458639600000197
W   9.58676428994483   11.21584015455803   11.63578037166703
W   10.22410976222173   13.77776983410729   11.49876401626020
W   8.77993235171045   11.10768188673017   14.28584061784282
W   10.98881640240029   9.85870838275272   13.70383814072864
W   10.99586736065465   12.47524577528758   13.76175288503091
W   13.14728908718136   10.94299609888352   14.70012344332826
W   12.44799881994064   11.27115824249205   11.77169003853569
W   14.85289564343855   11.17112655597184   10.32459362869548
W   10.93586696817988   12.17172934088864   9.49951821617278
W   14.41244790989426   13.51876618749857   11.49084335451168
W   13.60091419444958   9.10784324833704   13.16389124103611
W   10.97060696711686   9.53926087243483   9.87618574496154
W   8.22806196514691   9.11570159787726   10.68837565702945
W   8.78623588728497   10.67055498479196   8.93320608022268
W   13.60340513677505   8.94309544466759   10.43096998512844
W   14.96216001871176   11.37401249360602   12.90045758789479
W   7.03320911977598   11.40959806620376   10.61866117634197
B   8.74699145829434   12.77464566515652   10.01882930775299
B   8.11014466165817   13.14778345120586   11.56378936306105
B   8.88897764441124   13.00520981922558   13.11931382155950
B   13.28134166755577   12.77004810338279   13.43417699259224
B   8.90613289426152   9.32080724100525   12.91595320701095
B   7.55406459048262   10.30067672470492   12.53497809911665
B   12.26023049487426   13.57451020899427   10.65603052571657
B   13.13582421077408   12.42572182048429   9.78477685798034
B   10.14866824072061   8.84926039607838   11.84949572746338
B   15.20877082383431   9.47460785974399   11.73583822480491
B   12.77956723748661   10.79031377461387   9.41554248415808
B   11.86791228493461   8.89314286704603   11.82583486016962
B   12.32508121033877   13.71427820713282   12.36837289731849
B   7.52740222361568   11.98845068176095   12.70124752729258
N   15.88223342652129   14.85647746802845   11.62229358003157
H   15.75099338214363   15.86431181856350   11.67351537706840
H   16.80175187051485   14.68106414190002   11.20736535541458
H   14.61708982488541   13.24736061601983   9.63791363823998
35
F:    ...  E:  -0.27372078999997
W   9.58904990478424   11.22633656536350   11.65139098833810
W   10.23660185074506   13.78704211881407   11.52016459481392
W   8.75956697753862   11.09799692698835   14.28451117492946
W   10.97799714791238   9.83093425103579   13.71224568886723
W   10.98389877039561   12.43616931381492   13.79128675914023
W   13.11293282477948   10.88272409588684   14.75253829185364
W   12.44159959652133   11.26831989098235   11.78286436834020
W   14.90582763337173   11.18575340999839   10.32934818775092
W   10.98699384216255   12.21947736218597   9.52940431953355
W   14.41907126791319   13.42048415929300   11.59605850637421
W   13.59006616348483   9.09507817872166   13.17286632916074
W   11.01787966239045   9.61863005065181   9.87476312419535
W   8.24660789126455   9.13353506513821   10.67680952520259
W   8.81768503572908   10.70153898444207   8.92629292962341
W   13.60099387937768   9.01568110739420   10.42830369793197
W   14.97386131949433   11.37016912954715   13.06111629732517
W   7.04843767674724   11.41044473386959   10.60936546365475
B   8.77232007636864   12.77400112260608   10.02194562358415
B   8.11881212910114   13.15150515724055   11.56122098302761
B   8.89058828888243   13.00368633262025   13.12353660845159
B   13.26960893705888   12.74606676608120   13.52630518965411
B   8.90203735483783   9.31932346022529   12.90382154772199
B   7.54612558932957   10.30636009680003   12.52780197358286
B   12.31195205382863   13.54528400907082   10.73769878297828
B   13.27465046553562   12.55833487636766   9.68789504721383
B   10.15854152442992   8.87079777289074   11.83940309313810
B   15.17914290854964   9.58426812300105   11.76830717580222
B   12.83260096484984   10.87206814275075   9.42270581023055
B   11.87287640042261   8.85983452105306   11.82563282860096
B   12.32168943659376   13.65790503002945   12.44377423325606
B   7.52296968005492   11.99801046868441   12.69896547700893
N   15.84242911981404   14.81087189427712   11.48650900413988
H   15.68421842332043   15.80756262324682   11.54417772884538
H   16.81506968822889   14.61369137012433   11.29857754288362
H   14.32505554631718   13.16987292093837   9.23215113498392
35
F:    ...  E:  -0.510626999999999
W   9.60028484244871   11.23480513273749   11.66839255600346
W   10.26288085992025   13.79342554068896   11.52616000441678
W   8.76592090406075   11.11813507786557   14.30439993682635
W   10.98012761162932   9.82500853090526   13.73957204591012
W   10.99612503787395   12.43426815590741   13.80675844148510
W   13.11960811179940   10.88485380650848   14.78486238615817
W   12.44415507132874   11.23345217156021   11.83136643646904
W   14.92111642369050   11.15317565041498   10.32337915206365
W   11.01853630603446   12.20317606727009   9.56128107518346
W   14.43577305822354   13.37091694535570   11.62385287507728
W   13.58760339974723   9.07860437065070   13.22118386801536
W   11.01145873957564   9.60683276936936   9.91066734750791
W   8.25015839992100   9.14918142292304   10.69782782323629
W   8.81561402826339   10.70563234375741   8.94572429141367
W   13.59381266278387   9.00862597648612   10.45443262245431
W   14.98755814939065   11.37499581190785   13.10740373450411
W   7.05877028949208   11.43283234229906   10.62528974700749
B   8.78744586734083   12.78246722854409   10.03477723870555
B   8.13868511913693   13.17205677563921   11.57561104073886
B   8.91039040938943   13.02301138353426   13.13766376723172
B   13.28517657544293   12.74171968060327   13.55137364171583
B   8.90374493961748   9.33407069471237   12.93227315909218
B   7.55245567160529   10.32720888208335   12.54742250162810
B   12.37517392369527   13.49688887428083   10.73718832843814
B   13.33175369242452   12.58975477618937   9.60416748807611
B   10.15895115645291   8.86658142187845   11.87708629836898
B   15.16041326931388   9.63397163413028   11.80488918761299
B   12.84716082461700   10.88823502104561   9.47015948807921
B   11.87600775892077   8.84059464789023   11.86153178571426
B   12.34924294180222   13.63074352955935   12.44062633250137
B   7.53902588371206   12.02015440248097   12.71450822345509
N   15.79560125080162   14.80543609963981   11.39362128718345
H   15.56557526705226   15.78362821013326   11.24649076150149
H   16.78914798668271   14.68364450884403   11.47728411734300
H   14.13430359794315   13.12167014433950   8.81053104102607
35
F:    ...  E:  -0.613296269999978
W   9.62231115271497   11.24304512768436   11.69410546537624
W   10.29585630935200   13.80318510423595   11.51105478731354
W   8.80267758846237   11.16292012904288   14.33393878728521
W   10.99351664320530   9.83923590584306   13.77986871724677
W   11.03225213539915   12.46465648064519   13.80863828767673
W   13.14855346844798   10.93365635911622   14.79659363675911
W   12.46420555322878   11.21758786384351   11.86190584483676
W   14.91645152274189   11.09988447221304   10.30392854304610
W   11.01771308760134   12.15475696517905   9.58054768132893
W   14.44812081180790   13.34723263733240   11.56302534478895
W   13.59669617241214   9.09195725974874   13.26770684931740
W   10.99808549382927   9.56462548582871   9.95988694323693
W   8.25120141222411   9.16687943996043   10.74071910031194
W   8.80838226426108   10.70195906446592   8.97636189617107
W   13.59035395503286   8.96001985766844   10.50011961728283
W   15.00277015385198   11.39319511011058   13.08429733576404
W   7.06973906566751   11.46599629969278   10.65926120781880
B   8.80423668659034   12.79283039876952   10.05347208874952
B   8.17126994800031   13.20112291763843   11.59377231335214
B   8.95000091172302   13.06026543380307   13.15301552894043
B   13.32731803566224   12.76923430645962   13.52101924501687
B   8.91195925880416   9.35985468340963   12.97967531097532
B   7.57262010747528   10.36477968207961   12.58404438789330
B   12.41414559961163   13.45858249468042   10.70546817002671
B   13.33980561988388   12.53012185454525   9.52313808194647
B   10.15802763367940   8.86092961566239   11.93754141413766
B   15.16906854292416   9.61683140715152   11.82469504344228
B   12.83214169952614   10.81605548625013   9.52173114531017
B   11.87635918706645   8.82840996099561   11.91529630555507
B   12.38852207760165   13.62159984184786   12.39727196331528
B   7.57012453610672   12.05885190513101   12.74188774566287
N   15.72105804107642   14.84206487878220   11.33313805132072
H   15.46871552072542   15.76881226743349   10.98576996849883
H   16.69202711957854   14.84645474617885   11.64204896770406
H   13.92347271586007   12.94216458870618   8.51481425472737
