23
F:    ...  E:  0
W   12.13522611433393   9.86292038105472   12.42944041798573
W   11.99897236741737   12.25206451864466   11.17890951085684
W   9.66887137303301   12.94643529860948   11.31541510551191
W   12.16342638026038   10.63584284520277   9.02065590735919
W   8.42256408036662   12.05096509516964   9.21465179362965
W   9.87679334574781   9.54200610911776   13.54792082366175
W   13.13756833369411   8.23851749856734   10.27757350648432
W   8.28699170012339   8.97554065184470   8.95866719736696
W   13.93918674929523   10.36190156787959   10.76637678583933
W   8.39118212366593   11.23457846955249   12.80536808132905
W   9.94334520137446   10.24953502669976   10.70686150444246
W   10.89081594994410   7.85046176070313   11.49347186572791
W   8.26405078610888   8.35158659263191   11.70676501769186
W   9.92573857334425   10.83815063726576   7.83810317389458
W   9.07929903225063   6.83534907433633   9.92381149400332
W   10.91221817803049   8.42169349578981   8.97665922752143
W   7.18064679894515   10.31052945219915   10.69752204478088
B   10.58824837726467   11.47061879237044   12.73201346976397
B   10.61745363801295   12.22308954896409   9.41777303749019
N   13.37450876873016   14.01388136046963   11.59245690509449
H   13.72880135631330   14.42041746278351   10.72094618634171
H   12.86399823953056   14.74719474999731   12.09308477275668
H   14.18401296467096   13.74064004260467   12.15947260292414
23
F:    ...  E:  0.0298256199999969
W   12.14584314841949   9.84222779394432   12.44798125642698
W   11.95073263839997   12.28435054188455   11.29020073799395
W   9.61770678058057   12.87895166543679   11.39412107306113
W   12.21989133511051   10.64158599396292   9.16342708468054
W   8.45532054415507   12.02478591527877   9.19639864518298
W   9.87005905613295   9.43858077324675   13.59051814652203
W   13.20023676397659   8.21641700155707   10.33371348457391
W   8.30845861429620   9.00360151226059   8.97436435717211
W   13.99942329140696   10.33962607077412   10.86741708538634
W   8.37910528782745   11.13219948469129   12.90925776655681
W   9.95146232370158   10.23016060197760   10.76003618597589
W   10.92254167465084   7.83234194295939   11.52041019512054
W   8.25282806454000   8.34386288298669   11.71455256760316
W   9.99583897758823   10.82451670635691   7.87912988449171
W   9.10454117744544   6.86398204120138   9.92262002592076
W   10.97167035363433   8.44151216359267   9.02042756084527
W   7.20407808075588   10.34427725771846   10.72429225512076
B   10.56052321396150   11.40234144076645   12.80658687570273
B   10.62781629202875   12.21366490664080   9.49618831610499
N   13.30360120193114   14.09411555493755   11.39719967414624
H   13.35032493839676   14.47215516533671   10.45999405910290
H   12.90807330209394   14.80809212037068   12.01486538995571
H   14.27384337142423   13.90057089457505   11.69021780481126
23
F:    ...  E:  -0.0320295199999805
W   12.23543407382183   9.96243800489902   12.20036333641373
W   11.81133641716368   12.46236408549448   11.38947884975594
W   9.44142092687638   12.84651993874025   11.42090351861635
W   12.30026427086719   10.64438854504339   9.50199233541650
W   8.46923752775103   11.98921778564795   9.08005221772451
W   9.88852161310269   9.35815134135699   13.54540887750024
W   13.27002786075211   8.09045919090445   10.30644258991963
W   8.27583176891482   9.02277079168518   8.97273155107482
W   14.30701778188110   10.10457041714376   10.84312449290574
W   8.36104504413566   11.02890772600647   13.02355237957978
W   9.91212769160822   10.26630342332698   10.78647149652724
W   10.94166011965721   7.85624082682813   11.52190303246717
W   8.20424969068892   8.35377088055015   11.72927171092486
W   10.04319870036493   10.74516590840125   7.92131212391166
W   9.08114723939065   6.90323375466852   9.93642462363839
W   10.99844842639274   8.47306272348269   9.05176944092061
W   7.23403819022905   10.41207983503123   10.74427889483254
B   10.53755546564674   11.37656280417514   12.84507673663365
B   10.62061500046343   12.21586483674314   9.52892580549708
N   13.26126816588669   14.15633318638729   11.37488220533184
H   13.09616022906295   14.36495956105351   10.39094487207308
H   13.00402634590472   14.96769139410615   11.95968716194802
H   14.27928788189595   13.97286347078160   11.49892217884338
23
F:    ...  E:  1.00999497000001
W   12.25011123454458   10.00223593475789   12.13413112666314
W   11.85321464685401   12.49773232219047   11.27483747730910
W   9.50418564358476   12.93301534083110   11.30363928224342
W   12.27129827056882   10.66091576737069   9.35784047288011
W   8.46340232733584   12.01525191534809   9.02998599089919
W   9.92325772020569   9.49219906104660   13.50911185640053
W   13.22968944714316   8.12270875622203   10.20674920156680
W   8.24146029411104   8.99612709756022   8.97188761591833
W   14.25943737828648   10.13205315978840   10.71110988868274
W   8.39355122860220   11.16115736362680   12.93103452813175
W   9.92917146849767   10.31270940943724   10.72590443086105
W   10.94760911330662   7.91860297329134   11.48690919438494
W   8.22173686294430   8.40703416345257   11.75707636630366
W   10.00516058558356   10.73383951266721   7.83974321884706
W   9.06553134722920   6.92229229765579   9.98193741500282
W   10.95833351604361   8.49441278994603   8.98505995108869
W   7.24734961653962   10.43876196775518   10.72736658809293
B   10.57096632201489   11.47825013126002   12.73392315108683
B   10.60495014695613   12.22807993957318   9.43119445408107
N   13.26185292176081   13.99003459700308   11.86221775719934
H   13.04823918853181   13.84005913565181   10.60922727681313
H   13.05217459752254   14.98011995484707   12.06830220678139
H   14.27123655429098   13.81632684117582   11.93473098122009
23
F:    ...  E:  0.591841909999999
W   12.24632224414127   10.01626922461857   12.15581691435769
W   12.02836746318676   12.61809058249448   11.24600446764415
W   9.63963271853177   13.00728611679995   11.33443135464562
W   12.25060468986382   10.66796986164334   9.31918507111506
W   8.45876590715072   12.03559005842085   9.11896387294632
W   9.91701384560329   9.48648203735496   13.51591179208910
W   13.23785787728867   8.16219741715340   10.22791365976671
W   8.27999380096083   9.02113157493057   8.98019868896495
W   14.20870844933072   10.24530173333319   10.72547808283602
W   8.41137274338412   11.19088244992785   12.87773123969746
W   9.99068411013936   10.32449868111577   10.71635792055231
W   10.96081672095518   7.92344192770065   11.48657923644841
W   8.25493025007628   8.44636127186667   11.74141137516002
W   9.96908290899163   10.72738161750602   7.83692284475000
W   9.07720564439311   6.92696722605217   9.98584516500017
W   10.97616941836551   8.47538138744768   8.98335930850632
W   7.19988893493448   10.48981852435261   10.73232332938869
B   10.57641194328537   11.47400529562664   12.68658793966591
B   10.60185164732075   12.22578709068635   9.45710189896785
N   13.21217309545165   13.88622946642261   12.22578323184242
H   12.85596176240764   13.57209519004167   9.95533084024602
H   12.99792808962373   14.88234208972341   12.25221626908909
H   14.22217616707171   13.76840960723870   12.01246592877829
23
F:    ...  E:  0.500929930000012
W   12.26718123284280   9.99935387652094   12.15982749622395
W   12.00060285255676   12.63172200372946   11.26499701227758
W   9.60517584149220   12.97941603152063   11.33340371817234
W   12.27639151143237   10.63620239248378   9.35312583196293
W   8.48097622962541   12.01998753155588   9.10365600932111
W   9.95187715647094   9.49153023767908   13.52429354400461
W   13.27418902614182   8.13577659163365   10.23360481459635
W   8.29772908394040   9.02036480434436   8.99786001564932
W   14.24664418954456   10.20933155786054   10.74100623423737
W   8.45198281160295   11.22533375815874   12.91623205158584
W   10.01146797559832   10.30932481516484   10.73009939741685
W   10.99147055388023   7.90739658127107   11.50983337952819
W   8.26755755762653   8.46144474912417   11.76281092243363
W   10.01456353350885   10.67898152781930   7.84074448202048
W   9.09751981748851   6.93367745297982   10.00951318006962
W   11.00197886386665   8.45489812098212   9.00123271473710
W   7.24780510525524   10.53162294905115   10.76905949790643
B   10.62703758218463   11.47989825430311   12.68572364818659
B   10.62323215626090   12.19243568143886   9.45929116937172
N   13.24810658374365   13.92237417767301   12.11555440505284
H   12.22426704451900   13.69288661800552   9.81441346913225
H   13.10374295116946   14.93266973304968   12.15133476934942
H   14.26242077170623   13.72729098610884   12.09630266922064
23
F:    ...  E:  0.178879710000018
W   12.26465781051603   10.00284598824175   12.14068092796069
W   12.01555002514450   12.62164279821615   11.39463516425614
W   9.57432284356080   12.97002065482526   11.35908266392817
W   12.30006732727734   10.60575639768111   9.36771438049460
W   8.54747880563844   12.04155024739110   9.10486240929232
W   9.96310717742485   9.49692785823521   13.51670095374910
W   13.27490740026522   8.10701453630518   10.22467726628811
W   8.29845469435868   9.09338242004615   8.97617292973821
W   14.27098553862836   10.16003071238531   10.73013390108122
W   8.44846635061918   11.22699037872433   12.88512655875158
W   10.03659757372832   10.33065066409102   10.72869006809792
W   10.96703634056131   7.89766260381309   11.48662644169940
W   8.26982653632945   8.50169680479774   11.73479882316960
W   10.07819170802562   10.73236637377907   7.85582006201980
W   9.07165838710661   6.96724476279334   9.96667833559463
W   10.98641904129095   8.45686907753111   8.97941448315909
W   7.22934842113715   10.57024485903136   10.72342522237890
B   10.63902562056034   11.49165466983921   12.71652497850578
B   10.73093899222560   12.25778526404534   9.50673164536877
N   13.29738104974390   13.97261643467525   12.18544607552150
H   11.81028760156931   13.29351242902668   9.70937408058136
H   13.18741186477105   14.98746553792713   12.09581931008647
H   14.31179932197512   13.78798895905687   12.18478375073323
23
F:    ...  E:  0.00508018000002153
W   12.28822889443622   9.99464428168537   12.22849251942784
W   11.98197349418076   12.52958239640574   11.38742914783182
W   9.56299184030389   12.92994341327155   11.43548997653596
W   12.32825092550242   10.59277288473870   9.37624128510655
W   8.55729681338568   12.12419402476704   9.14122092479161
W   9.99685399694346   9.44238496440590   13.56075834408413
W   13.29392608169456   8.11655843921733   10.30304496837229
W   8.39115997449963   9.14020955365084   8.96727593968623
W   14.28129651299383   10.17682375397193   10.80544425885972
W   8.43860062785824   11.14198128150366   12.96432344589613
W   10.05651997453368   10.34591227094850   10.74906602575020
W   10.97559314707159   7.91267768787936   11.52560869756617
W   8.29873226521897   8.48804711610300   11.72261621298706
W   10.14521814522629   10.83842933941365   7.87975593900918
W   9.10925293845399   6.95803540956655   9.97202944396242
W   11.01631581916907   8.44711943920353   9.03019712480700
W   7.27845014680212   10.56969298786999   10.74694124602187
B   10.61900327167794   11.45108530393870   12.78842776356509
B   10.77990836648774   12.30523531182967   9.50699669706364
N   13.28939419361936   13.95957246426784   11.89034325749527
H   11.49518200286533   13.36924352619042   9.60924835738429
H   13.10623096349354   14.95719024463966   11.90442605517904
H   14.28354003604036   13.78258433699004   12.07854280107281
23
F:    ...  E:  -0.0342613800000038
W   12.27568119409759   9.95106912429644   12.27936536083949
W   12.01107427924989   12.45942666564834   11.42228909754618
W   9.60363761694731   12.90153742017874   11.43696342029847
W   12.31847041659453   10.61515681849667   9.40795795478244
W   8.61647400222247   12.11035448821773   9.16748932103491
W   9.98484619883432   9.43409642154000   13.61503131665364
W   13.29568621785362   8.14072260863503   10.32867337124131
W   8.40032915874673   9.10613511514105   8.99482513340648
W   14.27248214200025   10.21286792585974   10.85403707826615
W   8.44664322551328   11.10895959676664   13.00154515036006
W   10.03654845221914   10.32752097288027   10.78156186565265
W   10.97998766357423   7.88005534482238   11.55397444667757
W   8.31975195433357   8.44593884156989   11.74496168085929
W   10.15824982004738   10.86573534140466   7.94904448871266
W   9.11360235537188   6.92425028209471   9.97776885303615
W   11.02740437699574   8.44174601225047   9.07068251723257
W   7.29584645402078   10.53324373161746   10.74991650103422
B   10.61546639556737   11.41394047809301   12.81226228079700
B   10.85105802813796   12.47442946561826   9.45918041376200
N   13.29328954587988   13.93136237765610   11.82420781638796
H   11.31243567374984   13.59426901941843   9.21990030760667
H   13.05607705099530   14.91269088900527   11.92409447537955
H   14.28887820950549   13.78841149124790   11.99818758088647
23
F:    ...  E:  -0.160716239999999
W   12.29741341995556   9.98800922130383   12.27953254406452
W   12.00345150229875   12.50394571336714   11.41372225198167
W   9.60321252185114   12.91474818796963   11.43324037909470
W   12.34682038253099   10.66074193174208   9.46973442327926
W   8.59363978690414   12.08153141205771   9.19793369904860
W   9.99877333760294   9.44092939430385   13.61800280778385
W   13.33365931858987   8.15268294795342   10.36555573042761
W   8.36744151310754   9.03351166644975   9.03523529224912
W   14.31599068422028   10.21666732415839   10.87518085625978
W   8.47418813694800   11.09733089816834   13.01369011650440
W   10.03249324359529   10.31974392973400   10.81268972035980
W   11.01952485762286   7.89851288345761   11.59177977526105
W   8.31450558671593   8.39987338631662   11.78281298618286
W   10.12627016141789   10.81973174366000   7.99951556857096
W   9.16718074976731   6.92570000354324   10.01180969368196
W   11.07741108090749   8.46766266241700   9.10806004042465
W   7.32338251551887   10.45030814848290   10.79017227241549
B   10.63837259270223   11.43890355678201   12.83698120565345
B   10.82852182069175   12.49745469260547   9.44528743634193
N   13.30969300451403   13.95505558370751   11.78380537411998
H   10.98543121429218   13.58898323929119   8.85719183263623
H   13.10556065448371   14.93464589418273   11.97221211636939
H   14.31098234621991   13.78724601080407   11.87977430974740
