38
F:    ...  E:  0
W   12.69968975136372   12.00004847398499   14.46045385099544
W   11.13848031169569   10.12565602640293   13.15467782088168
W   13.45136176934710   11.42393504672004   11.98184587749654
W   16.14561242948165   11.11084594847884   12.37731363970890
W   15.22276684716253   13.04239119283242   13.63938887165803
W   12.80834406132027   14.13989168936289   13.01213395410298
W   10.71957941414679   12.55010059864598   12.20202114099779
W   15.13904722126713   13.46796426201447   11.11887231312767
W   8.11988358702548   12.61466419134820   11.78579862682775
W   11.01142747550843   10.15567539014895   10.58835180399830
W   8.68699282907757   10.94563031069617   13.77687942419010
W   11.25031739557052   15.57336139286058   11.36778559855554
W   8.87755271025585   13.49650109455922   14.03887083316617
W   12.59366976941225   13.73899850204033   10.30862613890872
W   9.83667548309846   14.13321792749712   10.05843684849700
W   13.09484892554020   8.71409423858577   11.90108175067913
W   13.71163318645200   9.78817370992471   9.85039765359514
B   14.62346725631152   10.92401757974332   14.05508549157815
B   13.28868506860672   9.89843208370062   13.86660848730432
B   14.73049537855112   9.58167923414808   13.02542876380896
B   10.44902794628689   11.99066740413403   14.55361159392394
B   11.09777197363915   13.56927958000398   14.41229596977714
B   10.61721312751111   14.77832693718787   13.33874999463918
B   9.31453663130492   14.61763167713044   12.13314367534501
B   12.47556504712803   11.54733004467296   9.60680878290260
B   13.81297446839552   15.29309439242776   11.33911879772077
B   9.43331710089462   11.88844980682724   10.11295220365176
B   7.68606756223833   10.38738090143407   11.99655771847959
B   10.97806057464667   12.27373136121551   9.71828616190445
B   14.82632445859309   15.00941746002596   12.62923222572831
B   14.03910835794764   12.11396577007685   9.72656375897664
B   8.62751222064586   10.61565208063011   10.71603832604416
B   15.30093419882166   11.29822941434839   10.44256810939163
B   9.22066191115933   9.65346955924393   12.04653682355719
N   10.23817974767816   8.49304173044507   9.22993332472464
H   10.52805199205761   8.63852236313237   8.26052812749820
H   10.62471068391396   7.59883216245060   9.53774085675523
H   9.21458991758066   8.44283725255578   9.26441345053977
38
F:    ...  E:  0.019349190000014
W   12.70671025143911   12.00864944337148   14.44279955175715
W   11.13457669937414   10.14009125420702   13.13988969933571
W   13.45390239564307   11.42481122434890   11.96733970265164
W   16.14686311990875   11.09740166968900   12.35518050165489
W   15.23693539443973   13.03332814765269   13.61816886057278
W   12.82703987259660   14.14209814301367   12.98837205991227
W   10.72057388899675   12.57541281974730   12.19023541768802
W   15.15200600869702   13.45222433782072   11.09278769641817
W   8.12277945390161   12.64988876235090   11.77454881997096
W   11.00022802219693   10.16845678615725   10.58194462929422
W   8.68930799057206   10.97903363578752   13.76570475420394
W   11.27383807120698   15.58548226809458   11.34516088649498
W   8.89142706534860   13.53038379666827   14.02565200039127
W   12.60619603970853   13.74371802109270   10.28734638851434
W   9.84918936495606   14.15148350429997   10.04182754565003
W   13.09107149950196   8.71863312690090   11.88706381492982
W   13.69897381907347   9.78239328680039   9.82907178078182
B   14.62422288656278   10.92039243657224   14.03793624389404
B   13.28343522513615   9.90347323154634   13.85232568988945
B   14.72503777925384   9.57721251396087   13.01343927934681
B   10.45593345177300   12.01390696123158   14.53838500028940
B   11.11439051041629   13.58674350424966   14.39384025710483
B   10.63996432665366   14.79533759641720   13.31866726973407
B   9.33244789611200   14.64593434450692   12.11729447717389
B   12.47022901270717   11.55149087282123   9.59030762721791
B   13.84064650819048   15.28420650862425   11.31176628764133
B   9.43068228576837   11.90914766381777   10.10045463185431
B   7.67552498861789   10.42152108117600   11.99144406678574
B   10.97786342073232   12.28670790979129   9.70350744628744
B   14.85004173166105   14.99723419197252   12.60338271025564
B   14.04107449134867   12.10457528979341   9.70726120267924
B   8.61977159639968   10.63929740081602   10.70868210574897
B   15.29451297179506   11.27695249139134   10.42391643507969
B   9.20888481867485   9.68174316820152   12.04386853639642
N   10.20031152988672   8.42154436035753   9.34454166448992
H   10.64773064969836   8.34596849675535   8.43292163125121
H   10.41125029509593   7.56189447947592   9.84974130787581
H   9.18956345759266   8.52636406015594   9.21836081042001
38
F:    ...  E:  0.0468659800000069
W   12.71388770311677   12.01284744832821   14.42180192010746
W   11.13244275452834   10.15412671435788   13.12185153087421
W   13.45767473744268   11.42504767203238   11.94867507469751
W   16.14949206480902   11.08366468900851   12.33047639788027
W   15.24883129598952   13.02214046250432   13.59649479507789
W   12.84438532227391   14.14159244828448   12.96257159793896
W   10.72359236892181   12.59896991137895   12.17160639304164
W   15.16622758253522   13.43911903830146   11.06769710084571
W   8.12702681141335   12.68122103114288   11.75716283631395
W   10.99390964382131   10.18070756782579   10.57042932013324
W   8.68799918996861   11.01045692939164   13.75076149755280
W   11.29734664599100   15.59669785753671   11.31997291305968
W   8.90284586369545   13.56057116711650   14.00632904106126
W   12.61985580575593   13.74901207101410   10.26107836394546
W   9.86285177538217   14.16990823591166   10.01947462861894
W   13.08651061314561   8.71995891272088   11.86527769344603
W   13.68920567459092   9.77952600167102   9.80438888841190
B   14.62650132294922   10.91246779528796   14.01599672983291
B   13.28005913629613   9.90312017671494   13.83172169986641
B   14.72007554903626   9.57021684709485   12.99122983218357
B   10.46176180050974   12.03174179840693   14.51645117080967
B   11.12934613579222   13.60054761594843   14.37196609212305
B   10.66158552552068   14.81017225458981   13.29505210857646
B   9.35098535472529   14.66964516640685   12.09582357787302
B   12.46849905095251   11.55706046676138   9.57117022270192
B   13.86519503360972   15.27744928955663   11.28600731136313
B   9.43329518769910   11.92914682447730   10.08602295739912
B   7.66974561155571   10.45353659142517   11.97843010852152
B   10.98074429104966   12.29905138886168   9.68330411879483
B   14.87170322304110   14.98464603921857   12.57890515997349
B   14.04646500461719   12.09867547729296   9.68562434351978
B   8.61946647255246   10.65955767280324   10.69568198464662
B   15.29274098799712   11.25976718661024   10.40204775978646
B   9.20013268991644   9.70740895892528   12.04035899696760
N   10.15399679731958   8.35719344957384   9.47938506700052
H   10.73261451870683   8.03622269839385   8.69591398564794
H   10.15154926634052   7.63369208654319   10.20529229129961
H   9.21458997806813   8.55825084821658   9.15270327974302
38
F:    ...  E:  0.178415790000031
W   12.71643183726716   12.00643263724346   14.39952038127432
W   11.13416608280848   10.15115724869800   13.09902819095496
W   13.46510635885006   11.41907781412253   11.93100097289238
W   16.14991561034616   11.06927142237197   12.31586286949673
W   15.24993967844731   13.00970036153937   13.58349550615462
W   12.85323785377894   14.13419074179276   12.93650798521275
W   10.72396358538127   12.60988901105915   12.14515833495440
W   15.17998109969664   13.42872976890694   11.05026682855391
W   8.12896357349779   12.68784106053579   11.73888884212516
W   11.00217958022695   10.20426217765888   10.55046453805485
W   8.68208882833523   11.01866690675923   13.72525920139603
W   11.30943509077554   15.60287012804949   11.29980443298784
W   8.90908728950474   13.56798056683045   13.98755054489666
W   12.63339202343801   13.75536284654189   10.23507881031565
W   9.87440394537521   14.18420713295644   9.99732946627048
W   13.08702324760835   8.71489017712698   11.84029476270009
W   13.68084081608762   9.78026136177436   9.77790956180402
B   14.62613606220842   10.89749310354751   14.00301616766311
B   13.27840493323503   9.89353039864385   13.81334961421692
B   14.71776608578540   9.55793482989824   12.97364841393015
B   10.46402630400332   12.02856390893434   14.48661437481588
B   11.13746833997891   13.59859676020868   14.34779394651015
B   10.67319912743175   14.81220224060889   13.27339022693070
B   9.36127406926605   14.67556492525958   12.07608560630477
B   12.47430516627481   11.56772613362653   9.54298900871306
B   13.88256085521696   15.27166539923207   11.26682425820347
B   9.44359288537068   11.94417506079645   10.06512478019640
B   7.67152013036812   10.45075054972824   11.95017147287250
B   10.98886003453586   12.31055332275959   9.65367387214809
B   14.88206861664096   14.97227479632123   12.56346684229407
B   14.05792282991599   12.09611706415127   9.66648186000321
B   8.63429072468572   10.67285699488055   10.68096586119421
B   15.29681194429528   11.24278114050222   10.38480594968514
B   9.20072574903769   9.71134171442647   12.03441988341486
N   10.11448816850009   8.33704576070260   9.60079122824339
H   10.76191525582639   7.80536622112049   8.99678072973620
H   9.93132634710651   7.93261190040674   10.53426976169798
H   9.25631866052776   8.51119520191224   9.10705370281818
38
F:    ...  E:  1.16454274
W   12.69952797022151   11.95853152041225   14.39812401689758
W   11.17424393950557   10.08328904086926   13.05967381697911
W   13.48255467030328   11.39975775004799   11.94155500118372
W   16.14818858651085   11.08704931701111   12.34456359802354
W   15.21793270364274   13.01605877957255   13.61740276635822
W   12.82199398693519   14.11148547586942   12.95265812529975
W   10.70885465808056   12.54792507794463   12.13427433950950
W   15.16699475858197   13.44882982475213   11.08083854253604
W   8.12161428291568   12.58914458991272   11.74553921532565
W   11.05368568939149   10.24210426783422   10.47954278793468
W   8.69340804041889   10.90126907278575   13.66334342025037
W   11.27079484414763   15.57783389278129   11.33898083412166
W   8.89073164162029   13.46462406383824   13.99671410149554
W   12.62300974951383   13.75025078124973   10.25473528926061
W   9.86568033827981   14.15665202513655   10.01612454242106
W   13.12675241429120   8.69452308601273   11.83172232498520
W   13.70104896806084   9.79212580219039   9.77294367485538
B   14.62894746736974   10.88582187757097   14.02908293201397
B   13.29988835642440   9.86064376742016   13.82159868880883
B   14.74403632783253   9.54881733462005   12.98855519652087
B   10.44879568291258   11.94919779335753   14.48337155909995
B   11.11300978577511   13.53129347110734   14.34642732090758
B   10.62339290880669   14.74985383182255   13.29248017527649
B   9.32428751607887   14.61593496702292   12.09478694168633
B   12.51425358778097   11.58854763148282   9.50725517813301
B   13.84323764254873   15.27500317079014   11.30006959788889
B   9.46185619819337   11.91968392873417   10.04938191556324
B   7.70265104021107   10.29513627698408   11.88072480900539
B   11.00791549833531   12.30539873801131   9.62385920405899
B   14.83969518799478   14.98138378426878   12.59967643198078
B   14.08348786626764   12.11221750760471   9.67458114956180
B   8.66509090599549   10.64471925311763   10.65762928924743
B   15.32223499287409   11.26349446832047   10.39754398402368
B   9.26874659574764   9.63505128110347   11.99011231720817
N   10.06415874015374   8.61131828427248   9.47342434372990
H   10.75858874173450   7.98759849582665   9.01189231377704
H   10.02182560821166   8.52461792896067   10.67174871536901
H   9.13202089796622   8.52795063101558   9.11220033033865
38
F:    ...  E:  0.891915770000026
W   12.69468878057915   11.94680980121677   14.38168392996114
W   11.18804033783890   10.11756420121783   13.07010411514554
W   13.48489066591922   11.39076060384578   11.93891512212274
W   16.15259350282253   11.08536170122841   12.33262034874191
W   15.22988628626976   13.01364994908158   13.60325157492495
W   12.82404603075272   14.12005796699632   12.93627796209349
W   10.71213006552454   12.52858915427394   12.12200405523828
W   15.16064273272081   13.43935604737312   11.07417230666675
W   8.13653040789145   12.61776816774694   11.73253718689245
W   11.01095443288241   10.11504835523631   10.36472768951600
W   8.71884700267402   10.90508287098549   13.65437023298190
W   11.29504705281403   15.57247684760515   11.31751707930643
W   8.91178818618916   13.48511628841941   13.98811218208459
W   12.61414634369817   13.71572355374817   10.25381434385427
W   9.87221023514049   14.14433495243776   10.01112742729721
W   13.10028833880922   8.70510815261339   11.85197822628684
W   13.68495342080589   9.77340915442263   9.77961628727545
B   14.63757677472948   10.88993407658683   14.02162575916728
B   13.31280128872575   9.85202025532955   13.82709312263159
B   14.75322578221204   9.54245556060978   12.98388130305600
B   10.44415370973059   11.97109761776616   14.50225820485404
B   11.12585330204320   13.53689226742529   14.33526333482318
B   10.63052892275941   14.74581427314333   13.27418811179184
B   9.33459804946190   14.64562647623866   12.08148244654960
B   12.50317278009230   11.56582988804092   9.50882259809979
B   13.84978958115876   15.26391472258644   11.27417388518223
B   9.45834735487449   11.91419575460996   10.04795548490909
B   7.69622423361487   10.31397808062442   11.88966817588577
B   10.99981341216590   12.26800493383521   9.61735582873180
B   14.84080855640121   14.97887777946682   12.58444836373165
B   14.07064705587328   12.09473085464370   9.67100929526659
B   8.62113113134357   10.67844879657011   10.64957787210177
B   15.31564717871020   11.26209103567083   10.38844973371875
B   9.23340505509981   9.64510306938064   11.95328013068814
N   10.17441539707671   8.59764085102673   9.31167490899241
H   10.73951890250379   7.92102791744936   8.81299838717233
H   9.93314425031048   8.77083194438606   11.39123679197913
H   9.16865224941686   8.50040486779619   9.09586498191489
38
F:    ...  E:  0.484853009999995
W   12.68393889191150   11.94037825656461   14.40620490795193
W   11.18653711949486   10.11422846190252   13.07165563333055
W   13.49156954542701   11.41797691429913   11.96847412713496
W   16.16644582817834   11.10618702867411   12.36262167659690
W   15.23236028291967   13.03007354568341   13.63075082404826
W   12.80051969596794   14.12263598945156   12.98454468992235
W   10.70979928377330   12.50555394602013   12.12388904397240
W   15.14998433893009   13.46839442775976   11.11190208971527
W   8.13618113865135   12.58537694407669   11.72502871251739
W   11.01369149006485   10.07660830508510   10.32425196488691
W   8.71484465394409   10.86536753901175   13.68005047511380
W   11.26246824120572   15.55077025918593   11.36994957905854
W   8.89190247251976   13.42125583989205   14.01103911912070
W   12.60576931380110   13.72284736824755   10.28243760131801
W   9.84903896279870   14.14111766604076   10.03500108794458
W   13.12599805279701   8.71620175527747   11.86021818091937
W   13.71800147828660   9.79275658938185   9.81347117899204
B   14.64259495360147   10.91010861017548   14.04849735905706
B   13.32501891821148   9.85446718628368   13.84605655301445
B   14.76808411879818   9.56552844550323   13.00227613771493
B   10.44604703332485   11.92715952742149   14.52614136114417
B   11.09902258578628   13.51234643632563   14.37476887153479
B   10.59091072792138   14.71664049564474   13.31385197723418
B   9.29220261326386   14.59552988280415   12.11705846369824
B   12.50221126566106   11.55403583215853   9.52984278953468
B   13.81935536615279   15.28368105028803   11.32294860423570
B   9.46215790262604   11.90691000187746   10.04705061916605
B   7.69940828428933   10.35862603669427   11.90310933460063
B   10.99995179116136   12.26747647211249   9.64040041587252
B   14.81609868858895   14.99642450059615   12.62916663218606
B   14.06807236347057   12.11400500343251   9.69598335956752
B   8.64721891509527   10.63992824138547   10.65314263611138
B   15.32539963615596   11.30163289973359   10.42261785389384
B   9.25303681479168   9.52634706789487   11.90080935450056
N   10.23258231684629   8.71602515148391   9.07405902548470
H   10.72649501552467   8.35959656491358   8.23916383855326
H   9.93440576427063   8.50769687094597   11.55380105756492
H   9.24581292542410   8.44324167740765   9.03290165442498
38
F:    ...  E:  0.11366129999999
W   12.70296357097645   11.95903203286235   14.39429648204374
W   11.17493775927605   10.12598598993997   13.06528623768219
W   13.48456281397445   11.42085316129894   11.94860271156071
W   16.15322458919974   11.09759723982974   12.34767103159692
W   15.22773585266470   13.01411571384069   13.62620096743549
W   12.81226969417301   14.13788345793461   12.97136496762108
W   10.72438635716813   12.52134973141995   12.10472639182798
W   15.15485561355082   13.47182488811537   11.10486145402307
W   8.14008944118920   12.58796570192226   11.70177053141699
W   11.04154959919746   10.13117408128096   10.33927854704941
W   8.71758404610367   10.88325488396685   13.71229564888502
W   11.27073370444051   15.57221997980633   11.35183357161143
W   8.89953023098995   13.42545092313647   13.98886149377743
W   12.61313817099936   13.75077606222809   10.26674096834488
W   9.85865511729960   14.15547454062289   10.02076047891780
W   13.08834474256374   8.70964122275365   11.84231863558991
W   13.74367650373504   9.80959388531506   9.80972016238837
B   14.63633820708401   10.88853903051193   14.03681216975143
B   13.29965744506143   9.86467315997388   13.81968768869777
B   14.73755807233382   9.56425252251638   12.97182362411314
B   10.46703434423176   11.94070823969652   14.48232171253815
B   11.11087178945547   13.52773479294161   14.36808682561660
B   10.61396295700830   14.72971588467102   13.29654658952412
B   9.30945352601421   14.60292377337445   12.10302967453297
B   12.51009573996871   11.57275795897875   9.50397472516883
B   13.84378374336478   15.29076487983279   11.32001236282582
B   9.48536236715555   11.93001407158245   10.04020599330831
B   7.72400138514923   10.42263597342615   11.90627472098061
B   11.01404570331220   12.30064546507520   9.61429119859041
B   14.83745383204673   14.99044695698096   12.62874089334477
B   14.07477078289803   12.13042299897653   9.68548269000572
B   8.71005931737533   10.63066410159566   10.67990069711981
B   15.32876010064293   11.31262178669751   10.40603731071911
B   9.21129779906169   9.44183262576065   11.86089783326846
N   10.33441819947124   8.71647666491116   9.12078981340903
H   10.77317379361868   8.38270682457488   8.25042065866005
H   9.41157199287869   8.28402916963642   11.73886404136291
H   9.39322988600363   8.33637841364954   9.20434728632732
38
F:    ...  E:  -0.0478544100000136
W   12.71777463576296   11.97666608028156   14.36245153781586
W   11.14747975701359   10.14674595338743   13.07985466454302
W   13.47410322792095   11.40346801347265   11.91033144319136
W   16.14238383853777   11.06031390871554   12.31509661012018
W   15.23583788281772   12.98673898886490   13.58634473171626
W   12.83671299407586   14.13992613052393   12.92013569814725
W   10.73692041102164   12.54989779693522   12.08223438748833
W   15.16294155551391   13.45135125377248   11.06812495298477
W   8.14437065697668   12.64331117507478   11.67466935634913
W   11.02972771788860   10.14711422583151   10.39686484516378
W   8.70160301694710   10.95120515058324   13.74346809983239
W   11.30812773947233   15.59430125141943   11.29684130820586
W   8.91838688390893   13.48199995619916   13.94294378034150
W   12.62654217565945   13.75133181415273   10.22079324100802
W   9.88523694464487   14.16757302842972   9.98077215313676
W   13.04993371881268   8.68977967362732   11.81902780297168
W   13.74442736761394   9.79582045558801   9.79538020206476
B   14.62640245691738   10.86177549105960   14.00288376652694
B   13.27012682607668   9.86705705333477   13.78410824474634
B   14.70332015868371   9.54270917978513   12.93616713716533
B   10.48101508449145   11.98476862429098   14.45595491994428
B   11.13719123683985   13.56331573576233   14.33370098234196
B   10.65972345617572   14.76775963321663   13.25114532438186
B   9.35339902441224   14.65299279473239   12.05897878752753
B   12.50388091551722   11.55549680625485   9.49705700449312
B   13.87710981425661   15.28197811292786   11.26898087301223
B   9.48959133464409   11.93515156819156   10.03541578488848
B   7.70723565343907   10.50580217943699   11.93860274539039
B   11.01583932307859   12.30121936384062   9.58868832318692
B   14.86380456506604   14.97449346525406   12.58743056639639
B   14.07183804461692   12.11521945707375   9.65504135431495
B   8.72832334899438   10.65928848770920   10.71307546857667
B   15.32624339031732   11.29273259539457   10.37374023422633
B   9.13399905206290   9.47569822675743   11.90849754145529
N   10.37520561387499   8.62547107485548   9.28221023317717
H   10.86574007343662   8.19812151295154   8.49568179730636
H   9.14867137356639   8.28787425559604   11.90267147793627
H   9.43396752057834   8.24866831634766   9.36977140956042
38
F:    ...  E:  -0.10873780999998
W   12.72833607217585   11.99716713312223   14.33679481830513
W   11.12499721637461   10.16631832794972   13.10428311850613
W   13.46317867431645   11.38624741721693   11.88544954363483
W   16.14134293737528   11.03230428526682   12.29285714561682
W   15.24849908277486   12.97103437205891   13.54924146142429
W   12.86352444286623   14.14268888722757   12.86847565786164
W   10.74644526129071   12.57384593505228   12.06447992375575
W   15.17553259918665   13.41281273885478   11.02596256636162
W   8.14413831180035   12.70287024544930   11.65499986292371
W   11.00676563035567   10.13786948515614   10.44591086633995
W   8.67218442369445   11.03955184488364   13.77599645844214
W   11.33944322131819   15.60388884851134   11.22500412060843
W   8.93757256687218   13.55124473222180   13.90268559762977
W   12.63877121341695   13.73274521697132   10.17892440173376
W   9.90100418903866   14.15989082154771   9.93569138616627
W   13.02966592945097   8.67649126052613   11.81102390327266
W   13.72933160408549   9.76490494104034   9.77863918617097
B   14.62055796621754   10.85337128111129   13.97741257900405
B   13.25592434699508   9.87213601777078   13.76424270767680
B   14.68661044215718   9.53363801414332   12.91712230104077
B   10.49416773746232   12.03548704692947   14.43269381151984
B   11.16469855978694   13.60742244566550   14.29270356960580
B   10.70580316201952   14.80712265149591   13.19363463348454
B   9.39348071391736   14.69131849873629   12.00889999685308
B   12.49179609538714   11.51951422728983   9.50212873215729
B   13.91086623893602   15.25808324658510   11.20964760043366
B   9.48488561769576   11.91676670787110   10.03948884287927
B   7.66861461602273   10.59030505137209   11.98430250125398
B   11.00928472755356   12.27953143600759   9.57554617149602
B   14.89696177146302   14.95515575048778   12.53120420572221
B   14.06549155250081   12.07900091335337   9.63227277026729
B   8.71886047672417   10.67565043998980   10.75740794679951
B   15.31565614885834   11.24657212876255   10.35184676495475
B   9.06810075638874   9.53059225610816   12.01071001627487
N   10.40065425391981   8.55036714261269   9.38666037395979
H   10.95996785968904   8.06404531476444   8.69298842717906
H   8.98683504082401   8.32597783497776   12.13388602333021
H   9.44518733072552   8.19120389254656   9.40391879699173
