38
F:    ...  E:  0
W   13.30268238933895   11.50059132050491   14.22991686139103
W   11.69029006426099   9.61765481569224   12.99145314387989
W   13.91544607809009   10.96101306520095   11.68101991695951
W   16.63034975432406   10.65339493703800   11.95053948715523
W   15.74410956615970   12.57217724548151   13.29808500057726
W   13.28757252567009   13.66954264541259   12.82761481027593
W   11.21482403652909   12.06842202489796   12.09987289089153
W   15.52563695986802   13.03953291457714   10.80725503808691
W   8.51649824565296   12.04611433555973   11.75645722879559
W   11.44970481381630   9.71723798975102   10.44769481953663
W   9.27731953348539   10.38214213772648   13.70957589435991
W   11.62251123927838   15.08635440634505   11.25673673147502
W   9.39590908274776   12.91445063456426   13.98436086551600
W   12.95229917322521   13.29439120092914   10.12438423267627
W   10.19048745062864   13.61283758851492   10.00157397671517
W   13.55705355546778   8.22690364298374   11.59487363365472
W   14.04518409788513   9.35934976521002   9.54386098507594
B   15.19668684548864   10.43965878566271   13.68205181899433
B   13.86504904785462   9.41121382757136   13.55228683720545
B   15.26074286084508   9.10836977468846   12.62501581462194
B   11.06100583285145   11.44445306951469   14.43613238564112
B   11.65148424064611   13.03278809144854   14.28546257843950
B   11.09541697735109   14.23922795636699   13.23734906553777
B   9.73825726688809   14.04486936851580   12.09461616654846
B   12.83700591323223   11.12997924318251   9.35551480245952
B   14.20545462243995   14.84404051974667   11.12184590787565
B   9.81077629076068   11.36961528543594   10.04125137674563
B   8.23284896751672   9.80086766351870   11.96985163224265
B   11.32873300390042   11.80190375082554   9.57557955802952
B   15.28788454415490   14.55131620261608   12.35372916754418
B   14.39755745831091   11.70664507583673   9.40984997897844
B   9.12371467917358   10.00412465693838   10.62320539556957
B   15.68059416085930   10.86403133149809   10.06634899496648
B   9.76303861716786   9.08109115463852   11.93909496324267
N   6.44741451950339   12.47211545256840   10.84421866511031
H   6.43553139499302   12.30353005142295   9.83484489895473
H   5.77030724652003   11.83399995094203   11.27161453176329
H   6.12775573475227   13.42918690830943   11.00999873414496
38
F:    ...  E:  0.136524020000024
W   13.28134272506865   11.52013144608793   14.25193052391225
W   11.67556471796392   9.61510082924907   13.00999286664637
W   13.88670576314914   10.96903673609582   11.69300594130226
W   16.59967129237937   10.68312166369741   11.96638986378682
W   15.70649583083432   12.60346628278160   13.30791907819392
W   13.25516380300642   13.67778674626397   12.83226781779360
W   11.19238260818637   12.05067584245167   12.11467907667758
W   15.47703060016942   13.06583782160396   10.81614426052421
W   8.52968140597821   12.02800624860556   11.84152372925974
W   11.42898156922986   9.70587342506624   10.45316993315713
W   9.27301673983720   10.34846503012076   13.73185525111431
W   11.57012328757949   15.08680156926342   11.24679075764025
W   9.39336160098296   12.92636091886206   14.02565475318177
W   12.90505010535401   13.29747544315580   10.12242897266346
W   10.14922840888611   13.59134913064666   10.01866348302554
W   13.54466833202260   8.23679379185493   11.62190429325165
W   14.02917717273868   9.36211075598396   9.56480461020841
B   15.17153974704396   10.46948149063960   13.70214717181912
B   13.84460558634756   9.43485205139783   13.58112800801285
B   15.23765121081725   9.13426384192152   12.65169391097108
B   11.04089766193408   11.45045267531609   14.44829292499663
B   11.63370990294740   13.04454947041311   14.29527964410964
B   11.07280370925115   14.24838416676053   13.24672333480814
B   9.71132096320546   14.03999504451816   12.11584145260401
B   12.81169059531499   11.12587963433651   9.36392005323614
B   14.14173148235189   14.86004568589916   11.12415516186730
B   9.79443559893663   11.33798989200763   10.07294056132671
B   8.22329795508513   9.76729429535347   11.98489120206308
B   11.29947173220206   11.78749322057118   9.56676282222204
B   15.23350958997842   14.58379707857047   12.35288909016270
B   14.36641923850048   11.71641678236247   9.42050005177487
B   9.10113722124455   9.96114575727035   10.62280612592381
B   15.65341067629496   10.88881198939556   10.08187050158970
B   9.75460975013071   9.06234333410904   11.95155330902325
N   6.61016461615381   12.45756680938342   10.73851516547498
H   6.92447493145237   12.13034329074698   9.84289098552021
H   5.80775236567687   11.92680500693851   11.13401209614975
H   6.30285829340407   13.43883359193633   10.71720000564578
38
F:    ...  E:  0.83765870000002
W   13.25585591848887   11.53856297856196   14.21977542369215
W   11.65372434248866   9.59878388203085   13.02395036809264
W   13.87014087536901   10.95368179668522   11.69553068973599
W   16.57573735336530   10.68902406707346   11.97856960879417
W   15.66348434094028   12.61524476894817   13.29729860480518
W   13.20876394180075   13.72585412459609   12.79720407143613
W   11.18649850538645   12.04953517258547   12.08780120382901
W   15.46734985308576   13.08050791578895   10.81677922159810
W   8.53875453136780   11.94998139323855   11.81151980612769
W   11.46337902155707   9.68366572621298   10.44476964553736
W   9.26257407706835   10.33345815752011   13.70268646023344
W   11.48009006748642   15.07458028659544   11.19285965549547
W   9.36726439982155   12.90321550977288   14.00215329598620
W   12.89109370710680   13.30765831505858   10.10817873241742
W   10.13245854865830   13.51859484010630   9.96249468408639
W   13.53485084912512   8.23594550075590   11.62077999434384
W   14.05822184342039   9.35390651673292   9.55319735457875
B   15.14677157013442   10.46239693063165   13.70607550916526
B   13.81753496664553   9.42617574657774   13.58311360702089
B   15.22032687060540   9.12420361504293   12.66761646553295
B   11.01662524440852   11.45575593007808   14.42140027034473
B   11.59097964962318   13.04742432891486   14.25388745107105
B   11.00726168306594   14.23536552297706   13.19552357258561
B   9.67566257695688   13.96539924758736   12.04774341652646
B   12.83905004714939   11.11273024060658   9.37533680628695
B   14.14144075151724   14.87273180722291   11.09676457694171
B   9.83353922047249   11.25376870029340   10.01582146554249
B   8.22395427920074   9.73115534080818   11.92565649988610
B   11.32120799445834   11.75930850213487   9.50983536409087
B   15.20788818321970   14.60248259833712   12.34783470466012
B   14.37125257598798   11.72724742127025   9.42898707546788
B   9.14340649971263   9.88804729319861   10.58330638968701
B   15.64941965125266   10.89582162375035   10.09089123119028
B   9.75137776074342   9.02990473092797   11.97085177472683
N   6.61537220337347   12.60089779193938   11.00219148818693
H   7.33139977463225   12.42170385268837   10.24784106403621
H   5.87225055280164   11.91320960064079   11.09519807497563
H   6.24817455913700   13.49720701374698   10.75371316292360
38
F:    ...  E:  1.23869454000004
W   13.26023171858050   11.53226432867650   14.21236031457329
W   11.64071203530336   9.60485653366445   13.02498645984369
W   13.87022547518102   10.94568795027628   11.68274312538208
W   16.58366668264678   10.68114136709615   11.97609143675691
W   15.66664445388224   12.60961025632500   13.28455143741668
W   13.21403063434879   13.73415448908315   12.80014756962170
W   11.19383206538040   12.05981007389860   12.09844333147128
W   15.48482059482348   13.07875729645431   10.81243824847064
W   8.37999163591819   11.98360089917541   11.74497747175781
W   11.45987270710868   9.68314321085971   10.44495636311412
W   9.25516206602811   10.36319463904757   13.68037686870127
W   11.48730725500340   15.06707492526363   11.18541799324056
W   9.36793190427867   12.89156236928611   13.99354854647913
W   12.90177257951508   13.30018551900632   10.12029134505766
W   10.11218605749754   13.51265190993162   9.98171144887504
W   13.53354801386992   8.24171128533388   11.61389077675336
W   14.07405198753654   9.35158570437661   9.55202241842243
B   15.15171397458193   10.45653915177264   13.70074692905702
B   13.81797120924159   9.42126932529420   13.57363350798193
B   15.22623372085421   9.12055257507654   12.66184799221261
B   11.02839327464101   11.45222283735134   14.42375023796020
B   11.60118508216589   13.04224573012568   14.25390332092332
B   11.01606495200713   14.24013370540731   13.19964054947311
B   9.68390608149506   13.95141847252277   12.05852352154785
B   12.84803347672753   11.11296239866958   9.38289786741229
B   14.16527518748828   14.87210632276212   11.10446529151920
B   9.83292317864824   11.24776423458778   9.98566838562830
B   8.22493651229357   9.76074591029212   11.91330933575078
B   11.31923343580377   11.75301333220350   9.52801164869316
B   15.23189172608664   14.59697296980350   12.35096279948486
B   14.38223732941605   11.72496060420845   9.42625412211264
B   9.13801090093646   9.90428119253560   10.57225753326596
B   15.66646658149259   10.89550301938338   10.08836410423278
B   9.75300680614877   9.04611335128201   11.94046284383846
N   6.42963093026997   12.59453447894402   11.23522131624939
H   7.82620509002150   12.47025739108063   10.10164498662130
H   5.66250233125707   11.92290799714689   11.22007964154747
H   6.14332914315860   13.40764103343330   10.70453770019031
38
F:    ...  E:  0.712862040000005
W   13.26269208920654   11.51330215461776   14.22475891599783
W   11.62383519222842   9.60423399004156   13.03312997881721
W   13.85561731059110   10.94955300578549   11.68081075107164
W   16.57129423149405   10.69532066379552   11.96275114495260
W   15.65315420232467   12.59918551213997   13.30468754754893
W   13.23402242025870   13.70910599123492   12.77309784261936
W   11.19524403646747   12.04231961912139   12.09834744359205
W   15.49624317794349   13.06923450526301   10.81305870445208
W   8.29042302800841   11.99073277502651   11.61137057026181
W   11.49096058359403   9.64142831500867   10.44814927085862
W   9.21988048815233   10.43798872060372   13.64777174015364
W   11.47360945601721   15.05005556396674   11.18518203766112
W   9.38367160753047   12.89491838300769   13.98123753862255
W   12.89869326345919   13.30346438242863   10.11402310104805
W   10.04915121196143   13.43619190929916   9.96799556519210
W   13.54686403320436   8.23709282712609   11.61571539312286
W   14.12242848470471   9.34714402463963   9.54940663061151
B   15.15482120584926   10.44225236976290   13.70078771566882
B   13.80785903674585   9.41477389664132   13.56634842568462
B   15.22083326974149   9.12000334087018   12.65581889470060
B   11.03681738319209   11.45111621946171   14.41931752713357
B   11.61453937326544   13.03657520804578   14.25085237181537
B   11.01296862632766   14.22594162186140   13.15768555625392
B   9.66608093157894   13.88709209326813   12.04337426588880
B   12.87217753691227   11.09684500433038   9.39569202982130
B   14.16604949188614   14.86945925143876   11.10177365000359
B   9.93805860737885   11.22801162091976   10.02457884537341
B   8.22091438815634   9.82564305408453   11.87561516980635
B   11.36303421065291   11.75220072717504   9.47599909633811
B   15.23167264219120   14.58627809185863   12.34983784922597
B   14.39507200217262   11.73681857424422   9.41601994560407
B   9.14687216119324   9.92175720441334   10.54193850278871
B   15.68965093369898   10.90510752590362   10.06518595199296
B   9.74785535800224   9.09079163533861   11.91245358034176
N   6.33997951369938   12.67954856390175   11.55592449437412
H   7.97885514378165   12.48944700951106   9.80911243911885
H   5.59996770215641   11.96934979132166   11.43672522026560
H   6.06327445590973   13.38485364417918   10.86860308285606
38
F:    ...  E:  0.523684540000033
W   13.26016552346950   11.52142009155320   14.21881618628269
W   11.62204721197085   9.61917544190766   13.01636933319745
W   13.84970667282006   10.94849016755810   11.67949406106257
W   16.56546941838447   10.67894759918203   11.95086438178059
W   15.67898391193188   12.59498857866092   13.27481503262217
W   13.22585828549036   13.71335145945612   12.78957964965071
W   11.17730557518139   12.05106451436859   12.10718793510555
W   15.46381796419376   13.07417623426510   10.80050317213738
W   8.29082914949867   11.97754860347363   11.60275570405295
W   11.44834577670191   9.65927303573199   10.42958048395797
W   9.22912379793869   10.44208314912088   13.63059621103408
W   11.46212785976684   15.07413426294689   11.20090007339732
W   9.37997875941642   12.90355583559083   13.97737509903903
W   12.86792703939311   13.31817632349413   10.12872488811851
W   10.06595366126167   13.45047824737451   9.98369057318498
W   13.52074658191312   8.26125221613708   11.59065022603572
W   14.05078795466282   9.35441275537101   9.52037741307373
B   15.14998676912683   10.44992408751006   13.68982199619915
B   13.80676846502013   9.42266726265524   13.56218443005883
B   15.21374524361479   9.12011682036274   12.64542934685733
B   11.02239753322737   11.47193405110809   14.44825544285140
B   11.61157001836582   13.04355355887086   14.24995259672359
B   11.01417328585789   14.24508076574362   13.19717268357378
B   9.67199686634742   13.93066017379573   12.06501211821901
B   12.82216974899915   11.11080780213102   9.38870399063521
B   14.14602252448983   14.85972853142286   11.09404255354950
B   9.87209953305618   11.16491500592158   9.92042964593895
B   8.19076317725572   9.79731560130023   11.90422882098227
B   11.32149593068272   11.76092137727077   9.53491664624062
B   15.22362458957668   14.58653884652110   12.33606946600617
B   14.34938305345458   11.72681289381440   9.42043237623105
B   9.09780547891973   9.88804069140778   10.55286834174293
B   15.64177113959524   10.90021348860055   10.06541671820598
B   9.72850904052101   9.07270466572974   11.93323077645741
N   6.39952352246524   12.65170229803127   11.48502009087226
H   8.53959693510834   12.38685197479922   9.82309240713407
H   5.57019902501216   12.00387663796135   11.55451512848887
H   6.08236176694612   13.39824374048775   10.86206279093845
38
F:    ...  E:  0.378193150000016
W   13.27833378127866   11.52033138763911   14.23018291176896
W   11.63778957387635   9.62714781331603   13.00176833180650
W   13.86637651728474   10.95728373937278   11.68333404737357
W   16.57242708314615   10.67444433202314   11.92738983410118
W   15.70771353836864   12.59105189839230   13.26587671063218
W   13.24393494386102   13.69256384238066   12.80519718303345
W   11.19047547011251   12.06558691597983   12.12788074364714
W   15.45233887594994   13.05979160627403   10.77861098578044
W   8.33985028363040   12.03101028843912   11.71784064383342
W   11.39788794988485   9.71832006677825   10.45341230708448
W   9.22781217651464   10.43990668541870   13.63320927232800
W   11.50454474786630   15.09226664032196   11.24210532431174
W   9.39964958527392   12.94164934653889   14.03834571159336
W   12.85444073741517   13.31177348048025   10.13676188129153
W   10.06941953287359   13.50371785651447   10.03843264966763
W   13.54336622828547   8.25222423970653   11.57722266932986
W   13.98928959290697   9.37137491929425   9.51217747915807
B   15.16300739725009   10.45188593503937   13.68316243444465
B   13.81849706247022   9.42351412913241   13.54926879251291
B   15.22476560031362   9.12403258212065   12.63288310703757
B   11.02663144375046   11.46504032095759   14.44124398574441
B   11.63359649250026   13.04789603957015   14.27699970698083
B   11.03412103800020   14.24872965686773   13.23245058899822
B   9.68236808317912   13.96544042225607   12.11586334390806
B   12.77102928255849   11.12852350685030   9.36651089506906
B   14.14597766636174   14.84394448466122   11.09916858040159
B   9.65398959515123   11.28064771905606   9.84536972856166
B   8.16688348980418   9.76709880866183   11.94388193092970
B   11.26760250260736   11.77642065278063   9.64614800249513
B   15.24302419714878   14.56834003319002   12.32293385321448
B   14.30707022554224   11.71508463359886   9.40742681020717
B   9.05662128497263   9.93649330132067   10.60586544072202
B   15.60918330660949   10.89270554052560   10.04583795366888
B   9.71988176731157   9.05716758309804   11.94846400064981
N   6.44148077943324   12.58914426481937   11.38665636506460
H   8.64102428930855   12.09130758893830   9.51718233943710
H   5.61891958135186   11.97966253603577   11.49502223317299
H   6.13381308748321   13.43161399328841   10.90305001167740
38
F:    ...  E:  0.186670400000025
W   13.28033962640795   11.52702317719879   14.23997254823492
W   11.64772347874849   9.61883763709108   13.00674726411933
W   13.87674396381551   10.96615314451240   11.69216966580221
W   16.57504676269431   10.68798391643019   11.93535301757912
W   15.70310331181041   12.60497591383593   13.27535700155426
W   13.24177334370885   13.70558305329438   12.82879877732256
W   11.20832781275320   12.07953628530390   12.14203550576405
W   15.45197393423637   13.06277768057875   10.78030204616537
W   8.35226078885395   12.05635874050595   11.76873873982275
W   11.39474125229142   9.73657025867739   10.49180665152682
W   9.21717322623329   10.45505578182055   13.60573018040407
W   11.49622688947933   15.07202210934562   11.24741763871531
W   9.41132403850718   12.96546619471740   14.07717719534657
W   12.85603762237268   13.30254313885502   10.14664509337660
W   10.05459179772791   13.49877127111786   10.06863158226796
W   13.56495666177068   8.24535154156257   11.59516283104852
W   13.99042821655814   9.36851170627698   9.52972913736941
B   15.16578029447441   10.46388881308900   13.69537336758582
B   13.82382662713852   9.43471406546861   13.55667064600455
B   15.23304033506958   9.13654305734046   12.64627373800651
B   11.02547276755585   11.45608869936482   14.43633646246073
B   11.63399651396737   13.05255211803448   14.29506510532332
B   11.04110669621022   14.25981023756005   13.25732648544818
B   9.68717727438611   13.97598418944594   12.14721488128359
B   12.75755075487153   11.13257684111580   9.35792244842516
B   14.13643462052511   14.84558576555771   11.10703379402195
B   9.53301980146015   11.30655098402946   9.77180866331012
B   8.15407991797411   9.72252885023454   11.94089008158840
B   11.20019041811385   11.74849128147608   9.70911648258994
B   15.23870428505829   14.57502634715643   12.32247255858572
B   14.31150739293588   11.71809732411115   9.40748491790472
B   9.04892052094476   9.98466718979918   10.63787000279019
B   15.61117469164006   10.89191717684473   10.05296935385279
B   9.70440628625394   9.02414975528967   11.94970197582123
N   6.49118233665850   12.59751904405751   11.34942229619215
H   8.66236788720737   11.86328665694482   9.10812058027389
H   5.66479970257530   12.00955717650107   11.50940777661710
H   6.18762693864632   13.48208166709318   10.94488229713367
38
F:    ...  E:  -0.00482121999999663
W   13.26283147121132   11.54000889581360   14.24760379066084
W   11.63961296683013   9.61531016941793   13.01895756401561
W   13.88026831981970   10.97397750469727   11.70341183907945
W   16.57666328190512   10.70398555610542   11.96479804236640
W   15.68765449804707   12.62632480082117   13.28831770249959
W   13.22731610286820   13.72201074271580   12.84688003507507
W   11.20895027311755   12.08033306712040   12.14979412367343
W   15.45085717390534   13.07947953396650   10.79738741958814
W   8.35808990902311   12.04845443196948   11.71669137995612
W   11.40687708517532   9.72225065281589   10.51043582012947
W   9.20022381090902   10.47017788244837   13.56860798533696
W   11.47164081535218   15.05729722628347   11.23766433928072
W   9.39413515186824   12.96597768083475   14.07154444907577
W   12.85323831166193   13.28612045006431   10.16216402847462
W   10.04239071446215   13.48025174933567   10.05296131966327
W   13.57627329051491   8.24865463490199   11.62329030587099
W   14.00597730439437   9.37668573491265   9.55727067138681
B   15.15643108140910   10.48537239668200   13.71639148347087
B   13.81836443563588   9.45274465234673   13.57552830507855
B   15.23341602259759   9.15399637302961   12.67160053817382
B   11.00905326304165   11.45578671646678   14.44296835298091
B   11.61033534004381   13.05581991729572   14.30287624890079
B   11.02724505606011   14.26337371625949   13.26074004430888
B   9.67815187484859   13.96552232471785   12.14479859565031
B   12.75796392551146   11.13589706158870   9.37068789705853
B   14.12019868088679   14.85535977683295   11.11657233750380
B   9.54684118019080   11.27086156702534   9.71062866251965
B   8.15005404792689   9.71178747917454   11.90523036475777
B   11.22208356789459   11.72405730143329   9.73212244551676
B   15.21993975802128   14.59742576492859   12.33420153429676
B   14.31608948534125   11.71894900092748   9.41640084923682
B   9.05068571006100   9.96206383554251   10.62959044039518
B   15.62358484224353   10.89924079751927   10.07559009928462
B   9.69660815370782   9.01645071249847   11.93032105747874
N   6.50183304985166   12.63364998530346   11.36848155527418
H   8.76464258853461   11.65191473823656   8.79905479701783
H   5.67242932314785   12.09335871908348   11.63132995968517
H   6.21618692361673   13.53420524052201   10.98224240692202
38
F:    ...  E:  -0.0879030299999499
W   13.24017626290858   11.55351078689530   14.25809427047793
W   11.62692603667550   9.61231589562278   13.03627315968348
W   13.87956329954090   10.98239635157268   11.71967288594442
W   16.57642978400908   10.72330611554809   11.99389557988213
W   15.67034328657083   12.64976627438728   13.30100692823428
W   13.20885501894725   13.73477253872205   12.86339765003533
W   11.20512424787856   12.07353220956893   12.15672630358733
W   15.44562144196355   13.09660407436967   10.81474472710251
W   8.34899350738157   12.03599197334886   11.64826651775159
W   11.42149559245037   9.70355739176212   10.52613478984211
W   9.17846006318829   10.48641574152099   13.53215122850136
W   11.43754416815817   15.04134928181948   11.22043050793688
W   9.36574436429906   12.96137061341145   14.05186652893996
W   12.84979934861935   13.27977252381543   10.18367419800005
W   10.03460575624538   13.44755893661632   10.02601670900178
W   13.58533816384529   8.25318513565434   11.65293454039207
W   14.02205742193459   9.38329414945903   9.58488153774055
B   15.14509264476743   10.51096047631518   13.73733519486981
B   13.81041348146982   9.47116149034805   13.59567009959772
B   15.23157492291686   9.17286345651164   12.69915779662036
B   10.98420432364745   11.45670710246270   14.45454103770810
B   11.57867295741100   13.05996387083064   14.30928023635374
B   11.00708138886059   14.26121488315001   13.25226357734141
B   9.66526368885365   13.94556215373057   12.12596222161066
B   12.77521414941616   11.13010276572326   9.39084364997600
B   14.09831856769493   14.86649804951186   11.12845578919796
B   9.57370635412735   11.21821641798129   9.62779548865012
B   8.14199494114009   9.71883322955982   11.86392211430442
B   11.24059027947801   11.70786028489258   9.75860185486653
B   15.19827104669415   14.62166431118480   12.34611120353470
B   14.32305931393420   11.72086551214652   9.43185596479008
B   9.06881640245046   9.93277378693944   10.57377112893196
B   15.63050344177971   10.90998809501076   10.09853037039566
B   9.69066453871255   9.01635999553060   11.90935498408261
N   6.49417880479865   12.66831230108418   11.40289609481006
H   8.97706812232318   11.45817315259301   8.57285278186514
H   5.67170640673019   12.20413788188851   11.79111253693990
H   6.23166524981577   13.56421958014898   10.99465660213788
