38
F:    ...  E:  0
W   11.85175926418328   11.30468376632747   14.43840134164288
W   10.35951577077405   9.46770389630798   12.98326578052336
W   12.72147895009503   10.80213335479463   11.95415765240834
W   15.37328660705073   10.42787280658736   12.45657246317707
W   14.41001096937863   12.33457943407393   13.71644408064278
W   12.03945725164549   13.46024320418673   13.03430842580226
W   9.99413154721502   11.92641975538601   12.08753976765624
W   14.43543210940738   12.93228997116284   11.19427996722601
W   7.41140291215491   11.93404511533594   11.49571976719556
W   10.36148610323673   9.61854901540903   10.42697885755184
W   7.89401714011697   10.25796349782948   13.49126132130544
W   10.50843603756143   14.96521661107441   11.34411465431875
W   8.03365947348115   12.79308393522968   13.82493407402698
W   11.92241458488786   13.18487050327278   10.30990092921567
W   9.18606618472216   13.53613377908796   9.93149375298455
W   12.31689062850844   8.08128714893244   11.76026348566814
W   13.03590013228377   9.23671377497400   9.79133267556476
B   13.77890618938663   10.22093837616779   14.05636080328024
B   12.44829007501008   9.22100471536981   13.79015013353678
B   13.90984466848858   8.91015144702365   12.98269269717602
B   9.60747629265416   11.29245775731266   14.40022724719043
B   10.24352197221826   12.86885419181223   14.33312451772100
B   9.81566618532036   14.09246051183927   13.25173360856826
B   8.55775401381219   13.93346688058613   11.98892834395056
B   11.86056427721116   11.02299383053275   9.51850313727740
B   13.07761541446303   14.69855241738613   11.46037877577780
B   8.79018356962375   11.27280545543162   9.85435213193248
B   7.01235547411838   9.73027586175941   11.63589753197561
B   10.34801076226726   11.71822995257721   9.57998286664462
B   14.05137135007985   14.35763228435918   12.78040163210258
B   13.41104601337220   11.58311972841058   9.73713443415660
B   8.02119002655888   9.92545527749326   10.36983183921157
B   14.60438390763582   10.70732933973339   10.50045200633360
B   8.52229970497315   8.99180773538983   11.74769820955202
N   16.21647305902101   13.61970549201993   9.99566924423896
H   16.95826756965061   13.96617164565126   10.61090243461184
H   16.59436883689759   12.85389357505688   9.43302352225404
H   15.95020376217220   14.38404274575272   9.36672467723514
38
F:    ...  E:  0.0159399300000018
W   11.85810541910082   11.31495633067761   14.45965332792539
W   10.36828995879395   9.47970257168055   13.00122812639787
W   12.73052132106466   10.80250920410616   11.98232733671965
W   15.38780473640051   10.42976951075030   12.50203106072645
W   14.42360820401914   12.33638168206709   13.75462415238070
W   12.05919123857770   13.47272664509462   13.05770330527409
W   10.01110733329784   11.93735741166624   12.10197527722978
W   14.45141638287043   12.91916938360477   11.22210505995664
W   7.43157042043531   11.95109367980229   11.50110012769502
W   10.37617896654738   9.62251743271492   10.44218024003868
W   7.90287306415788   10.27673908144084   13.50275667404967
W   10.54061546057214   14.97213558003359   11.35285843535211
W   8.04600129036966   12.81301056911132   13.82847933857888
W   11.95080638466412   13.17825254127932   10.33333442813124
W   9.21490814438920   13.54351036830483   9.93785371265195
W   12.33006952339620   8.08560674422707   11.78987069061195
W   13.04770700979003   9.22621278090983   9.81337919361218
B   13.78581927652050   10.22723098564599   14.08930546481241
B   12.45389914555868   9.22597303374174   13.81885628054269
B   13.91989263393643   8.91557954982907   13.01611352666444
B   9.61535342670346   11.31035549092924   14.41309482948149
B   10.25390089149819   12.88587885729802   14.34501547658130
B   9.83270776220544   14.11118835190539   13.26089700618662
B   8.58138869345772   13.95203750129450   11.99084616563086
B   11.88057106218512   11.01856628330654   9.53796673572404
B   13.10338413027792   14.69593314901893   11.48250840196214
B   8.81192522199611   11.28090026156139   9.86352414521165
B   7.02513157303242   9.74904227672234   11.64650812865903
B   10.37136769879198   11.72095197962745   9.59078269564872
B   14.07246867784132   14.35566854952538   12.80370078041641
B   13.43394894501803   11.56666281686002   9.76190500028786
B   8.03695023278282   9.93795265530879   10.38070474895922
B   14.61509922842579   10.68657875265139   10.54343585951340
B   8.53326939953030   9.00693362449140   11.76186089291984
N   16.11459663884672   13.57938562811306   9.85989500927329
H   16.78785965065966   14.18968051741080   10.31505458911266
H   16.60036445874516   12.77203432061623   9.47801650002470
H   15.67446518517704   14.08495268830898   9.09168606669415
38
F:    ...  E:  0.0551165699999956
W   11.86808503076536   11.32789513686752   14.47867733482787
W   10.38034615984495   9.49341084292271   13.01822312513680
W   12.74395333465598   10.80869636057835   12.00650782056834
W   15.40292270818551   10.43266455442694   12.54183966107319
W   14.43881148870861   12.34152399452327   13.78879795845532
W   12.07957540053607   13.48480396697961   13.07638144725773
W   10.02968439855389   11.94969279905562   12.11403547414043
W   14.46991900285180   12.91009681723239   11.25032793735021
W   7.45212725758106   11.96650422828556   11.50744790692535
W   10.39297744998776   9.62974772770312   10.45598350338597
W   7.91527405754041   10.29603815036692   13.51376692948180
W   10.56989205902176   14.98020180992775   11.35967781381735
W   8.06110849949912   12.83303730296265   13.83276746209355
W   11.97573812928800   13.17723515288437   10.35075367181783
W   9.24129499787803   13.55380128204534   9.94360126562474
W   12.34090580097270   8.09138984226894   11.81769080665345
W   13.05930375588050   9.22109016431496   9.83575935698682
B   13.79448498278354   10.23470756586624   14.11868754619832
B   12.46177899612064   9.23536543749455   13.84383688501785
B   13.92971371645479   8.92354603535332   13.04432915767194
B   9.62681437772029   11.33074663639099   14.42409893409029
B   10.26771339100667   12.90475570649485   14.35703997949244
B   9.85316012594157   14.12859640604495   13.26754240394523
B   8.60486651409442   13.96839797717482   11.99466623150704
B   11.90185103632811   11.01911739582234   9.55311667028644
B   13.13205557394303   14.69185972557994   11.49810532982112
B   8.83380138165019   11.29086185620018   9.87346486120881
B   7.04113148017100   9.76614607081536   11.65676136871967
B   10.39389326393692   11.72589704955622   9.60123990088127
B   14.09425882708950   14.35482214120266   12.82552636483169
B   13.45720015113270   11.55601474008136   9.78456644475488
B   8.05477761527588   9.95016925332804   10.39157495454823
B   14.62815502958558   10.67340916836658   10.58041283605401
B   8.54713695179127   9.02202095913893   11.77543296493880
N   16.00551483852601   13.52917963235591   9.73823108719842
H   16.54581611265029   14.35230004506320   9.97776435869612
H   16.64057171583057   12.77414765866794   9.49840904289930
H   15.39852317785271   13.70524719729290   8.93809199328145
38
F:    ...  E:  0.214242049999996
W   11.88220840044246   11.34242780798557   14.48982156383645
W   10.39792453553793   9.50552299463325   13.02697121504936
W   12.75666586413563   10.81814192720421   12.02051462632414
W   15.42660861799913   10.44253283230867   12.57101935142754
W   14.45201153624512   12.35625910764367   13.82190646193675
W   12.09454111504515   13.49714422945413   13.08436056875978
W   10.04998317070681   11.96109434993866   12.11826081280641
W   14.49009169581711   12.89476252106670   11.29738746545043
W   7.47119544692307   11.97961766385018   11.50924475482637
W   10.41183133385345   9.64233904286637   10.46282214337087
W   7.92964158830828   10.30980283720575   13.52010480956085
W   10.59338265901271   14.98991642628667   11.36175713128031
W   8.07605101559188   12.84809691807900   13.83165433448002
W   11.99822873378863   13.18449396353479   10.35652217850632
W   9.26510205232732   13.56916089956815   9.94487337152943
W   12.36065129118037   8.10362477068483   11.83242013077755
W   13.07317528335703   9.22480665732566   9.84652609251389
B   13.81088453419755   10.25007433118979   14.13611816866794
B   12.48017703130483   9.25111484513545   13.85792985336883
B   13.94746850159996   8.94004260046029   13.06049554743835
B   9.64073820368128   11.34606031823898   14.42791484657366
B   10.28238041872522   12.91955085084340   14.35984677498465
B   9.87021822638853   14.14171252071160   13.26675130682915
B   8.62377200416914   13.98127019748268   11.99234028854480
B   11.92072425831874   11.02610859197448   9.55701366280138
B   13.16856466659590   14.68538813771052   11.49912160294270
B   8.85390995739039   11.30618431027918   9.87845440963617
B   7.06051455735328   9.77913139841177   11.66093461896356
B   10.41495865144469   11.73897749056377   9.60392840220533
B   14.11196574568820   14.36378891687965   12.84612037254926
B   13.47498018848369   11.54870534649384   9.80950946970801
B   8.07634285778956   9.96413185757093   10.39672884376046
B   14.64304046414104   10.66493639188265   10.60932410378336
B   8.56712693071849   9.03668301999050   11.78275823399121
N   15.91585074114834   13.44919839536262   9.67660326660817
H   16.24744303585260   14.43104116666851   9.66375911695637
H   16.67872639098026   12.85007374042982   9.42055469833381
H   15.11605708539409   13.29121941371908   9.03276419055909
38
F:    ...  E:  1.17375530999999
W   11.88149176870326   11.33792246564996   14.48958399664733
W   10.41267172119516   9.50760139426996   13.00087386434105
W   12.76641558565274   10.83437512534826   12.01304194425957
W   15.41901787709162   10.48298474866129   12.54452505704530
W   14.42042364653947   12.37315617487674   13.82284501782632
W   12.09074365569311   13.45158479127044   13.02003005544985
W   10.03579803172378   11.97148060666528   12.08236677829173
W   14.58842872784616   12.91467053165193   11.11316747957904
W   7.45496038623561   11.97129556428092   11.49864826905010
W   10.40244482761618   9.66168864710355   10.44933589104082
W   7.92689803790708   10.29167489555720   13.52052057356536
W   10.58551439947874   14.97511083003554   11.36374527249960
W   8.06919895260827   12.82416794512908   13.81726104446972
W   12.04883540991765   13.25538623479859   10.26132970198901
W   9.28075158166653   13.57092751278218   9.92971118766684
W   12.37202686678554   8.10870001793782   11.79794988566137
W   13.07729275325614   9.22513750979894   9.81902340679757
B   13.81246911794210   10.25557842506677   14.11218347665403
B   12.48279528825336   9.25398480602275   13.82704594589288
B   13.95106287311152   8.96096273677250   13.02212182964114
B   9.63831395153009   11.33539422365834   14.39450802943349
B   10.28670948915396   12.91229030566726   14.34849574388578
B   9.85731666010758   14.13696180820093   13.25715940617857
B   8.61105703819670   13.96802210415644   11.98181702755985
B   11.92186672129912   11.03891384075158   9.55105923504830
B   13.19374812864539   14.66077285415273   11.48625302346217
B   8.84826859666901   11.31682158183885   9.86399804620571
B   7.06690640263020   9.77014519181006   11.65678252847497
B   10.42209746347893   11.75920098859305   9.59291138326715
B   14.12974871786199   14.32051295210279   12.80864089763744
B   13.46948033489084   11.53124334023034   9.81898789692154
B   8.08290315380529   9.96039886442870   10.38674772504528
B   14.64766405332317   10.65595639173136   10.57548705959260
B   8.57127128589679   9.02872115435007   11.77261425865290
N   16.24888521449308   13.38811898172806   10.06002550538601
H   16.42377910623994   14.37567199676929   9.84430500655854
H   16.71710801433986   12.80270192112123   9.37454663960203
H   14.41877294985181   13.44489932666603   9.35548870035947
38
F:    ...  E:  0.364972419999958
W   11.89502983741339   11.34553287966233   14.46476901533950
W   10.41750723505679   9.51137432795205   12.98400906082051
W   12.77915955452347   10.85657060578584   11.99117119105081
W   15.44310704962722   10.49631636397889   12.51188437221548
W   14.42200215636768   12.38825104699776   13.77582500602690
W   12.09341677994950   13.45769103249211   12.99538037890839
W   10.03483042310125   11.97268779617548   12.05796536349256
W   14.68406313938195   12.91277333530889   11.13980424601254
W   7.43876766632761   11.96443088273477   11.50040843664720
W   10.40072003338665   9.68120680371307   10.44226883823928
W   7.93522598291158   10.28271135942435   13.51259424213293
W   10.55833928746966   14.99587660120166   11.33346454375332
W   8.07986302856030   12.81852429042364   13.81471633283458
W   12.00471005253140   13.25504971940599   10.26814543840660
W   9.24224299098387   13.58795279269598   9.91255919494693
W   12.40992172299724   8.13321122092023   11.75462347739745
W   13.06699671745121   9.26071614519518   9.76814952566109
B   13.82511726059515   10.26420378548385   14.09965585173082
B   12.49382414306054   9.26012490094412   13.80389891400418
B   13.96339925052235   8.97608966110393   13.00089887045150
B   9.65773022308515   11.32549349328038   14.37103986403474
B   10.29536073004374   12.90856524886790   14.32374073505118
B   9.85689381312600   14.12052484831563   13.23548859851851
B   8.60380377944771   13.94840880643156   11.97338703914558
B   11.91483744932049   11.07593576187553   9.55499959747660
B   13.20547372322561   14.65222249882419   11.42248350471571
B   8.82529078254221   11.32846357010079   9.85830867830547
B   7.06330055387435   9.75890188639273   11.65405636320761
B   10.39924774433495   11.77191459218899   9.58459158596853
B   14.13023461469678   14.34053662151279   12.74307528070105
B   13.47913467828340   11.57230353237125   9.81087551439467
B   8.07389344627794   9.96196483658610   10.38313046240285
B   14.65845820417642   10.65176373277665   10.54411049174707
B   8.57297496557923   9.02347925189198   11.76480626134774
N   16.35873133751708   13.41439871265655   10.14116520790323
H   16.74528522965208   14.35871822737981   10.23741926949877
H   16.85374210506554   12.94144369228937   9.39217781415006
H   13.75250109917056   13.05880392629401   9.50809022299763
38
F:    ...  E:  0.183464549999997
W   11.87918258133442   11.33387289719224   14.47848430113737
W   10.41922168234988   9.54009282190703   12.97183622431831
W   12.77191712057559   10.88911230846494   11.96842485886646
W   15.44134969973719   10.50333908136636   12.53728632488097
W   14.41816157736553   12.37825751217265   13.78551140661341
W   12.11223403437083   13.46727894836751   13.05649096652193
W   10.04871061813754   11.98885464611244   12.06028395729156
W   14.64166512135825   12.98860184194078   11.17709020290008
W   7.44806612672249   11.94983593242628   11.46782090347164
W   10.41454462537728   9.65645383927793   10.41792468546842
W   7.93941406882171   10.28823108587278   13.46667267786394
W   10.58376955251520   14.96686381230517   11.36246709275152
W   8.07085557090180   12.80764716040544   13.81693532433058
W   12.00516087350892   13.26867030125485   10.28556141796461
W   9.20530468742278   13.57989599916725   9.91686555993523
W   12.37004285095162   8.15103391759079   11.75792448316005
W   13.10400742874395   9.27741637759330   9.77827286622449
B   13.81000363309261   10.26792184192508   14.08336834881317
B   12.48756062117725   9.26751177607432   13.78570861588095
B   13.95564010766932   8.98568601693709   12.97377672347912
B   9.64520604218149   11.31980353619375   14.40120553426965
B   10.27514285718814   12.90455124406150   14.34932031601293
B   9.84345306237314   14.10500501091263   13.26050390227536
B   8.59533806383922   13.93463291197920   11.98750956014797
B   11.91891092672526   11.05969947244111   9.58735189587684
B   13.16992349409300   14.70916709557801   11.49731462788621
B   8.84566112095420   11.32127263212215   9.85135099847543
B   7.08071015590234   9.73692067137711   11.60460887822977
B   10.41174135836025   11.78800586573477   9.59340561986326
B   14.14852288231371   14.33872046689606   12.78329965755586
B   13.49627602477543   11.57556614691619   9.73258141524700
B   8.09694833332512   9.95286661899360   10.34791882595709
B   14.66519278917972   10.67489605556160   10.58448998154186
B   8.60498942059145   9.02455065951799   11.72060762763120
N   16.30177381699127   13.54468663560023   10.21704600600325
H   16.95485622512685   14.27037000271658   10.51719377308765
H   16.60300181183446   13.16780680351518   9.32563459529682
H   13.85067782374739   12.65003884316603   9.12508863440768
38
F:    ...  E:  0.25176646999995
W   11.85249037616118   11.30655785409409   14.52377653220451
W   10.41554213131542   9.53874877789284   12.99708476089969
W   12.73512076167525   10.91873339559175   12.00154473115072
W   15.38163284590252   10.55503428132619   12.51004355658921
W   14.40077867668110   12.40780051940447   13.85506968395452
W   12.10198088178205   13.45210470136797   13.10494728979230
W   10.03241893120014   11.98424970795022   12.08435969601213
W   14.64293224544770   12.97480355261252   11.23634568860701
W   7.46603429653809   11.95884004840339   11.46088292247477
W   10.45849135958086   9.66982134669552   10.42796573926004
W   7.91837475126095   10.28301728634309   13.46023721115938
W   10.60661736043688   14.92905394330832   11.40212363623467
W   8.05209944513060   12.80927235363725   13.83997939998739
W   12.06221846619139   13.23622900835339   10.33730825076647
W   9.22572999116828   13.56486935623924   9.94045268074038
W   12.36528408709905   8.15071328511570   11.78394295248533
W   13.12652631124405   9.30712110347295   9.81805742353579
B   13.79624956701561   10.27420718200903   14.10457412824394
B   12.48273130819927   9.26383093768463   13.80398044374710
B   13.94617840037063   8.99443716178791   12.98803654082040
B   9.60720981130080   11.31304640928678   14.41225574966052
B   10.26039280505853   12.89009991640131   14.38072377387815
B   9.82026035070292   14.09572063188156   13.28620332741987
B   8.58563159717810   13.95156330701842   12.00498407500340
B   11.96822361935907   11.07703514336285   9.59307944428050
B   13.16311340219373   14.70863688288686   11.55909612462818
B   8.89146893554174   11.32047843985588   9.85388090819887
B   7.07406053045398   9.74996001677021   11.58936190890054
B   10.45195725946474   11.77848721089704   9.58410271225654
B   14.12525671572338   14.35951754867625   12.86526330769981
B   13.61409991669124   11.67255066829190   9.54366280085997
B   8.11176365069591   9.96675584007492   10.34609621796323
B   14.63433724741875   10.75921492068744   10.58351060963051
B   8.60434112900648   9.04148806289708   11.73305254017164
N   16.23622621620671   13.55090372849929   10.20473313057965
H   16.91924002430044   14.25412898974413   10.48199557000438
H   16.48663647674103   13.15564187579485   9.30315701651066
H   14.01148690919917   12.41046339532052   8.62926630532648
38
F:    ...  E:  0.0543170400000008
W   11.85577612726176   11.32015424369397   14.54272563231708
W   10.40487734364758   9.50975965738478   13.04862928941415
W   12.73104389966414   10.90203548340501   12.05937305210061
W   15.36233114665665   10.57998517971404   12.51240748683180
W   14.39966622744981   12.41759609288183   13.88127841662784
W   12.12172413012903   13.48951723978584   13.12340628090037
W   10.03525703438644   11.97207505283581   12.12326166198628
W   14.61042769336949   12.97270599805254   11.21340352802799
W   7.48894685871965   11.97970595666666   11.47003180136910
W   10.47937520999176   9.67123608325761   10.47642529195593
W   7.92094466640139   10.30887049291652   13.48270831067502
W   10.63553180113233   14.95182706515055   11.42663140549094
W   8.05407466048465   12.84087442639485   13.85639533290961
W   12.07369196853243   13.16098776867650   10.40457981395543
W   9.27425702698716   13.55858912536813   9.94431257644768
W   12.36975784082264   8.15726171479914   11.83993401424519
W   13.12660410978913   9.29012452829192   9.84821009854448
B   13.80625111906515   10.28318714256696   14.15942849264178
B   12.48740044113874   9.27231934817429   13.85928310374614
B   13.95348857221500   9.00934135511408   13.03976491968133
B   9.61499650787887   11.33924951606416   14.42425796088872
B   10.27379610151663   12.90833709441337   14.39096406243842
B   9.84181618051852   14.10853702742207   13.28209572778371
B   8.61699891837126   13.95513900402215   12.01165228185155
B   12.01659468603228   11.07032252129481   9.62658681950675
B   13.15604419955988   14.72695849724727   11.57229859633558
B   8.92184756069677   11.31806378461210   9.88209829226299
B   7.07569920469364   9.78121090148040   11.60894358855189
B   10.48452040496479   11.76157766797256   9.60217419998071
B   14.14469055957077   14.35998467699100   12.86278251916516
B   13.68160578237750   11.67942378009585   9.41116079932460
B   8.12489256010745   9.97904624292488   10.37334414414309
B   14.59151651683266   10.79696867284799   10.57063168297843
B   8.59177383540535   9.05009359573112   11.76773373352191
N   16.11703311298999   13.56583307389896   10.08571002267750
H   16.76061821523178   14.31676796881462   10.32783984131940
H   16.33702647193682   13.17152656733399   9.17311077044283
H   14.09224009510690   12.09794424333594   8.34956323859991
38
F:    ...  E:  -0.0158653100000379
W   11.88600233250249   11.35112866824850   14.55412055066012
W   10.41766942356027   9.52236956768120   13.09372828771521
W   12.74746944714325   10.89862858597342   12.08314869427646
W   15.37264166137912   10.57728223799995   12.50272960718041
W   14.43249504526950   12.43381259780154   13.85551673287580
W   12.15661009769196   13.50784012172502   13.10987266550619
W   10.04861403075656   11.98048864796127   12.14297479111578
W   14.59987086645449   12.95930797399015   11.15517106149982
W   7.50011085755323   11.99780313103498   11.49507102597506
W   10.47205218204652   9.65718075093363   10.52159521956701
W   7.93689876663487   10.34344220964557   13.52495249660942
W   10.65916255753058   14.96284679269341   11.41319047179505
W   8.08031448776245   12.87375877770016   13.87469815359298
W   12.07693578378280   13.13548489379455   10.40023533838118
W   9.28522423574610   13.55476920504104   9.94795933122177
W   12.36328137558200   8.14881304457459   11.90825925693311
W   13.09491527368964   9.25166930661151   9.88818359499450
B   13.83634044590648   10.30526200827361   14.17915774262386
B   12.50962915658364   9.29306809766616   13.90485406944274
B   13.97046524019381   9.01602605996051   13.07343235015364
B   9.64474820515270   11.37431938429507   14.44817817646986
B   10.30911755553932   12.93983600333829   14.39512332523312
B   9.87611952057254   14.12917607291715   13.27545024527417
B   8.64102200423988   13.96980895767824   12.01889260272729
B   11.99999520459208   11.04365775752209   9.67449711625245
B   13.16260299090835   14.73637607729799   11.54273220278189
B   8.91717146198374   11.31357984019987   9.90977504313696
B   7.07957159171354   9.80521140148851   11.65708924169703
B   10.47912333462314   11.74762207987374   9.62576311304744
B   14.17879866828013   14.36013077170711   12.81026780615798
B   13.65311586422411   11.59061623138220   9.36565050162647
B   8.11859470111825   9.98470278537273   10.41381757359587
B   14.57989883373815   10.78570275906150   10.56186144608515
B   8.59012468694025   9.06864010862021   11.81743163604748
N   16.04731182803843   13.60969360400565   9.99116625599723
H   16.56750094830413   14.46450909128448   10.18816989238472
H   16.33994167283670   13.19732585440735   9.10396329190984
H   14.00367645106303   11.74324733187571   8.20645787909396
