35
F:    ...  E:  0
W   10.07768176597453   11.34587124945751   12.14487539751407
W   10.73537863997961   13.79468067095670   11.98220198208939
W   9.36183402531045   11.15185155394781   14.80390692607972
W   11.61182989448886   10.00091194179419   14.12833154163892
W   11.54563515732448   12.59282027276811   14.25573760065569
W   13.73810277034117   11.12562926142778   15.11076553180062
W   12.99359314557879   11.50815159675056   12.14244620751863
W   15.39271845204965   11.40737986387358   10.66337664100853
W   11.43378175636230   12.41077504462429   9.88662637999940
W   14.84759913799480   13.61414715778047   11.89830342079930
W   14.22040973991027   9.31353345116217   13.50257021354327
W   11.54158856971029   9.82525872927757   10.31826356120527
W   8.83470858332135   9.20860791442950   11.15353440529266
W   9.28124122808057   10.79750237666389   9.39363974906790
W   14.17569027806500   9.22527180991923   10.80124262129666
W   15.52442975254397   11.60732090512466   13.32522103627145
W   7.53831596661410   11.42495797541833   11.17547049572209
B   9.18799268675403   12.84546708577908   10.52682359372731
B   8.57716618062449   13.20056866028911   12.10340727113361
B   9.38823677904008   13.07089290206041   13.66178272322736
B   13.83154512739698   12.98403015522264   13.86737450695050
B   9.53239529470842   9.38988640579910   13.39102624092363
B   8.12850971823394   10.33223209649099   13.07254955742944
B   12.78369704177416   13.80025569591575   11.10191129076309
B   13.71898778624120   12.73131123822937   10.14188513315353
B   10.76139542338790   8.98672052088890   12.29100362176669
B   15.81558699083240   9.76861881243832   12.08176735222543
B   13.33029414880995   11.10161349410837   9.80480963803669
B   12.46736709157267   9.06055355334587   12.21868961254697
B   12.82047818496581   13.87348378336844   12.82224948765974
B   8.04334450266939   12.02675333516256   13.25722955496632
N   11.51309884365471   13.34438992865502   7.82757586945702
H   12.18005681559122   14.12110447090916   7.81447155060263
H   11.81850904591507   12.65585886336494   7.13474348648074
H   10.59655950631385   13.70134725473219   7.54394582958260
35
F:    ...  E:  0.0706720900000164
W   10.04022685277491   11.35259999852056   12.13540817626972
W   10.70851971641311   13.80116743827425   11.97620379906053
W   9.32465539978614   11.15721054024687   14.78580491530242
W   11.57501764214489   9.99887767440800   14.11340508717089
W   11.50958438787619   12.59491332306442   14.25162697306845
W   13.69391159892216   11.12699972714745   15.10398969330337
W   12.96148044508788   11.50999574326798   12.14101057785535
W   15.37352198810940   11.41927595155211   10.66490752453805
W   11.40931654515602   12.40280069328521   9.89039984429938
W   14.81536163092428   13.62736393321869   11.90368269489948
W   14.19266211672136   9.32016847157042   13.48628939804228
W   11.51680477042278   9.82880665035536   10.30939023415669
W   8.80434957340329   9.22929402271853   11.12170315630410
W   9.25884264253346   10.81513898768049   9.36970337529848
W   14.15707931727039   9.22598076845215   10.80263679322444
W   15.49000345421332   11.61763465392446   13.32611640587197
W   7.50851898044162   11.44821828688334   11.15689419287132
B   9.16743765347254   12.86174082143572   10.51774528640326
B   8.54981660754198   13.21683325443012   12.09406459552463
B   9.35596705924798   13.07800046108477   13.65486173702657
B   13.79567296041415   12.99061530763417   13.87034348185770
B   9.48903047549135   9.40035683785080   13.36660108608405
B   8.08656587878727   10.34870538984324   13.04812611696044
B   12.75488247240103   13.79940204688674   11.10346872759060
B   13.69838361280186   12.72821268878487   10.15307636306968
B   10.72607534344941   8.99722726548299   12.27422360686445
B   15.79958197271753   9.78344394849039   12.07463169019050
B   13.31160881139872   11.09759594788332   9.81392818685846
B   12.43624914339197   9.05400083513737   12.20635992357285
B   12.78529673192586   13.87736498723411   12.82459776492906
B   8.00512586977741   12.04180045724016   13.24242321930583
N   11.70066141034905   13.30548093776665   7.85928342854293
H   12.61135885661032   13.78089281321851   7.97304538016348
H   11.80730985785575   12.60008029205146   7.14398759964080
H   10.92887825230029   13.91155887510988   7.58981899601176
35
F:    ...  E:  0.630389949999994
W   10.05426131407429   11.35784000390868   12.13819441534864
W   10.70166467091689   13.83385036933844   11.96941794761154
W   9.33283883357550   11.15815841649039   14.77459342626002
W   11.57526658776270   9.99470929711494   14.10845745497456
W   11.50683689144326   12.59628303607692   14.25392963075379
W   13.70425551405190   11.11090242280453   15.09589397679727
W   12.96317905634365   11.52820507757722   12.12302490363018
W   15.37474316779824   11.53237892787260   10.61374514826491
W   11.38021165128705   12.38723986841047   9.90506063530452
W   14.81136516092162   13.63990258234773   11.88554059160991
W   14.19654042459235   9.35664769007426   13.44277750351988
W   11.50829694708266   9.84602949710716   10.29769124044261
W   8.78061833474422   9.21005012353081   11.14174600660156
W   9.23031795790131   10.80914181458201   9.40034106058314
W   14.12720891363457   9.26515004095778   10.76286825420133
W   15.50583154257510   11.65348480227108   13.31635219603363
W   7.50170439011618   11.46350051166857   11.14447229260290
B   9.16823506404198   12.87592736637150   10.51943292017916
B   8.55399131708203   13.22619962380215   12.08978117219418
B   9.36344144759729   13.08933861366340   13.64579672705692
B   13.79316585226395   12.97465213323564   13.87350829944338
B   9.48637291187447   9.39748047284409   13.35755033590800
B   8.09238415835919   10.34980519745728   13.03117229252319
B   12.73395813573439   13.80410625156107   11.10999599830768
B   13.68381459028888   12.79552610014937   10.08062489323493
B   10.71720847672496   9.00656884466369   12.26011340335469
B   15.76516072794677   9.88247978055014   11.98931117054794
B   13.31972350538632   11.13735537959721   9.80992887265249
B   12.42296745655813   9.07199812750670   12.18724934773687
B   12.78354389172099   13.86406497270763   12.82897902164748
B   8.02491592327894   12.04263702690510   13.22655890500478
N   11.68999928459154   13.17498238608427   7.87469933238375
H   12.58181128548564   13.39857465700499   8.41357859142271
H   11.86276857286088   12.58560776228931   7.06254594313607
H   11.05115607151732   13.92898085360918   7.61482612086177
35
F:    ...  E:  1.41613740999998
W   10.08584620409494   11.36814265913238   12.13352762233736
W   10.70872388162939   13.82688798056333   11.95097137924836
W   9.34696085642447   11.16710044924180   14.77993147139295
W   11.59259316305834   9.99894361051462   14.10139516004883
W   11.51529506704975   12.59695832864382   14.25592077062406
W   13.72213127011310   11.11514225090477   15.09425077979728
W   12.96173721298215   11.52378157281497   12.12591658090719
W   15.35447149069345   11.56187586450025   10.59141058961657
W   11.42008089046199   12.48586257331855   9.78799407146365
W   14.80287103297509   13.61474816909182   11.86593005092694
W   14.20283075981277   9.36559053245028   13.44550247376063
W   11.50329048840717   9.88516583566332   10.31713125910193
W   8.79815050639201   9.21081038594806   11.13887109064735
W   9.24559201467815   10.82022905720321   9.40563142047914
W   14.11387478307063   9.25414668338034   10.74834725908712
W   15.52017316070561   11.66074155613797   13.30214454101259
W   7.53110597917839   11.45739187664735   11.13107577002473
B   9.18286775476773   12.86885512314811   10.51459076512773
B   8.56002310351929   13.21587541630591   12.09144442248132
B   9.37021146740689   13.08875054645466   13.64992395620187
B   13.79903025584616   12.97351703879705   13.87477698252133
B   9.50269502722180   9.40215247849988   13.36411838484228
B   8.11148229157190   10.34524393046738   13.04123261110356
B   12.72971255638175   13.77083873831514   11.13363988062450
B   13.65946819428115   12.86018138974917   9.93478100339466
B   10.72498557536096   8.99414387397840   12.26886948984017
B   15.74316913173178   9.90847763672627   11.96998401410230
B   13.31350607574698   11.10733497254252   9.82847249674574
B   12.42857866413593   9.05264094464873   12.18719275654976
B   12.78485576877528   13.84713980743745   12.83452144822446
B   8.03006387987128   12.03284350980497   13.23172307539097
N   11.50114091046069   13.17702252570652   7.83640311988601
H   12.80403781308953   13.27169703188422   8.81076492717058
H   11.83068743331149   12.61821543576231   7.05009668212460
H   10.84751536692816   13.90131024575042   7.55127172532679
35
F:    ...  E:  0.60230875000002
W   10.08436774495169   11.37923567616821   12.11868671700720
W   10.69707330934176   13.82312450848685   11.93899527801417
W   9.36324665636739   11.15540448735301   14.77220405183633
W   11.61142259190751   10.00812760058987   14.10392033576045
W   11.51354408956838   12.60297468657268   14.25493661441867
W   13.71965002174935   11.11989481871660   15.09649904759317
W   12.95178257473223   11.51073327632680   12.15549767156819
W   15.34344107142753   11.51672273518477   10.61185843952836
W   11.46909539898581   12.56177937602504   9.70055075495793
W   14.78577021115780   13.63304956138093   11.85955362417280
W   14.23296947188523   9.33977332974018   13.45966987699031
W   11.51921161497799   9.92753003323145   10.32047467426698
W   8.81778015742961   9.20375496881731   11.14325668147578
W   9.26252631604722   10.86964112885907   9.39924637431509
W   14.14168038407890   9.29128614814986   10.74374672701847
W   15.50712169921874   11.61231171224487   13.28317906778621
W   7.54805868461064   11.43674437350223   11.13975191874874
B   9.17815949191498   12.87529807901674   10.51783053657153
B   8.55604994084460   13.21221939823420   12.10581026779548
B   9.37928303472591   13.09639110956623   13.65433058522180
B   13.82521724056100   12.97703900075794   13.86248923020942
B   9.53121901744765   9.40058731080613   13.36432042393078
B   8.11952910406128   10.33534191470396   13.06094374392170
B   12.72243625726535   13.77801842776982   11.16725642155021
B   13.67484169111108   12.87416551127420   9.99375585838945
B   10.74723109959723   9.00117952971688   12.25239516160898
B   15.80736958562985   9.84074942911304   12.00778438086700
B   13.29578660369224   11.12638257652070   9.82635613863662
B   12.45526323386141   9.08753766856536   12.18133234300219
B   12.78502247851516   13.85316624186217   12.84504687422984
B   8.04401509766003   12.02805689068298   13.24463628190316
N   11.14347598944829   12.99161915451692   7.74498539063034
H   13.03994850924185   13.35556302692271   8.93906855893700
H   11.77371190174254   12.65803122456573   7.01112963010001
H   10.70245775637814   13.86632511619173   7.46826034917070
35
F:    ...  E:  0.34323151000001
W   10.11124772923215   11.35207184473809   12.15175854342736
W   10.71099935867747   13.83277373852185   11.94197782807851
W   9.37132257780524   11.13628660792806   14.79254130902663
W   11.62569821036885   9.98502046977377   14.12492180176570
W   11.52700222255573   12.58759790040592   14.26579388943530
W   13.79439671599541   11.11882340877653   15.05434987450499
W   12.95772740223696   11.48459960993822   12.17309888420245
W   15.31937708434181   11.58639551476674   10.57653661437846
W   11.38553475021071   12.52549047352700   9.75349943015241
W   14.78948631234084   13.61531208083200   11.84016431048305
W   14.24213375605966   9.30321109185340   13.49161515224320
W   11.52206509816095   9.88762541460046   10.35316008263049
W   8.82776196656117   9.19912011553882   11.15919374050466
W   9.24611383347271   10.86287507833966   9.40715856483434
W   14.10145615544264   9.27368342958864   10.70895622345591
W   15.55654499135609   11.66417191273801   13.28038998868581
W   7.56518064401991   11.43200805308632   11.13907743820795
B   9.17841358386386   12.88551454329158   10.53408969265644
B   8.57048170672184   13.19873869562741   12.11908866035398
B   9.40128811772370   13.07200199249014   13.66603945620266
B   13.82568030783400   12.99125157770217   13.86559662014815
B   9.54815627213212   9.37615387171452   13.39041239710824
B   8.14696112732471   10.32193412702750   13.07517192560001
B   12.71911168962931   13.74741933873185   11.12077158645487
B   13.63702093831309   12.96055683374387   9.84107915096144
B   10.76625007165465   8.97703980888541   12.28706920139292
B   15.70980468106694   9.90617562558163   12.00085317241857
B   13.27552224184886   11.17500436710437   9.83298347201957
B   12.48224823865924   9.07605855454632   12.18937854178630
B   12.77828152031803   13.84834661834010   12.82666042998903
B   8.05715755265315   12.01090122932646   13.25609386516698
N   11.03569414735975   12.93978059766428   7.79060824537702
H   13.28688387384813   13.54135333352649   8.76888024369074
H   11.76356981298957   12.72236516350165   7.09834826383400
H   10.51318533935880   13.75209700837744   7.47244143095865
35
F:    ...  E:  -0.112086089999991
W   10.10314140624752   11.34083100925369   12.14079102750426
W   10.72084713233534   13.82662070380680   11.94113845232043
W   9.33824176174109   11.14571599252462   14.77915833032431
W   11.58104397707705   9.97023900704037   14.11071122419249
W   11.51850055311983   12.57352605297571   14.26624539116399
W   13.76519957928092   11.09203313522935   15.05283125007595
W   12.94872142667570   11.47337098666651   12.18155543547907
W   15.35259876043989   11.63179686886087   10.59556800839358
W   11.39580521729378   12.48682029774777   9.79625459432619
W   14.81217139619042   13.60870381330666   11.87674109881024
W   14.21049805665616   9.26957380658243   13.53858985302114
W   11.50012691681722   9.86211896732548   10.35740367324429
W   8.78824269690115   9.20590759233172   11.13903912405874
W   9.23355928115711   10.87630831932532   9.40014646808855
W   14.03148407972279   9.24899965796223   10.69259048429721
W   15.55273974902016   11.68659550662634   13.34473428274649
W   7.54835435793630   11.46861942622773   11.11040092177517
B   9.18519621172633   12.89687275962664   10.52435092887331
B   8.57340085349455   13.21811666462111   12.10039390353529
B   9.39419345835224   13.06888736215785   13.64554092731373
B   13.79533740963334   12.98393944631580   13.87816438539118
B   9.50102052534077   9.37975502548405   13.36919105133304
B   8.11989697539527   10.33889831002388   13.04038710507390
B   12.74590046227893   13.71275480009484   11.08994223930381
B   13.68230198327168   12.97417692606579   9.74982744649083
B   10.72672472421553   8.97177908021020   12.27646775061486
B   15.54167805369291   10.00925471633329   12.00252074680025
B   13.29689285019040   11.18728962015028   9.85472469802840
B   12.45708308377435   9.05111161467884   12.20908928052616
B   12.77914153325103   13.83351855317326   12.81193686541999
B   8.04362335793763   12.02949733867336   13.22750688358242
N   11.07771760794224   12.93281526063309   7.85286016703996
H   13.75670822150244   13.54775975031099   8.70119136796189
H   11.81411685953493   12.77466510254987   7.16242665883207
H   10.45754951198975   13.67088655723897   7.52933800619301
35
F:    ...  E:  -0.19323313000001
W   10.08224038658836   11.36043005692207   12.11956550351197
W   10.71657961161908   13.84023207039164   11.92611687946451
W   9.30926581637783   11.15021731148761   14.75272743764052
W   11.53870946665210   9.97673889527655   14.09853055781598
W   11.50465655386593   12.57231816391544   14.23676047486895
W   13.73227710339670   11.07358845895498   15.07647492085091
W   12.92917880561538   11.47623038079870   12.17932738365054
W   15.35300496569186   11.57691902115447   10.62581077511254
W   11.41327316556873   12.48789380481750   9.79003467846927
W   14.81804393455434   13.57797027597672   11.92891805070672
W   14.16059739287162   9.22340866219439   13.56485186016541
W   11.49284329790985   9.88583902874936   10.32876858748113
W   8.76275465543321   9.21679257457829   11.12430953782777
W   9.24270861643596   10.88408027933195   9.38857326766379
W   14.03261051427791   9.27674576947885   10.69278914354408
W   15.53217901313349   11.65559496638548   13.45833353830006
W   7.54010857002746   11.48498014143178   11.07871590758334
B   9.18991474885662   12.91143236371555   10.50615070779988
B   8.56544336430834   13.23492449797023   12.07750697845894
B   9.37638476182175   13.08582432523102   13.62269509928053
B   13.77709259699740   12.96500285088381   13.88183950437262
B   9.47168959775712   9.39465540522420   13.34246518122061
B   8.09503565868548   10.36065394570486   13.00602390216820
B   12.77232098016272   13.72782725529107   11.07901645246915
B   13.72639777998867   12.94906845798831   9.78454967697505
B   10.69952731157800   8.99315504157724   12.24171176560972
B   15.50250358843353   10.00683466554919   12.08593873947572
B   13.30614595901230   11.20309364337906   9.82737329101666
B   12.43113088597678   9.08050901984657   12.20429886897992
B   12.79044786843726   13.82540272898652   12.79878040275693
B   8.02639193109455   12.05214763394779   13.20360391976186
N   11.10466771961626   12.94644226657139   7.85889101096150
H   14.14317301987291   13.49883601572313   8.78496284427887
H   11.79849735418466   12.77418799546215   7.13200644549584
H   10.41196303533122   13.61978205723753   7.54133673639543
35
F:    ...  E:  -0.17763444000002
W   10.07803063455940   11.36947693860676   12.10054221408395
W   10.71426390620232   13.85351570652141   11.92160585371756
W   9.29083507073390   11.15839417434954   14.73263281078298
W   11.51596465551665   9.98103572281549   14.08522045715381
W   11.48916954470827   12.58398751606537   14.23050448038003
W   13.69130410136785   11.07459863847141   15.08122781020649
W   12.92762482057151   11.48511003291880   12.17152676535823
W   15.34924854940836   11.55006158256298   10.63623872742923
W   11.42165620365074   12.50259700456833   9.78317262072872
W   14.81800130914600   13.56927576893997   11.96199690031039
W   14.13999882935078   9.24470373587739   13.53618372051919
W   11.48823298798821   9.88914497127711   10.31433254759614
W   8.74614527862823   9.22819645650479   11.10389446866098
W   9.24721765329229   10.89835286754939   9.37791364955014
W   14.04519831193997   9.28536029673647   10.71492807787990
W   15.51518548569364   11.64579181700640   13.47499188492613
W   7.53151017763054   11.50555969674135   11.06019914554900
B   9.19169939652201   12.92548013262867   10.49194956801269
B   8.56286723567372   13.24893997555482   12.06048306136469
B   9.36557354364673   13.09410153678883   13.60741276680461
B   13.76145473457384   12.96631664550580   13.89126533678314
B   9.45097595568061   9.40445332054538   13.32179924449179
B   8.08036423510667   10.37444287587252   12.97748479609413
B   12.77858749348609   13.75714109320939   11.08155752428072
B   13.73594978634413   12.90318167241497   9.85689418549494
B   10.67827756696900   8.99850127530854   12.22153027451828
B   15.56440943230326   9.98689116567347   12.09341049189590
B   13.28944201944931   11.18964591063247   9.81086091500321
B   12.40715631422793   9.08484342542022   12.19093993099666
B   12.78250837196390   13.83766749833722   12.80933840678383
B   8.01335828038064   12.06512781297570   13.18219980763883
N   11.08624890087416   12.94862645705935   7.84816707628423
H   14.47647766394619   13.37558428572082   8.98139671980591
H   11.75698834791678   12.77643750994502   7.10010540630996
H   10.35783323268130   13.58721451102896   7.53585238473751
35
F:    ...  E:  -0.218208940000011
W   10.08143463899312   11.37122538654435   12.08310866916663
W   10.71026187713615   13.85483224665150   11.92523917528767
W   9.28483817837622   11.17022263390179   14.72452010713342
W   11.51369938969347   9.98947675023027   14.07258078719878
W   11.47439263864269   12.59999957232471   14.24292269520996
W   13.65529501329860   11.08247131472470   15.07900184817782
W   12.93250634123097   11.51177398264363   12.15291708377073
W   15.33375504268030   11.56016466450754   10.62872478207850
W   11.41616361735274   12.52200309322360   9.77401939667904
W   14.81687376559495   13.59435082891247   11.97355023145488
W   14.13777542986589   9.30204912571462   13.49101978836546
W   11.47270242674135   9.88294766426977   10.31775036662256
W   8.73792876037046   9.22621838273766   11.09344181602182
W   9.23705071811876   10.90111313423379   9.37445889297383
W   14.06748513475655   9.28456332741088   10.74137190288255
W   15.49443907611887   11.65395827216999   13.40201008367260
W   7.51700390635925   11.52786486096330   11.05118978707930
B   9.18768929133268   12.92820617841029   10.48150801568657
B   8.56130395530051   13.25376905696548   12.05065207994140
B   9.35872275508106   13.09574220990348   13.59782919554501
B   13.75280900680871   12.98075246108539   13.89214138447253
B   9.44285903510346   9.41181270167005   13.30769368788604
B   8.07582569656144   10.38106341781827   12.95560399974995
B   12.76569637046731   13.77638462384536   11.07957706647509
B   13.70758354459805   12.84539249621150   9.93307538751355
B   10.67068427895950   8.99036369189848   12.21523780298970
B   15.64335934454915   9.95164296380959   12.05913938534407
B   13.25830330112240   11.16087981933867   9.80844549709764
B   12.39357593635633   9.07107873379434   12.17780719536559
B   12.76184387732188   13.85246887710180   12.82076334606361
B   8.00895223988455   12.06794790910304   13.17078788565446
N   11.07189849798410   12.96419199413537   7.83826599096005
H   14.73493075594176   13.19178554247855   9.22103507656724
H   11.74358383687067   12.80760720978146   7.08719939208556
H   10.32653235256204   13.58343490362002   7.52517022896313
