35
F:    ...  E:  0
W   10.67080836702588   12.15078364956246   11.76327844665136
W   11.34292819570840   14.76707497028688   11.65413933486006
W   9.82812124502780   11.96839664165674   14.35885022320221
W   11.92492000824880   10.57554134664479   13.77677521319571
W   12.06645703473020   13.24946889990238   13.87883506827471
W   14.02885067085219   11.64092345014333   14.81230945339346
W   13.50118755689456   12.05615297515303   11.86224057735731
W   15.89813188695360   11.88854989496412   10.44360633747892
W   12.03229338101076   13.14188533019380   9.68294392709030
W   15.46353720538280   14.06941021054783   11.70106068055006
W   14.49783045404269   9.81220874772897   13.15150252202936
W   11.95580001060130   10.50304107789733   9.93061833212468
W   9.15131672975453   10.12324022718622   10.69852117000352
W   9.79761334860704   11.76133205971551   9.02529742820610
W   14.52020756515825   9.76131196152336   10.51124165156938
W   15.96687843447923   12.01060964841786   13.09022301600634
W   8.08948811007019   12.49016673307431   10.71802241370693
B   9.86123193536287   13.80626574968321   10.17518439511872
B   9.22665474520832   14.14388565765167   11.72972279892808
B   10.01158090342744   13.95055357710125   13.27510560922452
B   14.36577686496769   13.50101069512433   13.59080083460100
B   9.82752523984161   10.22271868294656   12.93145377014391
B   8.54784424579182   11.30599664609513   12.57347439770250
B   13.43204935238377   14.43501444205564   10.84187827160321
B   14.29554802734948   13.30597776006054   9.88884910245591
B   11.04093220563523   9.73696741066808   11.85346315484104
B   16.19738484863221   10.16493415243478   11.81509401344923
B   13.82627855411397   11.70122675916927   9.51505600780069
B   12.73573506617866   9.64291777416938   11.84180754022039
B   13.41370173147082   14.46814103157143   12.55648165617035
B   8.62117012896229   12.97883986805230   12.83303481400253
N   7.95581292246644   8.22924025620392   10.27426733374443
H   7.75542106580411   8.15741616709779   9.27236394376904
H   8.44209966601062   7.37204228739753   10.55690634929809
H   7.05664232398013   8.25651329005403   10.76535024336221
35
F:    ...  E:  0.0206585399999994
W   10.64816770563738   12.16915481468887   11.74400543032719
W   11.33315295667317   14.78417932363909   11.63827721889553
W   9.80808731445842   11.98525789210225   14.34331058045093
W   11.89580747781100   10.58486812044772   13.75789365801833
W   12.05568921693047   13.25481072102713   13.86488886632527
W   14.01675085218425   11.64685698375916   14.78694345752135
W   13.47809454772575   12.05414704553241   11.84496185245382
W   15.87294408253981   11.87857615425328   10.41920019104881
W   12.01080873873175   13.14921520192004   9.66262243924975
W   15.44729788889438   14.06471790715033   11.67291226798736
W   14.46731958026610   9.80979979013523   13.13157112370717
W   11.92310920856871   10.51506561353227   9.91692527095964
W   9.12752241060505   10.16848829494012   10.67804123659847
W   9.76696232750245   11.80775193503266   8.99713088495337
W   14.48401195822766   9.75330907422144   10.50010530554713
W   15.94985159819781   12.01113168668425   13.06791927318957
W   8.06844831413196   12.53174178473409   10.70161075577085
B   9.84713557394412   13.84300798941728   10.16726440299369
B   9.21254557624506   14.17264501175195   11.72431528993619
B   10.00427016175077   13.97006476943700   13.26441227710880
B   14.35302604912383   13.50325857029864   13.56623910480489
B   9.79374675505359   10.24594061921923   12.91242004757546
B   8.51984933979583   11.33780559232661   12.55555652228051
B   13.41837262046923   14.43595526331679   10.81814757338723
B   14.27239009896849   13.29591061352589   9.86953351081890
B   11.00758814103016   9.75132784532558   11.83906847704509
B   16.16949290521685   10.16798102431039   11.79746886275917
B   13.80058021447163   11.69385470204275   9.49735037656223
B   12.70126391003877   9.63773903506804   11.82663320084631
B   13.40165641235910   14.46646999324219   12.53209243160343
B   8.60477966746584   13.00711024073777   12.82223496707127
N   8.09467908692620   8.15588118836495   10.38520812959722
H   7.98219934434748   7.92475505301240   9.41666773393646
H   8.65979498717479   7.40204562952407   10.82405578578856
H   7.15236300866940   8.16893454741496   10.80277152501590
35
F:    ...  E:  0.0665348400000312
W   10.62891761347279   12.17983729392909   11.72049680244297
W   11.31881216268336   14.79528495240091   11.61902760172182
W   9.78717452423827   11.99070557896196   14.32207831163696
W   11.87277375117635   10.58993363189887   13.73843195633386
W   12.04141565894590   13.25461767474223   13.84928982254108
W   14.00610828023106   11.65341258659169   14.76330800840613
W   13.45790181573134   12.05139770558256   11.82807798824419
W   15.85232903073744   11.87355380155364   10.39547799868232
W   11.99352119609170   13.15114443635387   9.63861960815303
W   15.42913582550992   14.06345610502297   11.64605199842775
W   14.44326976570573   9.80946834526738   13.11796258397612
W   11.90128317211217   10.52075358222615   9.90174297700685
W   9.11500747996404   10.20470920816419   10.64360410831644
W   9.74588769679981   11.84395838163314   8.96193885885626
W   14.45839595627582   9.74559716533893   10.48812534461044
W   15.93421459070302   12.01857582115064   13.05055956611011
W   8.05034104965877   12.56018740746600   10.67616366425457
B   9.83287561520315   13.86460073422370   10.15368677243919
B   9.19528130108746   14.18804455810876   11.71127165524951
B   9.99258090256006   13.97855087813861   13.24648416548557
B   14.33629179426700   13.50776185606413   13.54283413735323
B   9.76887961884060   10.25883308083566   12.88775820578908
B   8.49721157119143   11.35500885269666   12.52915525143493
B   13.40020558503832   14.43574397599884   10.79498443948445
B   14.25168431285282   13.28922464009291   9.85117397578659
B   10.98552042636666   9.76060660339876   11.82228206061784
B   16.14173280393431   10.17959840692255   11.78496470106530
B   13.78016746513311   11.68686435872617   9.48160824228449
B   12.67869764128840   9.63080510784469   11.81180750919256
B   13.38548381729599   14.46551248459041   12.50810947992052
B   8.58618627009555   13.02190246613707   12.80406998014569
N   8.20356788828548   8.09930291837817   10.51000320020746
H   8.20768009097472   7.68177102813328   9.60136077200846
H   8.83529806350661   7.53212248859915   11.11596280637711
H   7.23392529417964   8.10691191496356   10.83128547757368
35
F:    ...  E:  0.319540749999987
W   10.63127199970735   12.17422410216447   11.71805982698963
W   11.30016943447016   14.78574952157713   11.59524524209378
W   9.78201284799596   11.98463581044030   14.31316388419653
W   11.87675086102095   10.58820703004985   13.73326785453379
W   12.03159722751426   13.25649512544662   13.83849272349113
W   14.01271851715342   11.65911692961519   14.74901384481412
W   13.45279701653635   12.03307931760824   11.82070893506202
W   15.84190592158955   11.87042986475784   10.36700628276068
W   11.98086617338497   13.12261022017809   9.62691204841693
W   15.41597023439982   14.05390080317806   11.62651740986597
W   14.43876211774150   9.79834984430441   13.13463880987386
W   11.90216201069830   10.49469655133137   9.89675579857148
W   9.11118525034431   10.23077657989613   10.61152136774655
W   9.74254076727554   11.83816782047038   8.94089072130525
W   14.45503653507792   9.73130820787800   10.47062422103812
W   15.93334741052778   12.03923006491155   13.05625650494670
W   8.02780492283118   12.55710208558459   10.67249649392601
B   9.80837255377219   13.83846497850534   10.13570936665185
B   9.18179529401828   14.17221549697792   11.69415453445157
B   9.97806075181583   13.97000186435341   13.22747114017011
B   14.31535835270688   13.51578742896553   13.52802571168069
B   9.77737368677293   10.25013972932378   12.88399334179264
B   8.49614361323870   11.34159963518681   12.53087421852803
B   13.37860312517016   14.42398220772692   10.77734310191266
B   14.23120332556641   13.27667305814896   9.84041326215511
B   10.99286699082490   9.74975548186652   11.81975515734403
B   16.10326074084718   10.22172625287876   11.78866519389041
B   13.76570831936515   11.67281998615178   9.47838720706855
B   12.69343433457505   9.61341084647259   11.81063412533775
B   13.37174147361989   14.47238854290814   12.48885002682607
B   8.57706712097327   13.00789951625403   12.79290993015862
N   8.23150548974105   8.16201239354887   10.50649625748089
H   8.31999510533919   7.43332056572147   9.77199889429954
H   8.94710251271905   7.94545647706944   11.22217317627246
H   7.24326799280355   8.06402569068469   10.88033341648341
35
F:    ...  E:  1.01823356
W   10.65528148794414   12.14297096300790   11.75333447591610
W   11.31809652607533   14.74745896760081   11.61838077179669
W   9.82936953868813   11.97984694048248   14.35913001101327
W   11.93400326227032   10.58697855900351   13.77507832115712
W   12.05144370957564   13.27002536083826   13.85344031314956
W   14.07096268642304   11.64726599029491   14.79253550270134
W   13.48250450344023   12.00888769128814   11.86261166824900
W   15.86938831715818   11.85568410206664   10.37026421565607
W   11.99646688673755   13.07705872098102   9.66800012605092
W   15.42853640857650   14.05418304680273   11.65459295363315
W   14.48878203252960   9.78085569545852   13.19284391454658
W   11.93318237222866   10.45343512325810   9.92693646075012
W   9.10785168121555   10.11048630600517   10.73553548101447
W   9.74108461347540   11.72298862059403   9.04599460938480
W   14.50627715575031   9.74034149782320   10.46439205720336
W   15.95750537032435   12.05384041707548   13.10670848182941
W   8.04276697207548   12.51644588467339   10.72095925379074
B   9.81311521603487   13.75954965727174   10.14240026369410
B   9.21116727180324   14.13456061179434   11.70629545804026
B   9.97467603683914   13.94233294488581   13.25340336003346
B   14.33303720076376   13.51767220466285   13.57204641764147
B   9.83351226220520   10.23195458284126   12.94682105931169
B   8.53912030514201   11.29598212783391   12.60281401498881
B   13.39841165816165   14.42142393748115   10.80429986680345
B   14.24515525249447   13.26593196770174   9.87521091062576
B   11.03018590980022   9.72316387345758   11.85184685811422
B   16.11187171341571   10.25344267988479   11.83484195859818
B   13.79395490186701   11.66105274239816   9.49421808382445
B   12.75662757621745   9.61941669955459   11.84884923621387
B   13.40489649007151   14.48582985136556   12.52551701809306
B   8.60792238894647   12.97216708082054   12.81844260961829
N   7.92916789532882   8.37018348020095   10.22259108347460
H   7.93846166125698   7.68696755219082   9.43958301239286
H   8.93446002659019   8.12315802779400   10.72230938725574
H   7.08051274070940   8.13621612274248   10.78753081557019
35
F:    ...  E:  0.951504740000019
W   10.61945597068756   12.12537611465220   11.75111603370591
W   11.32262841878668   14.72053656974580   11.61714031585236
W   9.84113007676490   11.95020025409629   14.35474045768624
W   11.92352855172803   10.59366720023265   13.77284369888610
W   12.04056377173883   13.29590901394201   13.85680645833105
W   14.07000294563908   11.63190709331288   14.80977390690081
W   13.48591777590885   12.01840504035513   11.86673556802782
W   15.87577491097030   11.87288636993144   10.40337034354959
W   11.98919278814353   13.07068223891857   9.65923597082630
W   15.42720980540152   14.07354058493966   11.65311827151493
W   14.49515900678490   9.80564626015476   13.20885737662213
W   11.93058279450386   10.44517791931337   9.93341344115040
W   9.11218865377539   9.81484894863911   10.79228370932044
W   9.70891869101651   11.68075497597352   9.11602974178074
W   14.50977436745757   9.73354308054934   10.47363589579216
W   15.94581405961182   12.04166796214028   13.09076217290399
W   8.02026902307777   12.53789581177269   10.71601331758876
B   9.81659828748272   13.72173333884185   10.14925944357838
B   9.20861221043005   14.12582652188397   11.71187703066208
B   9.97077463943085   13.92287783498330   13.25928011804169
B   14.33269266190621   13.50933593588773   13.57569219413734
B   9.83268781853468   10.20652119918157   12.91166920147633
B   8.54440300835659   11.25654080085590   12.52478646501564
B   13.39598484449252   14.42192378688869   10.79140775846747
B   14.25779926450651   13.26848482469820   9.88014645809340
B   11.08670994716876   9.72296814107371   11.86475138606019
B   16.14432454474601   10.22749075772378   11.82077691181903
B   13.80907768637516   11.66233164432905   9.51022599654017
B   12.78221605477747   9.63327894064392   11.85795216954567
B   13.39598777273363   14.45930230391095   12.52264086784534
B   8.60803702212753   12.94461397955661   12.81096342355103
N   7.52390993650707   8.67394796460807   9.99657534376842
H   7.84846586875860   7.84435799664129   9.42611758127239
H   9.48238076889834   8.12236529509753   10.87862767186656
H   6.99098608290650   8.21321332666157   10.78113332995630
35
F:    ...  E:  0.436058279999997
W   10.58565607424552   12.12199863346792   11.75622799101639
W   11.30491406996234   14.71510447816497   11.60302384094055
W   9.82997218923574   11.94232469988610   14.36329565765360
W   11.92830297785002   10.61121211381698   13.79745493972266
W   12.03028743025852   13.30701852959770   13.84483781048437
W   14.06613750309104   11.64734734308092   14.81320630182074
W   13.47387619826948   12.01148947864067   11.86628359019104
W   15.86231112569451   11.86703309545990   10.39545079747225
W   11.96644635047876   13.05427089311984   9.64382680907382
W   15.41139739566099   14.06908104800528   11.63173782991760
W   14.50030412122779   9.81830501204645   13.20973188984758
W   11.93491452483426   10.44241962727907   9.93776158288953
W   9.17547216527588   9.76782938021686   10.84015582021074
W   9.65998013659426   11.65219860143973   9.14780010072268
W   14.51089786538494   9.72455831749827   10.46818686726598
W   15.93670218032726   12.04010515365176   13.07052362208595
W   7.99003002169028   12.53301347562729   10.70776228575838
B   9.80085885752626   13.69505975315546   10.14069547526214
B   9.19149742817434   14.11358971478229   11.70964044515558
B   9.95647820958337   13.91489448415064   13.25736262994789
B   14.32399818672340   13.51669598622885   13.55676023254790
B   9.82575465156698   10.21308706280346   12.93309650157076
B   8.52149039477605   11.24001258641634   12.49083295552082
B   13.37197349908524   14.41255141011331   10.76713008910976
B   14.24018589448577   13.26126493488544   9.86704116896893
B   11.12992193071343   9.77811254575911   11.90448451126947
B   16.15461522541394   10.21130531517727   11.80477395895724
B   13.79667291163724   11.65714883174173   9.49844907744410
B   12.80549603495887   9.65447677876455   11.86401786315229
B   13.38067220848206   14.46022155018374   12.50150672625864
B   8.59023870740353   12.93529956290347   12.81255087555187
N   7.64116198295148   8.59769653568085   10.10651957457627
H   7.87630227955712   7.66163387279894   9.73387075368074
H   9.89446524890544   8.16420114885294   10.82716509077520
H   6.68037405011150   8.53719807673913   10.47659436531374
35
F:    ...  E:  0.32737486000002
W   10.60089179086305   12.11532415963386   11.74163066759539
W   11.29571956558103   14.74869340386840   11.59753873637897
W   9.82535024930218   11.95553164464615   14.35130314511188
W   11.89969082485919   10.58141630368645   13.78132550806864
W   12.02858092612515   13.28432083247760   13.82705534122055
W   14.03942579602151   11.62998561157983   14.79119442719266
W   13.45639394338985   11.99286589643287   11.86018716080768
W   15.84557435971272   11.86070418551536   10.39069578385832
W   11.95572535540172   13.06406630724300   9.64668025426549
W   15.39373575739823   14.05400880553517   11.63499784729569
W   14.46528414623938   9.79237501958164   13.16140622572683
W   11.91305422199648   10.46000682217956   9.90907901029737
W   9.10873579533684   9.85091849980473   10.83445019444448
W   9.64132297111291   11.68898385206811   9.10975427358289
W   14.48365161923689   9.72784787512013   10.44654727763340
W   15.92490152497153   12.02965980023260   13.07402907608191
W   7.99166056713277   12.54431208198002   10.68961242553492
B   9.80444041563508   13.71188327298179   10.13248229570107
B   9.19904914460212   14.11321520951818   11.70007429255947
B   9.96781758436522   13.91962445186146   13.23487567948495
B   14.31570490249768   13.50856425953594   13.55587786757737
B   9.79996677865016   10.23484776945872   12.94919606178881
B   8.50342948647478   11.26443571708958   12.49407017171237
B   13.36293106613886   14.40541560485395   10.77269859520830
B   14.21695202473536   13.25643888283270   9.85735778180577
B   11.01930784088518   9.61870295272986   11.83648036030918
B   16.13185529865870   10.20072978985976   11.80169867232029
B   13.77877898497414   11.65122658665700   9.48071718803321
B   12.72908093002817   9.66933497207699   11.82622031728471
B   13.36857950124726   14.46539413398426   12.50310022497553
B   8.59765071204372   12.94550241351460   12.80396033956116
N   7.73941357330583   8.49576450870907   10.17425050224523
H   7.96703821977884   7.54639804327064   9.87087163027366
H   10.26077626379290   8.44768573139302   11.11530992093354
H   6.71728788964084   8.51357463022364   10.39303077526411
35
F:    ...  E:  0.0646768099999804
W   10.55838348409499   12.15018508583575   11.72239888893057
W   11.36012521138444   14.58667676991593   11.60683495622193
W   9.77119072897806   11.95889153496596   14.36761462285364
W   11.84203108595826   10.61942826433883   13.72007429822626
W   12.02798711627710   13.26523864537397   13.87006224088780
W   14.02106667109986   11.61135558640233   14.74498143703279
W   13.43871310619003   12.05460103254881   11.83269723450769
W   15.84529902978946   11.84474570193040   10.31526253910078
W   11.98456121459412   13.11754349988954   9.51602430507416
W   15.46231115123600   14.03042189177555   11.63124135803115
W   14.42217037734524   9.77542243101674   13.14034102696363
W   11.84607219790497   10.59514792799678   9.99962905535509
W   9.06456746530653   9.92625497942986   10.78226267689999
W   9.60694388976838   11.79616495991493   9.03541850399581
W   14.41265718658228   9.73768829432897   10.45121674122850
W   15.94036726352468   12.04633695065280   13.08280017172283
W   7.98513292552662   12.50582604122857   10.64719656889411
B   9.78548308751796   13.74969244788025   10.11181655308521
B   9.17951149485009   14.10765890146235   11.69180934716329
B   9.92920006960311   13.89463305081799   13.24459158854226
B   14.32393005075032   13.50734144072183   13.56706509429523
B   9.74816864219499   10.24222541639139   12.96211932608785
B   8.50060846753355   11.27918431529838   12.51168849122960
B   13.42619576696809   14.37278596807166   10.78053683089216
B   14.25164681026017   13.26100086141614   9.80757057718931
B   10.93665240780202   9.50793157412521   11.85612439946377
B   16.04731590740312   10.28470219092832   11.79037772453077
B   13.76436397562122   11.66797380511740   9.46837469772212
B   12.66913317706404   9.62336647141499   11.82348199096898
B   13.43374020425498   14.47230001933051   12.49539936801689
B   8.55466543144703   12.95806761882758   12.79235093609586
N   7.82900404146915   8.44001808997012   10.24139329464887
H   8.11461788634834   7.49330422642594   9.99267381984124
H   10.47111845392867   8.42542359185719   11.38926523097520
H   6.79482405156294   8.44022044453396   10.35706413546338
35
F:    ...  E:  -0.164519949999999
W   10.57097274179492   12.14455991575917   11.72193938783350
W   11.29708654572859   14.63319985295982   11.55406084093921
W   9.75173296522176   12.00717560344808   14.32630006126637
W   11.84305725277784   10.64366665126532   13.73681015138515
W   11.98524807823412   13.31001474967347   13.83893257414729
W   14.01992917598998   11.59357343216550   14.72826688090653
W   13.41480379504810   12.06071278292554   11.80558414795267
W   15.85026124232033   11.93040301719708   10.34111647730557
W   11.96754681812343   13.11823144983788   9.52000720532233
W   15.41595927014937   14.05162772811658   11.62994170300808
W   14.42503749170036   9.77410418437652   13.07973903283193
W   11.87164182225881   10.56328866180083   9.98109402241566
W   9.09809197421336   9.93729809025471   10.80253720666235
W   9.61247246421181   11.73298534811122   9.02637282014468
W   14.40007931892012   9.73897861697775   10.43893428353029
W   15.92367378879703   12.04275503074257   13.02731522813388
W   7.99266825144332   12.45956703951931   10.62498636555056
B   9.78670727452316   13.73859507825971   10.04710658660613
B   9.15414278930038   14.12268586065768   11.61681308371477
B   9.89968695028224   13.94616356144451   13.19038955570443
B   14.28378337599719   13.48582312294017   13.53230609363573
B   9.78855472023079   10.26421131424407   12.94532356247642
B   8.51483192747093   11.28133605072745   12.48750645153115
B   13.37196179754096   14.40216951088914   10.74973877526535
B   14.23581437699325   13.30741642771769   9.78133320801362
B   10.92491118636199   9.50049338736120   11.87674654644460
B   16.05733843620249   10.24158819248636   11.72074829130008
B   13.78693106277361   11.69628530288682   9.44828548020509
B   12.63344290068323   9.68299197278587   11.81757251702184
B   13.35416555431824   14.46395529309685   12.47409198363832
B   8.53324193973497   12.97720566871858   12.76281817100639
N   7.95379342397755   8.35648061250601   10.41824735451714
H   8.33566327253720   7.42165680795389   10.37025680897041
H   10.36564242588867   8.41849253709329   11.49039285916002
H   6.92888362038686   8.30006717523589   10.43614431358889
