38
F:    ...  E:  0
W   11.85175926418328   11.30468376632747   14.43840134164288
W   10.35951577077405   9.46770389630798   12.98326578052336
W   12.72147895009503   10.80213335479463   11.95415765240834
W   15.37328660705073   10.42787280658736   12.45657246317707
W   14.41001096937863   12.33457943407393   13.71644408064278
W   12.03945725164549   13.46024320418673   13.03430842580226
W   9.99413154721502   11.92641975538601   12.08753976765624
W   14.43543210940738   12.93228997116284   11.19427996722601
W   7.41140291215491   11.93404511533594   11.49571976719556
W   10.36148610323673   9.61854901540903   10.42697885755184
W   7.89401714011697   10.25796349782948   13.49126132130544
W   10.50843603756143   14.96521661107441   11.34411465431875
W   8.03365947348115   12.79308393522968   13.82493407402698
W   11.92241458488786   13.18487050327278   10.30990092921567
W   9.18606618472216   13.53613377908796   9.93149375298455
W   12.31689062850844   8.08128714893244   11.76026348566814
W   13.03590013228377   9.23671377497400   9.79133267556476
B   13.77890618938663   10.22093837616779   14.05636080328024
B   12.44829007501008   9.22100471536981   13.79015013353678
B   13.90984466848858   8.91015144702365   12.98269269717602
B   9.60747629265416   11.29245775731266   14.40022724719043
B   10.24352197221826   12.86885419181223   14.33312451772100
B   9.81566618532036   14.09246051183927   13.25173360856826
B   8.55775401381219   13.93346688058613   11.98892834395056
B   11.86056427721116   11.02299383053275   9.51850313727740
B   13.07761541446303   14.69855241738613   11.46037877577780
B   8.79018356962375   11.27280545543162   9.85435213193248
B   7.01235547411838   9.73027586175941   11.63589753197561
B   10.34801076226726   11.71822995257721   9.57998286664462
B   14.05137135007985   14.35763228435918   12.78040163210258
B   13.41104601337220   11.58311972841058   9.73713443415660
B   8.02119002655888   9.92545527749326   10.36983183921157
B   14.60438390763582   10.70732933973339   10.50045200633360
B   8.52229970497315   8.99180773538983   11.74769820955202
N   16.21647305902101   13.61970549201993   9.99566924423896
H   16.95826756965061   13.96617164565126   10.61090243461184
H   16.59436883689759   12.85389357505688   9.43302352225404
H   15.95020376217220   14.38404274575272   9.36672467723514
38
F:    ...  E:  0.0264999099999841
W   11.85866958452402   11.26974027072213   14.45047583379126
W   10.36180198071152   9.44476384166603   12.98711493851790
W   12.73493136722499   10.76223867746780   11.97232477321655
W   15.38383709857034   10.39457220281396   12.48637431214758
W   14.42161218110352   12.29198316360281   13.74499666752064
W   12.07018724555967   13.42518738419581   13.04278090091220
W   10.01627396267892   11.90332065357007   12.08872091484737
W   14.45065187453034   12.89240583225230   11.20764957716609
W   7.43956053299301   11.93173533262192   11.48598383784780
W   10.37813400291524   9.59181388471795   10.42784581964955
W   7.90375451086508   10.25609892846275   13.48429236488015
W   10.55759474583919   14.94343804642924   11.33750133212088
W   8.05922452976372   12.79510315088015   13.81453206476819
W   11.96047057768450   13.14518668348050   10.32181729794163
W   9.23096786095396   13.51383637536973   9.92159795620089
W   12.31665693951138   8.04528993156839   11.77287593196274
W   13.05448394385221   9.19397366034083   9.80830108913991
B   13.78042464881988   10.17642192054534   14.07632466551991
B   12.44733788187674   9.18243199852930   13.80021678677807
B   13.91263826369833   8.87056006261683   12.99536945347662
B   9.61875196492704   11.28201874220174   14.39965569187541
B   10.26735475767227   12.85215177589033   14.33113294363422
B   9.85275460684665   14.07542616859426   13.24192990362446
B   8.59951766167427   13.92525941484120   11.97479673858129
B   11.89010418139988   10.98564678943771   9.52509359612665
B   13.10049792528091   14.67517228835742   11.49007120964742
B   8.82089541117708   11.25383819858480   9.84957763027639
B   7.02392076137998   9.73125542946178   11.62847050638410
B   10.38255606616598   11.68954242589901   9.57862058144335
B   14.08225953790934   14.31294505807145   12.80087003183028
B   13.44031662323212   11.53212932041691   9.75386422841447
B   8.03886666461621   9.91443323747047   10.36511515251162
B   14.63049386219557   10.66471683237066   10.52649015355550
B   8.52769288809837   8.97953577601601   11.74567466349600
N   16.06522791679970   13.80200777191903   9.94821481611087
H   16.87878901163323   14.08475605636495   10.52283472426247
H   16.40223603157462   13.18557479097026   9.19862575044965
H   15.67368918538028   14.65862671291735   9.52700395100766
38
F:    ...  E:  0.111091909999971
W   11.87818251376602   11.25356974815630   14.44706112599284
W   10.37018285638043   9.42901131356946   12.99020002101951
W   12.74618279381411   10.72465306805183   11.97525006167172
W   15.40296133520077   10.35828896117316   12.50358158363619
W   14.43864954059804   12.26037574384016   13.76487716432733
W   12.10590637428930   13.40767310955221   13.02885321437220
W   10.04535359588796   11.89027203982721   12.08081018558579
W   14.48340361563586   12.81632159885278   11.22999040420793
W   7.46947506636312   11.92909658772360   11.48220347718239
W   10.39301357569658   9.57246486575669   10.42731535515905
W   7.92691879219995   10.25740253749773   13.48497814323909
W   10.59862143136190   14.93168932473737   11.31063906690471
W   8.09389770304175   12.80329084634911   13.80371310912731
W   11.99911245607762   13.11701015014655   10.31712778839614
W   9.26956557309155   13.49837514113219   9.90691365967005
W   12.32773814412562   8.01857566240513   11.77742634665402
W   13.06255591784569   9.15314351597130   9.80663052414875
B   13.79355220877085   10.14741008226331   14.08174665630598
B   12.45586700527909   9.16003142115686   13.80459179148844
B   13.92240427245904   8.83939947173633   13.00275631694905
B   9.64349321370178   11.28317075745126   14.39250889187539
B   10.30190707489244   12.84841964815731   14.31458829600169
B   9.89459935298662   14.06881090942314   13.21936817313579
B   8.64005939937852   13.92293311072784   11.95633954825914
B   11.91354324332865   10.95703765356784   9.52567139501080
B   13.15181623314330   14.63615205274227   11.48629772369458
B   8.84663558791283   11.23843213490364   9.84646441135519
B   7.04238485097659   9.73204601929680   11.63229244029088
B   10.40962813060421   11.66784423590217   9.57186927075175
B   14.12309513505062   14.27753330429726   12.79925369907886
B   13.46721152570587   11.48607151911007   9.75823209053245
B   8.05776841948307   9.90534138454804   10.36798876512741
B   14.64751443490663   10.60782192444363   10.53811654910684
B   8.53996512213932   8.96845116400820   11.74937585812758
N   15.92524744984013   13.94199198495741   9.94913014437618
H   16.77592770399440   14.25822873468397   10.42391145912708
H   16.17966918438734   13.52103374265000   9.04821196316099
H   15.29112795732420   14.74576332087047   9.82885211658594
38
F:    ...  E:  0.991364659999988
W   11.91189779601484   11.31988043598197   14.40596190720923
W   10.39424960616131   9.46652047595515   12.97709466368421
W   12.73103235239291   10.73085123332889   11.93363826370128
W   15.44836667036724   10.30529128253567   12.48722292395692
W   14.45996819916928   12.28707843365187   13.77876676938865
W   12.12001062876248   13.45929253852853   12.94460669642637
W   10.06164801960175   11.93349882188830   12.04781698723814
W   14.51835446070418   12.67337253792536   11.32924155304223
W   7.46459593031956   11.93816374175921   11.48877351651041
W   10.38440336212011   9.60273637372687   10.41646343579412
W   7.96483943000057   10.28038755266326   13.51060461894371
W   10.54725832076042   14.98762634408677   11.23711490829455
W   8.11306725267897   12.83237916613256   13.78422355924415
W   11.99915965423210   13.16229121576853   10.26096715077437
W   9.25105991396552   13.53172689563659   9.88437855478754
W   12.35363806647356   8.03635468971265   11.75673787356889
W   13.03223630067295   9.15590643809739   9.76329518575916
B   13.82744978690517   10.20255615874562   14.03731874522484
B   12.48113766690939   9.21602042319398   13.78615722328056
B   13.93629694455386   8.87650782851586   12.98434937676174
B   9.67759115830962   11.33793679462087   14.36586869271271
B   10.32919213573041   12.90581606563111   14.26009714555051
B   9.90329076809091   14.12525574282749   13.17789275412641
B   8.63000879471254   13.95380087389446   11.93387373559396
B   11.90506365265269   10.99421938311185   9.52319403077804
B   13.30132123667363   14.55171216715573   11.36027602627005
B   8.82781050039383   11.26015842011338   9.83861257779628
B   7.06208087673461   9.74486795403827   11.66959443181355
B   10.39076427219036   11.70192073609922   9.54672024197028
B   14.15939513111146   14.29689138764384   12.76534015313440
B   13.47850191383734   11.49738040332235   9.75446495994204
B   8.05630261484725   9.92419086236937   10.38753333856006
B   14.63099378748878   10.52600082856967   10.52005633398092
B   8.56144479730522   8.98737896393349   11.76277936761453
N   15.97076666499533   13.73029062527026   10.15389462636267
H   16.65976642838682   14.42763939272134   10.43656658336651
H   16.08411103807682   13.45707053589093   9.19614905898007
H   15.00606265733658   14.21416506659070   10.16749081949306
38
F:    ...  E:  0.626206330000002
W   11.92621169308092   11.31704988483209   14.39964733190515
W   10.40203376035591   9.46695342602059   12.98109499939867
W   12.74789198315585   10.72995946587104   11.95047862676640
W   15.43961989358993   10.32271376988631   12.48916899130300
W   14.49411672131530   12.27135004942417   13.73518793328898
W   12.13334679589487   13.45259580009027   12.89698352493981
W   10.05439717211515   11.91981321770884   12.05606334467999
W   14.67295946250489   12.75886924484660   11.17686568241239
W   7.46001658449117   11.93755495068672   11.48286122972076
W   10.39178740869968   9.59480882032637   10.41886420306901
W   7.94696202629493   10.26629842187305   13.50023996012977
W   10.58391577793200   14.95596360031193   11.27259252419361
W   8.10998733086109   12.81429915653730   13.78768661343000
W   11.98991612571849   13.12441392605048   10.24412939989763
W   9.26723305184947   13.52453263583025   9.89907804325449
W   12.33466517504844   8.02996340837525   11.76583204090301
W   13.05903432966619   9.15793131514527   9.78687220861728
B   13.82013796903457   10.18571518107825   14.04759717377881
B   12.47702831148074   9.19787442288848   13.79219900739796
B   13.93249325798802   8.87011453533003   12.97674122625327
B   9.66447245157498   11.31470553630708   14.37767538177006
B   10.33109131694367   12.88368379209655   14.28126592459999
B   9.90350707899864   14.09677279672757   13.19993577940562
B   8.63838503577470   13.94412471283533   11.94769244257780
B   11.91635447478471   10.97305646372602   9.51375583704261
B   13.42517162266682   14.54903083247644   11.28478313814718
B   8.83461229242579   11.26279390494878   9.83986844597713
B   7.06108367779463   9.73660612205142   11.65375797103664
B   10.40257962753121   11.68699776398704   9.54656663816458
B   14.16078478391014   14.25024723308636   12.80439789266326
B   13.48841015805923   11.49934424227563   9.76520882174400
B   8.06643068660178   9.92220301318968   10.38199664179798
B   14.64067320192646   10.56067221509189   10.53473814247179
B   8.56598120317433   8.97966378331964   11.75913645847552
N   16.16285079387536   13.60743099996630   10.14986320062863
H   16.72282510095081   14.41464381092753   10.42828839858521
H   16.08973735430605   13.58613490207041   9.13276240412468
H   14.31643309926420   14.46825143344212   10.37326120708603
38
F:    ...  E:  0.204153669999982
W   11.92671869155588   11.35306631257308   14.40007526629264
W   10.40996896328888   9.49596142124242   12.96344747372826
W   12.76246899028959   10.78368951610087   11.93965274679456
W   15.43233242418257   10.38210277609686   12.44786930697848
W   14.51083741204819   12.28577776280204   13.71784882206446
W   12.11185083904892   13.47466960023095   12.92300139340349
W   10.03932419416824   11.95220246121285   12.02596901742241
W   14.64946109115207   12.83824533206441   11.11781070250275
W   7.44359430585072   11.94349942692741   11.49746830478414
W   10.36968022239127   9.61594485340553   10.41607966004118
W   7.95441329806078   10.29315361006388   13.50982301714450
W   10.54058977557670   14.96607839076032   11.24028273774052
W   8.11432738973768   12.85565068157216   13.79507415336940
W   11.92573722038303   13.16279922526597   10.24726496623011
W   9.18762161390358   13.53107036268866   9.87477248374630
W   12.35551399946954   8.07988763344194   11.74778386542257
W   13.03335537377885   9.20594790700710   9.75258753457043
B   13.82120683819586   10.21704036651098   14.04226861094162
B   12.48240700265471   9.23803518734254   13.77510812155001
B   13.94487520676732   8.91041118001998   12.96606575875384
B   9.68060206342778   11.35320203566466   14.34260526118610
B   10.31716216869360   12.92992461365105   14.26270345820655
B   9.87791033468195   14.13871977941159   13.17298349260798
B   8.59042425469817   13.96190872424313   11.92873200699824
B   11.88044289685938   11.01303019144155   9.53386413806735
B   13.26616547928942   14.62904985043400   11.42119029943197
B   8.80201913189700   11.26548792374549   9.83800517001032
B   7.04456421490982   9.74749982953558   11.68023585196170
B   10.36219353980401   11.71186450187003   9.53366427102944
B   14.13567020228033   14.23037696913756   12.80719206003840
B   13.45587664231439   11.55785286076332   9.74932878006105
B   8.03457790932677   9.92934471191289   10.39168127372256
B   14.61082546867293   10.61852371629244   10.50171584003495
B   8.55160585187233   8.99865922656744   11.76692906526731
N   16.36175333379596   13.32528493467340   10.19577890294619
H   16.95506884875989   14.12274614828880   10.42626858201724
H   16.61251222103628   13.03061493248732   9.25878684475724
H   14.07947937681390   14.48581383418924   10.42321954981137
38
F:    ...  E:  -0.131306250000023
W   11.94081622589140   11.35403803731760   14.34664232494129
W   10.38603882681783   9.47434014902242   12.98163286802082
W   12.75424318389305   10.74481432344013   11.96367085442604
W   15.41801945476291   10.38713993825535   12.45129275115392
W   14.49098118939408   12.28267753812198   13.73869192732417
W   12.10654558674415   13.55994865492217   12.90532563628414
W   10.05169767744279   11.94647832474677   12.02193876232583
W   14.67112621635096   12.77834640861143   11.10796999352717
W   7.44990945471798   11.93941931332279   11.48521951145815
W   10.36387540701982   9.60330934548883   10.41422720277918
W   7.95665820132308   10.29229445441564   13.50618539975167
W   10.51328069913000   14.96486692509513   11.22570851529488
W   8.12791485428345   12.84736002297402   13.80109799531860
W   11.95498142760490   13.12722283526977   10.30383878828098
W   9.18924774262713   13.50685644610074   9.86584015285551
W   12.36259299343510   8.07394386565304   11.75459045235480
W   13.00285375405435   9.17017224698801   9.73932842472877
B   13.82328107130048   10.18091701495938   14.06715789906225
B   12.46955638072323   9.21134216926401   13.80027275895985
B   13.94440772741097   8.88534007333785   12.99160166609048
B   9.69615514999231   11.35665110785437   14.33421248754565
B   10.35292798533812   12.92358071703803   14.23185713908322
B   9.86804205937668   14.13240763514879   13.15491350106172
B   8.59443242386449   13.94852550964358   11.91638228544843
B   11.88098126563846   10.99818746838825   9.54749283415570
B   13.35227578183503   14.66045973446480   11.41609762240925
B   8.80845117983251   11.24400195227211   9.83803768022378
B   7.03633370342560   9.74768621483338   11.68099450508567
B   10.37075552475748   11.69709139692166   9.55347335607221
B   14.19943817198842   14.17630883573693   12.80650473535866
B   13.45322113982277   11.52480997442884   9.75773628845290
B   8.02797934036255   9.91781165121267   10.39189596891590
B   14.59678506435642   10.56347065198586   10.49371031924084
B   8.54250815202368   8.99474025752679   11.77020618733329
N   16.32034031152484   13.30918657803954   10.13865752071155
H   16.93665342806359   14.06620500726549   10.43681628354361
H   16.61047491438283   13.00173498756932   9.21467601284665
H   14.00935512012540   15.04145102400279   10.47924017920934
38
F:    ...  E:  -0.414718950000008
W   11.94345548977386   11.32951792809615   14.33302880036706
W   10.38097419769809   9.44174191441682   12.99591050522297
W   12.76245470555362   10.70863989817275   11.97056717703145
W   15.41454202305256   10.36448435029363   12.46153852086723
W   14.48619523408774   12.26852309861480   13.74807146596542
W   12.13255066280957   13.57445597998565   12.89609829335186
W   10.06864968444974   11.92379984081576   12.02821630815516
W   14.68542840021990   12.73087682908760   11.10092624668706
W   7.46541076021213   11.92924505267069   11.47503833558239
W   10.37774213814540   9.58514243178953   10.42423065650662
W   7.95999941703294   10.27386380608993   13.50074874474420
W   10.52877859619738   14.96033506927340   11.23679449074222
W   8.13581784655608   12.82046227254002   13.79808301088492
W   11.99210971630860   13.10978142308175   10.33369777595386
W   9.22683123914734   13.49123645645111   9.86911323533153
W   12.36333200768966   8.04612487888593   11.77010440522182
W   12.99702668852246   9.13237179924450   9.74331495031330
B   13.82498496468267   10.15235532456074   14.08091900012191
B   12.46816538684262   9.18136083008128   13.81425304061109
B   13.94714332647346   8.85356402076890   13.01140701501723
B   9.70484376000132   11.33683674177481   14.33713614172449
B   10.37006030237842   12.90134196332253   14.22446765405636
B   9.87815599713320   14.10857666942768   13.15499606281824
B   8.61561722701900   13.92967539426928   11.91736586887926
B   11.89811688574258   10.97670820652354   9.55237080708429
B   13.42502723147836   14.67654231357466   11.39571971419994
B   8.82842543113462   11.22984684453642   9.83883440875242
B   7.04311940906701   9.73913099420487   11.67003363051606
B   10.39374125604713   11.67624909646560   9.56978153879470
B   14.24152625869418   14.15213932784518   12.77380283638878
B   13.46811746423557   11.48319421819537   9.76084885040039
B   8.03952680897721   9.90621976926371   10.38549012616752
B   14.60793483082834   10.51106054510710   10.49650628667547
B   8.54771184503659   8.98191541193316   11.76614307592133
N   16.22828822547267   13.39694047375476   10.08118355703482
H   16.84111500665464   14.14853416318166   10.39839218462047
H   16.45619239571079   13.13526077264306   9.12467832310768
H   13.88602597057236   15.46708268069509   10.59532574581599
38
F:    ...  E:  -0.562751280000043
W   11.94879387297464   11.29168727943919   14.34152150793883
W   10.39103988506715   9.40859382096713   13.00666666583978
W   12.78301023427975   10.68685050850743   11.97593055714301
W   15.42254253532896   10.36799695374855   12.46121201288332
W   14.48995048785786   12.26098284388713   13.74470421070617
W   12.14265598410168   13.54125766068522   12.91992966588767
W   10.08782637980005   11.89251007798420   12.04123597840640
W   14.67098899706368   12.75086367376474   11.07574387885257
W   7.49103329999007   11.91831936585186   11.46419347409881
W   10.40397121586424   9.56138255042301   10.43130901634613
W   7.96814049117634   10.25185905242156   13.49189532298260
W   10.58079048257873   14.94391385169228   11.26493854902475
W   8.14499340779599   12.79223461460263   13.79742011367615
W   12.02188071588341   13.08134471097830   10.34404239820195
W   9.27221132791009   13.47760156347725   9.87723456590885
W   12.37904430802147   8.02399085830088   11.77672506573416
W   13.02430852789153   9.10958374342039   9.75326146224851
B   13.84165340348276   10.13199917390392   14.08563300480541
B   12.48769673224574   9.15376981241721   13.81471197160363
B   13.96899965798484   8.83337305423346   13.01167393465605
B   9.71311176059147   11.30207117111583   14.34915762371547
B   10.38089952841844   12.86694128036525   14.23525166215502
B   9.89690301373490   14.07726392276725   13.16478434679659
B   8.64673697494724   13.91070999677039   11.92164702059831
B   11.92162648008011   10.94798644675800   9.54558945552794
B   13.38657067088139   14.71996837541379   11.41820267724522
B   8.85964207760927   11.21907819520177   9.83956785559021
B   7.05933819171435   9.72995214676219   11.65253627671060
B   10.42366841435703   11.65421874603216   9.57589724350987
B   14.25314035827619   14.14279764756839   12.75783903244805
B   13.48527278297325   11.45556420149488   9.75115246033997
B   8.06691826299351   9.89486554104980   10.37757522818170
B   14.63923864465406   10.51189454811344   10.49169274057051
B   8.56180170405966   8.96563084467279   11.76157149133192
N   16.12527657337447   13.49991328730573   9.99286402466343
H   16.73675829798276   14.25568849203402   10.30201130675520
H   16.29425949403111   13.27628994791616   9.01352383009598
H   13.66244361366711   15.72418882959395   10.80429115845511
38
F:    ...  E:  -0.612347810000017
W   11.95677202599078   11.25395073462699   14.36269277304650
W   10.40479982619513   9.39053058535765   13.01613893315239
W   12.80594026501554   10.68378392370968   11.97598162940779
W   15.43450051213721   10.39032092008112   12.44740400715355
W   14.49749162034503   12.25692706947359   13.74892858240221
W   12.15145158152049   13.48588847458139   12.95414447024588
W   10.09949040273866   11.86241256870692   12.04927540718174
W   14.65081393697582   12.79211570906985   11.04715230259241
W   7.51531763467175   11.91814258205418   11.45443194140753
W   10.42740129527621   9.53963921537854   10.43853354967630
W   7.97446355111266   10.24328439357491   13.48338353244649
W   10.64814848049516   14.91974914167786   11.28680406780854
W   8.15821004014887   12.78182386073757   13.79450408533229
W   12.03905160069575   13.04990285712618   10.33910484695766
W   9.31679781135928   13.46792068533077   9.87919130105468
W   12.39429622740589   8.01095551603561   11.77926819891977
W   13.06765227122436   9.09999470746332   9.76793802270345
B   13.86492933215479   10.12251123647594   14.08174641337289
B   12.51562941989869   9.13576327035714   13.80596341375559
B   13.99762610227146   8.83044963357583   12.99633199235364
B   9.71643633184929   11.27501797190375   14.36614578108579
B   10.38564260997573   12.83551303211368   14.25331286101752
B   9.92178386758630   14.05097453213460   13.17437529977149
B   8.68489733398160   13.89947295517223   11.92043700508360
B   11.94379207531742   10.91592559067974   9.52604198260978
B   13.30283351948261   14.73470047063863   11.46073876970793
B   8.88601811935216   11.21123271760263   9.83778899018075
B   7.07573122830892   9.72792165104183   11.63961654319763
B   10.44933385891219   11.63151259820562   9.56794731454766
B   14.24382555342981   14.13822641274151   12.74939960657886
B   13.50058909735912   11.44037571374681   9.72978016505023
B   8.09145975421089   9.88770297417607   10.37365772254170
B   14.67100009564456   10.54107408077966   10.47833146401211
B   8.57702913249050   8.95573989758491   11.76216872583871
N   16.04623119539690   13.57898380796863   9.91193752461151
H   16.64498338929044   14.35224131731155   10.20406950650304
H   16.21024272163296   13.34773757665122   8.93116586341272
H   13.36252496978397   15.87471840579028   11.03930419491661
