35
F:    ...  E:  0
W   11.47448959515708   12.90129348778533   12.90151286970919
W   11.97609755847831   15.54471212047414   12.70867192599976
W   10.66090488493905   12.79457551215298   15.50193945215244
W   12.90349046353831   11.55137514582257   15.00679902336857
W   12.80229013512363   14.18775560147416   14.99147220244545
W   14.92871505320494   12.72357066881674   15.98457327589573
W   14.33849187318724   13.03392956994966   13.02703229872724
W   16.75329972396888   13.01813970139006   11.64337797465003
W   12.81075982582509   13.90350722398657   10.80707917493579
W   16.14813856645973   15.16828450100951   12.79293673839482
W   15.51406329419999   10.87232463896525   14.38378850736077
W   12.93433413728717   11.27975909166371   11.13105138017735
W   10.17640107875513   10.75144919345290   11.90978948633487
W   10.69835742262853   12.29231341365133   10.16862563214584
W   15.50495625022895   10.75433113191234   11.75531211962531
W   16.80984792751623   13.17916817484387   14.21249138554876
W   8.91226419352147   13.00189634434489   11.81237949442112
B   10.58406315957151   14.40205893901372   11.24239626196158
B   9.89836305931464   14.77977068860613   12.77168318712887
B   10.69818525057022   14.70281425799734   14.33040028287337
B   15.09339974337726   14.57287859874991   14.70212816578201
B   10.80276047150598   11.00685555028560   14.16671862840058
B   9.43119273664005   11.94769831593250   13.74007564571596
B   14.09743341190445   15.35354888839817   11.91916631007729
B   15.04687890635416   14.26192019963186   11.00793712475035
B   12.07134405681655   10.58423868733325   13.11487645530595
B   17.15463333120168   11.26213213127044   13.01802409280014
B   14.72557617824700   12.61380982582033   10.69320997177329
B   13.75011195961130   10.60427106230152   13.10529434535847
B   14.06161470820476   15.43648120781431   13.63470032717725
B   9.35547417138044   13.63074630801990   13.93242405175728
N   6.70908867963211   13.27727629117113   11.30394775068706
H   6.60490386538019   13.54068565399048   10.31913481010922
H   6.23420305441859   12.37674684982213   11.42096346292047
H   6.21164306498330   13.97159514219261   11.87122686050121
35
F:    ...  E:  0.0528229499999497
W   11.49127967289555   12.88995579292774   12.90780463797404
W   11.97463631829291   15.54170195827896   12.71071345460119
W   10.68277291937015   12.78545723553902   15.51327911620040
W   12.92715714383295   11.55191791380309   15.01595810756136
W   12.81502725939127   14.19105798055832   14.98857022002429
W   14.94599177757788   12.74152812032014   15.97592651046473
W   14.34727022451170   13.03552797123827   13.01817847772141
W   16.74785935276714   13.02402662216146   11.62202783685064
W   12.80825901742973   13.89612584594664   10.80208832282948
W   16.14291067139855   15.17905656355505   12.76520840960442
W   15.53768502550810   10.88627189306274   14.37819260159361
W   12.95001794025072   11.26276183915098   11.13676046416152
W   10.21012214320804   10.71635203429309   11.92318873326485
W   10.73440754255838   12.24610772407469   10.16501054041609
W   15.51742894321878   10.75635055065459   11.74632065444986
W   16.81921728785246   13.19657001986754   14.19000063618899
W   8.96093031855819   12.95758336980424   11.80413325245821
B   10.59492611627852   14.38959565122634   11.24639323764861
B   9.90725898800137   14.75942557862296   12.77731263952311
B   10.70239613779802   14.69423536673763   14.33769748617172
B   15.10111838045928   14.58550058839407   14.68050373085976
B   10.82793849881480   10.99435491397331   14.18632104689342
B   9.45413100080349   11.92427960614205   13.75036188268955
B   14.08614983289591   15.35689180687418   11.90118409983525
B   15.03528185168281   14.26177024115366   10.99152892444766
B   12.09536122325716   10.57310723994107   13.13212477933310
B   17.16759675495722   11.27370669174567   13.00137694390744
B   14.71804841430376   12.61004409018513   10.68008984625680
B   13.77198225652582   10.60221082540206   13.11106387703663
B   14.06122053733556   15.44128803499536   13.61846258412803
B   9.37433075633264   13.60632723832933   13.93722568729108
N   6.80964410342321   13.46013349401080   11.41060352941908
H   6.57918177314511   13.84471442282285   10.48896286912428
H   6.21115063395364   12.63298744359055   11.53119615027282
H   6.61433923115200   14.17511882960936   12.10570251738173
35
F:    ...  E:  0.689908179999975
W   11.49832888973321   12.89909638544556   12.92391968154558
W   11.98355063705674   15.54912891734029   12.72102642809925
W   10.70708611428723   12.77840251973703   15.53498143750208
W   12.92957397796976   11.54705123005212   15.01507090027669
W   12.83472132728757   14.20318954202071   14.98757738320599
W   14.94418798399887   12.75294525222959   15.97265440569210
W   14.34299728251792   13.03217715202502   13.00626233580177
W   16.72908679630183   13.00825623795082   11.59987304237491
W   12.78677083103444   13.89751224239963   10.79658470794183
W   16.13849898304037   15.17837816300771   12.73551305001320
W   15.54467667846632   10.89723926163473   14.37689883543539
W   12.92866246205316   11.27117991044725   11.14162286246821
W   10.19955804005548   10.73198936319710   11.94292896535577
W   10.68919782976498   12.28996681904680   10.18285257078294
W   15.52360873028287   10.75881918110558   11.74085420838742
W   16.81221781000615   13.20593527366947   14.18036193200502
W   8.97079954093328   12.98226208965927   11.82241995352895
B   10.58106853269890   14.42814790103439   11.27757443679006
B   9.91036375352476   14.78743531786140   12.81930049351142
B   10.72294472653527   14.70507469680684   14.36318689653444
B   15.10625843764068   14.59420704332794   14.66426212102079
B   10.82441718456626   11.00253198578661   14.18893501417159
B   9.44996031154205   11.94068298761938   13.76817730369592
B   14.08036463185896   15.35040386537113   11.88005625808867
B   15.02333485600519   14.25687299545351   10.96864175063829
B   12.09068480476390   10.57006974053418   13.13100470400112
B   17.17539722417693   11.28119123362661   13.00034396925219
B   14.68899203948007   12.60823869221291   10.66218208107775
B   13.77389703823112   10.60213149219643   13.09923922569194
B   14.07155162893478   15.44057802786377   13.59841456424342
B   9.39557316122111   13.62205240736796   13.97890892463544
N   6.92898953989301   13.49306124081436   11.35152965671637
H   6.40382416043403   14.10653949907930   10.68598396995362
H   6.30245324974305   12.72681789948130   11.59740174088794
H   7.21798948666640   14.07071944802120   12.19377108993795
35
F:    ...  E:  0.960424699999976
W   11.46783539518666   12.89560578128559   12.91401594549013
W   11.98250582191135   15.53723245487904   12.70429411410190
W   10.70399110634666   12.78659872028028   15.52419801597689
W   12.90627455095244   11.53014558701500   15.00013688594867
W   12.82176899640786   14.19328568860925   14.98857812892384
W   14.94135375879840   12.75183561281434   15.98357340096482
W   14.32130410694554   13.02252564871583   13.01632868758304
W   16.72182946832899   12.97203020307423   11.59715531027469
W   12.75528134260813   13.87853222759194   10.79617246079056
W   16.13065819296900   15.17358534846985   12.74887840926922
W   15.53590008376910   10.90806445002166   14.40472292768899
W   12.93426107010358   11.28623482053416   11.14615667011611
W   10.20594011954157   10.77831978629927   11.92987800351795
W   10.62312816345602   12.36934891998603   10.20293667831328
W   15.53138871937617   10.74821046446064   11.72795299368359
W   16.78755901188617   13.19050052332896   14.21694673957504
W   8.71771422131099   13.12279165894724   11.89141446668864
B   10.53650827375545   14.42878596478038   11.28759596525007
B   9.91138046505541   14.80711588523530   12.82922229378513
B   10.71270913263647   14.71070259696248   14.35526780618889
B   15.09838947135663   14.59986806415001   14.68902046716193
B   10.80717258685917   11.01074761751336   14.17592711623131
B   9.42655455826890   11.96719265291839   13.74949527132015
B   14.08704963991813   15.33679435285469   11.89200353459132
B   15.02571201409422   14.25318058641832   10.97658222605595
B   12.07778616314876   10.56004802719179   13.11531588019197
B   17.17238484146688   11.29376849412653   13.01184357837551
B   14.68195082442446   12.60598776427665   10.66852951921178
B   13.78076309947235   10.59836537913270   13.08367532776089
B   14.07275313945763   15.43994904262083   13.60695986509124
B   9.39640882666178   13.63721110296440   13.98414203769937
N   6.87786126055871   13.04132719338386   10.94281277365624
H   6.43301355278959   13.85635027255793   10.50886163514258
H   6.15480664649720   12.61364657188923   11.54071205787199
H   7.45028815319841   14.19840677450458   12.38125155812592
35
F:    ...  E:  0.314566899999988
W   11.44741957799277   12.90057698908869   12.89910451126267
W   11.98717082987440   15.52793802881774   12.70873796827198
W   10.68819728625792   12.79591291225889   15.54039523557807
W   12.88315819715253   11.54035427159584   14.98759974112550
W   12.81761806184467   14.18699653957713   15.01660000363431
W   14.95106045534652   12.74161311509761   15.98340172989738
W   14.31407994971164   13.03087555021991   13.01349612692613
W   16.72077804746126   12.97054547196752   11.59376619966891
W   12.74227718845960   13.87554057804210   10.79945884964470
W   16.13376678802085   15.16040242350138   12.74875374911546
W   15.51225706600142   10.89186036414974   14.39280695201650
W   12.90661144888523   11.30054791636761   11.14754207927757
W   10.20601357217508   10.77030966619377   11.92348152440670
W   10.50878199570857   12.41329077100594   10.22812687570667
W   15.51177015153569   10.74653851252651   11.73289779965678
W   16.78356822175654   13.19318441228096   14.23164679792236
W   8.66098118141770   13.19051388539673   11.93082721073368
B   10.51883941538987   14.44981480004633   11.30971050734690
B   9.90308157373964   14.81955957956478   12.85402829539506
B   10.72963787188923   14.71316814771265   14.36755912880939
B   15.09730655053873   14.59121419340142   14.70385073897017
B   10.77911256140072   11.02527093847570   14.15555383649639
B   9.40739882832372   11.99033099852140   13.73004449964698
B   14.10179915678779   15.32730509249669   11.90281540108299
B   15.01577028593166   14.23650847935898   10.96709367234343
B   12.06609061470770   10.58722068712197   13.12046069385224
B   17.15514232436745   11.31818584538189   13.02365372702910
B   14.67840778089255   12.59309852386286   10.65681643891285
B   13.76119826934349   10.62146026021391   13.07847427260620
B   14.08647143361750   15.43548745465948   13.61568449682952
B   9.39372664764273   13.64850413632567   14.00257033311348
N   6.88836767509733   12.88900425346415   11.00418772804911
H   6.33610758252435   13.66810422600466   10.63315237782213
H   6.19200159710944   12.15297200568304   11.20326144967743
H   7.66232378480186   14.58127285396943   12.23578978578954
35
F:    ...  E:  0.123141059999966
W   11.46837599459867   12.89836815974781   12.90879496161885
W   11.99138543548928   15.53679985879473   12.71991352961307
W   10.71118700864311   12.78653179262378   15.55708434238336
W   12.90009549312885   11.53838366569933   14.99034886612601
W   12.82410565128690   14.19689054717487   15.01355853309640
W   14.96606719313734   12.74776987656487   15.96990781257406
W   14.31990069934909   13.02578688366625   13.01062983433066
W   16.71571413473569   12.97439902814501   11.57773018580818
W   12.73796102301037   13.87204490381193   10.80285989984300
W   16.12377876147308   15.16483516426149   12.72790279784476
W   15.52538217522207   10.89237051801688   14.38551495477197
W   12.90347281704260   11.29005417729518   11.15189352171224
W   10.21629868759588   10.76338698908843   11.93812793115574
W   10.50073908118400   12.41013952932730   10.23872920587295
W   15.52178184549356   10.74784936960394   11.72246738946227
W   16.79170481952545   13.20907922273993   14.21866643284602
W   8.70150944118110   13.19586386766034   11.94492855081421
B   10.53643184447493   14.45049300132236   11.31346719453019
B   9.92856856556888   14.80993857454173   12.86944431816742
B   10.73501174042869   14.72007179815547   14.39216811457333
B   15.09694071073051   14.59378949027662   14.68791134295052
B   10.79735725492219   11.01838022556649   14.16372783079756
B   9.43357244075966   11.98297458321347   13.74569092595853
B   14.09111243815995   15.32285536423040   11.88920808379757
B   15.00419824422532   14.23048938180112   10.95664306564384
B   12.08379767819604   10.58506920790357   13.13051336838801
B   17.15910281395157   11.33342978249069   13.01628829598460
B   14.66616534744287   12.58748046061432   10.65451940829976
B   13.77694404057955   10.61409156296184   13.07788839002159
B   14.08721935811433   15.44133554210860   13.60562192528512
B   9.41666693076545   13.63891335395661   14.02500759492560
N   6.87173585737218   13.04085645241030   11.16269559756851
H   6.23544683711204   13.81909817391616   11.00799690446440
H   6.31060719145824   12.19416984696383   10.96380074143575
H   7.95005231785624   14.74681704346629   12.23945969441292
35
F:    ...  E:  -0.0402295500000491
W   11.48203234793767   12.88672477010052   12.90280692158441
W   11.92249136551878   15.53060625835696   12.71734244797027
W   10.72017190963689   12.77123671671775   15.54795699262487
W   12.91688072464898   11.53596479426953   14.99102987413250
W   12.77342511947746   14.22492057235175   14.96222759707771
W   14.96320067942055   12.76094999175977   15.95829109569186
W   14.33225143094734   13.00729929950012   13.01889785962985
W   16.70904106959386   12.97602079908053   11.57150163656675
W   12.72612989709304   13.88039256806683   10.81423095857148
W   16.10575399590071   15.17216229002499   12.72128223018778
W   15.54188865640499   10.89223568203895   14.39003947425223
W   12.90065504135522   11.27673904443035   11.16157305816216
W   10.19936544476623   10.77033573150651   11.94595785173339
W   10.52538032891160   12.37777358594057   10.22459051872509
W   15.53572861345954   10.74747469130069   11.72054648683438
W   16.78984029728301   13.21884931138716   14.21818844023920
W   8.73528865128106   13.10109095667806   11.91431197589861
B   10.54000700251398   14.40836304721272   11.29679857844276
B   9.76088322115453   14.84037653302902   12.81523190814586
B   10.65057820787228   14.71920084433052   14.34719497583272
B   15.06679350562657   14.59897364902621   14.66994684659364
B   10.82054709194756   10.99603206991684   14.17034902482237
B   9.45173841023642   11.94430285382432   13.75974350013320
B   14.05520475812268   15.32602568557676   11.89070480205577
B   14.99243886012147   14.24306992217096   10.97034680187352
B   12.09743028952668   10.56848233201407   13.12961677942619
B   17.17004325280791   11.34297741517677   13.01750270555763
B   14.65389551944619   12.59803939977096   10.67952056120215
B   13.79268228519209   10.59306848205984   13.08365426603962
B   14.05847102358734   15.45789506281781   13.59102178124599
B   9.40688105400802   13.58327348555797   14.02922553982228
N   6.86911010595230   13.10459949901976   11.21024082580457
H   6.24756233762644   13.90055548752322   11.07479248718968
H   6.33001842614843   12.27071113992331   10.95727791116478
H   8.38295572449729   14.86746259139325   12.38448001562388
35
F:    ...  E:  -0.312204330000043
W   11.49940047938786   12.85535631359662   12.89650922149221
W   11.89612688448352   15.51591179518925   12.69799261445397
W   10.71782897020130   12.77708841489011   15.53690492843617
W   12.93836097683952   11.53313123636359   14.99956254468466
W   12.76584153743100   14.20816152691048   14.96357663812986
W   14.96855549011303   12.77687966998488   15.95461999493456
W   14.33564018269359   13.01510882029543   13.01923746978074
W   16.71324486856972   12.98961746907506   11.57928615076537
W   12.73618666455662   13.85918033469581   10.81219215430363
W   16.09120512727415   15.18759149699270   12.71744840660348
W   15.56297146021556   10.89062023940712   14.37268273337483
W   12.92308421830448   11.25741498557563   11.15172973686167
W   10.20155539623058   10.75674347427777   11.95494778856166
W   10.56032531749429   12.35052710582292   10.22600896279770
W   15.54868287206033   10.75040187458515   11.72799737634573
W   16.78976530438726   13.22368678535133   14.20059912680867
W   8.75947492677093   13.04673381555004   11.90502931043210
B   10.53456763183102   14.36977841598052   11.30354119133247
B   9.66456490810912   14.89253691657869   12.79930047312908
B   10.64287841076497   14.69631794511964   14.31536992715312
B   15.06355748064063   14.60675354421358   14.65997374228035
B   10.85230839425947   10.96878880744379   14.19002818984644
B   9.48261936134952   11.90927329423398   13.77565823840513
B   14.03846110015823   15.32306727518537   11.89119371748704
B   14.98539476577925   14.24351042180781   10.97304003758057
B   12.11070494952615   10.54839453839912   13.13090416317503
B   17.19421072402648   11.32873119058042   13.00595260312006
B   14.66625382340047   12.59405038935639   10.68046446802989
B   13.80278554483282   10.59308575907042   13.08933213957374
B   14.03129773850481   15.45525262436676   13.58879710347907
B   9.40301272608008   13.54997237263256   13.99262389366733
N   6.88470381722394   13.11012548893534   11.24712914918843
H   6.28788320126084   13.93576582524746   11.26161270822305
H   6.34336430301510   12.33863306073781   10.86880804691272
H   8.49822154348071   15.27668007638153   12.53249392389319
35
F:    ...  E:  -0.488708320000001
W   11.51365854995298   12.84095167530992   12.90206702033026
W   11.90031740626992   15.51040600419839   12.69303445128195
W   10.72390891449270   12.78493602039905   15.52935091772594
W   12.95169231498029   11.52588240693596   15.00644728225087
W   12.79311184774065   14.18998750288656   14.97297269569146
W   14.98513976074781   12.77709499970225   15.94995405890393
W   14.34090115210407   13.02162077834883   13.01259269663008
W   16.72200101750019   12.99199185222914   11.57129178259105
W   12.74330450356196   13.84284730737961   10.80519859945141
W   16.09462542165166   15.19195296128682   12.70815240992797
W   15.57466079055205   10.89062254246699   14.36460096880786
W   12.94067692717761   11.24781102779972   11.14560855051739
W   10.20840205552846   10.73901612746384   11.96914247889015
W   10.57523228036241   12.34818219441926   10.24379915566642
W   15.55465444093290   10.75050963045078   11.72520949588801
W   16.80026934612272   13.22687368374603   14.18430869973656
W   8.76980315208712   13.00903372300873   11.91422187378072
B   10.52338440719774   14.37300550180951   11.33985299792485
B   9.63979812723010   14.94316395105769   12.80593259782449
B   10.67351196506189   14.68496558292703   14.30384860677733
B   15.08076926663945   14.61100846140155   14.65453779109683
B   10.86271959201349   10.96387409818525   14.20505558421063
B   9.49860530853779   11.91442994661276   13.78412901578900
B   14.04282919683932   15.31676760384904   11.88768372988781
B   14.98927328471324   14.23612023864760   10.96195900142952
B   12.11681893746941   10.54155859207425   13.13701578298311
B   17.20389472365527   11.32534694478360   12.99461878503117
B   14.67736432048961   12.58510094186741   10.66432012415614
B   13.80736997681085   10.59578198719045   13.09122598456409
B   14.03490700879961   15.45112933471064   13.58664914376128
B   9.41222741270719   13.56366438803668   13.96279013577385
N   6.89155652087897   13.13527248487043   11.28498653232816
H   6.26591049364194   13.90620820070109   11.50723345413854
H   6.38774961916751   12.44640673998493   10.73734117994993
H   8.60928910582536   15.62393919497643   12.66948509198083
35
F:    ...  E:  -0.567754130000026
W   11.52296841229176   12.83619082061361   12.91026707900591
W   11.94097338873907   15.51052411185074   12.70020196384852
W   10.73903847596474   12.79279492317957   15.53356221847352
W   12.96292735601552   11.52060531708174   15.00910573769402
W   12.82753116567872   14.17894464689915   14.98118754785473
W   15.01064810844652   12.77072868881155   15.94518986954771
W   14.34692296760209   13.02725769203550   13.00127284917934
W   16.72742507558064   12.99072666139015   11.55172890192178
W   12.74775410871530   13.83513733678459   10.80047554260014
W   16.10741380746310   15.18911733815087   12.69015234484853
W   15.58059242486249   10.89397935459909   14.35778895252623
W   12.94731734527456   11.24301296301549   11.14264353372739
W   10.20323794087590   10.73832320492834   11.99006339365696
W   10.56622225466685   12.35883324960539   10.27291433463482
W   15.55394857766852   10.74792291270279   11.71693952226028
W   16.81609397673361   13.22985184891761   14.16817537724901
W   8.77416636390190   13.03767374311155   11.93678841210440
B   10.53122884684641   14.38746996110350   11.36782875437025
B   9.66505301041320   15.00542376073223   12.83615180241434
B   10.72341634761328   14.68266076992017   14.32087610281488
B   15.10537297200733   14.60984265908878   14.64982706242655
B   10.86479406008892   10.96640373556054   14.21495185837838
B   9.50719594689458   11.93700255554419   13.79640883489581
B   14.05530292497688   15.30699578888956   11.87896236227066
B   14.99273427080646   14.22770388299738   10.94337388181361
B   12.11790039180324   10.54213074825468   13.14416433126765
B   17.20396944600961   11.33234845784108   12.97721634314595
B   14.68059230436016   12.57493119696297   10.64554319883051
B   13.81067638112804   10.59787654263855   13.08866905997609
B   14.05651761256766   15.44583160540673   13.58597963392522
B   9.42813477178034   13.59982455915951   13.95966023011480
N   6.89044239002197   13.17593101709696   11.33763374608384
H   6.21998698032333   13.83574250648994   11.73627213307224
H   6.42661443676726   12.60077889439180   10.63539199730754
H   8.82319831455450   15.88650819883921   12.79672321085820
