35
F:    ...  E:  0
W   10.67080836702588   12.15078364956246   11.76327844665136
W   11.34292819570840   14.76707497028688   11.65413933486006
W   9.82812124502780   11.96839664165674   14.35885022320221
W   11.92492000824880   10.57554134664479   13.77677521319571
W   12.06645703473020   13.24946889990238   13.87883506827471
W   14.02885067085219   11.64092345014333   14.81230945339346
W   13.50118755689456   12.05615297515303   11.86224057735731
W   15.89813188695360   11.88854989496412   10.44360633747892
W   12.03229338101076   13.14188533019380   9.68294392709030
W   15.46353720538280   14.06941021054783   11.70106068055006
W   14.49783045404269   9.81220874772897   13.15150252202936
W   11.95580001060130   10.50304107789733   9.93061833212468
W   9.15131672975453   10.12324022718622   10.69852117000352
W   9.79761334860704   11.76133205971551   9.02529742820610
W   14.52020756515825   9.76131196152336   10.51124165156938
W   15.96687843447923   12.01060964841786   13.09022301600634
W   8.08948811007019   12.49016673307431   10.71802241370693
B   9.86123193536287   13.80626574968321   10.17518439511872
B   9.22665474520832   14.14388565765167   11.72972279892808
B   10.01158090342744   13.95055357710125   13.27510560922452
B   14.36577686496769   13.50101069512433   13.59080083460100
B   9.82752523984161   10.22271868294656   12.93145377014391
B   8.54784424579182   11.30599664609513   12.57347439770250
B   13.43204935238377   14.43501444205564   10.84187827160321
B   14.29554802734948   13.30597776006054   9.88884910245591
B   11.04093220563523   9.73696741066808   11.85346315484104
B   16.19738484863221   10.16493415243478   11.81509401344923
B   13.82627855411397   11.70122675916927   9.51505600780069
B   12.73573506617866   9.64291777416938   11.84180754022039
B   13.41370173147082   14.46814103157143   12.55648165617035
B   8.62117012896229   12.97883986805230   12.83303481400253
N   7.95581292246644   8.22924025620392   10.27426733374443
H   7.75542106580411   8.15741616709779   9.27236394376904
H   8.44209966601062   7.37204228739753   10.55690634929809
H   7.05664232398013   8.25651329005403   10.76535024336221
35
F:    ...  E:  0.0165964600000166
W   10.66653729830590   12.15464431115639   11.73073989141120
W   11.34188213877972   14.77416074708740   11.62237754207259
W   9.82566601332731   11.98069578799045   14.33247947082133
W   11.92647839451556   10.58476019768530   13.75939610182400
W   12.06690411103339   13.25190444550102   13.85229371657694
W   14.04623690363018   11.64840857224744   14.78437779194574
W   13.50311337473932   12.04584238805715   11.84124362839776
W   15.89086056346140   11.87053512914832   10.40759867986098
W   12.02863487209969   13.13702401219235   9.65440233327885
W   15.46181603636063   14.06066501673030   11.66284270194220
W   14.49593511788972   9.80653840031705   13.13987347995514
W   11.94449355260412   10.49781509766627   9.91734970158419
W   9.16161904427083   10.14309674137431   10.67603638407549
W   9.79689333371467   11.77552858025843   8.98882402577249
W   14.51500764359507   9.74495284297624   10.49247664528132
W   15.97178315498808   12.01383062911056   13.06654080685113
W   8.09557217312389   12.49788801104469   10.68642876694329
B   9.86042236669322   13.81625698275768   10.14449224383330
B   9.22555207810753   14.15318664263176   11.70046551032450
B   10.01152449717004   13.95816505192025   13.24549261023030
B   14.36535738544171   13.50373251354881   13.55713258872816
B   9.82939642886883   10.22591544486155   12.91303133060494
B   8.55243517085593   11.31152024941339   12.54658808721719
B   13.43084377567680   14.42768037324490   10.80839568381072
B   14.28925936252671   13.28947440136546   9.86233967658086
B   11.04114013374375   9.73746348008082   11.84024089043183
B   16.18319316924743   10.17015183873337   11.79748094459746
B   13.81548429835169   11.68594012036911   9.49504815325582
B   12.73983113676259   9.63610557794427   11.82817764414668
B   13.41468276196486   14.46456667042911   12.52086103849238
B   8.62081463868822   12.98642402042826   12.80244879137416
N   7.95469953624719   8.22127418447061   10.43890042007545
H   7.44898597876615   8.21495439873567   9.55733672547908
H   8.54581391499092   7.38887095000412   10.47626846783997
H   7.28088967159329   8.16978622065339   11.19977755651866
35
F:    ...  E:  0.0651992300000188
W   10.65805881472097   12.16525617946955   11.69481080761224
W   11.34315257366947   14.77149472573134   11.59479450501421
W   9.81928655491775   12.00363204519074   14.30725123283180
W   11.93561270616211   10.60604786642362   13.72551281282220
W   12.06728659611863   13.25425919460151   13.82929120882466
W   14.10466783415322   11.63462131418344   14.74402090621913
W   13.50098451056259   12.02182141118055   11.82654777715814
W   15.87863062202162   11.83342793839438   10.31361665023939
W   12.02560884513310   13.13719466285738   9.63575270330347
W   15.46881738800325   14.02526551689338   11.62712479422001
W   14.48121286697544   9.75984802643448   13.15850427710919
W   11.91718143883418   10.50035348385510   9.90323782624257
W   9.16931929795483   10.15572124810669   10.65688860293240
W   9.79777730776494   11.77490077217911   8.93958179511308
W   14.48440623443244   9.72681146486886   10.43674893841186
W   15.99408684469044   12.04206211848689   13.08973746017224
W   8.11132857775267   12.48208650110254   10.63767008916136
B   9.85381603321689   13.82571380804956   10.10584290306607
B   9.22362822425804   14.16460115497906   11.66422329636568
B   10.00356219408257   13.95726451849411   13.21496902233286
B   14.35686546341601   13.51426536613739   13.53892709742740
B   9.84002475783817   10.23181634283504   12.89699296248258
B   8.56447137722759   11.31224934595370   12.52799994518605
B   13.43967699072438   14.41677213553711   10.79209495938784
B   14.27011450547500   13.26274526822573   9.84597217666779
B   11.05186686123369   9.74020742563364   11.83024270528754
B   16.08212719815624   10.26791291306291   11.79950388108858
B   13.79161786815386   11.66771017241554   9.45817383129953
B   12.75445119835065   9.60679429438000   11.81443868609821
B   13.42812576418113   14.48177480693528   12.50130685003553
B   8.61101682378967   12.99253434611573   12.75783148141378
N   7.97649299224579   8.22513770830444   10.59988031723514
H   7.20142020291278   8.25517172287373   9.92353662568983
H   8.54355395336015   7.39310886075596   10.39827520036128
H   7.59950860964656   8.13917537148766   11.55845570332250
35
F:    ...  E:  0.19775924999999
W   10.64559860333624   12.16307554843912   11.68935950959575
W   11.33036776217768   14.76302496558123   11.56405793840014
W   9.81126261657775   12.02981453909454   14.31033839771208
W   11.92465034805460   10.61653177487776   13.72956179802262
W   12.06098231992822   13.25827192123148   13.80841408244980
W   14.10419198696600   11.63667250069331   14.72752410896068
W   13.48789957872301   12.00516935090847   11.80336730588865
W   15.86837925985584   11.81873031933076   10.29330057709238
W   12.01913252490014   13.11027701916371   9.61332553644184
W   15.44946138692356   14.01913843947350   11.57785340334190
W   14.47723339815835   9.76212162844273   13.13830569473919
W   11.91006711360400   10.48574934676776   9.90439815941589
W   9.18590675984815   10.19412857922756   10.59696244903939
W   9.78758365673745   11.79663319968299   8.90030416833834
W   14.47126389749255   9.70169308934649   10.43550775566691
W   15.98277936804310   12.03704490549662   13.05156843856712
W   8.08992383306852   12.50078286191826   10.63438682498821
B   9.83744707712011   13.81148944507568   10.09022489951439
B   9.21197838963147   14.16090465224219   11.65097318168340
B   10.00655394945912   13.97301396707295   13.19080963237343
B   14.34789506097862   13.50637007760794   13.50166359334989
B   9.82098019380259   10.24763842310387   12.90684711143759
B   8.54345476689498   11.32231692768179   12.51722342727005
B   13.42251227654017   14.39776942868577   10.75235327340399
B   14.26037591620475   13.24771358691632   9.80604941536654
B   11.03110517898863   9.73217925122571   11.84525259154075
B   16.08405497082649   10.25247801319755   11.77806034491186
B   13.79318362677528   11.64322585108007   9.43485121076248
B   12.73508899756964   9.59918833098732   11.81967948942608
B   13.41022865649567   14.46475293183614   12.46222335610723
B   8.59849065512451   13.00150047174900   12.76190961955185
N   8.05398509235861   8.22554782825123   10.66301042315287
H   7.08390700646620   8.28047780106863   10.34522167480632
H   8.45413221549368   7.33889349672805   10.35334807294784
H   8.04770158701191   8.24543955794862   11.69152256586853
35
F:    ...  E:  1.57369117000002
W   10.63447421019572   12.14384622526715   11.72806790628169
W   11.34692527397001   14.73109363375919   11.58622474002665
W   9.81989130089641   12.01056250573425   14.34618878342508
W   11.89479890186534   10.59665794210531   13.77113792827957
W   12.03948064541798   13.25367459943198   13.83482438736315
W   14.09026255189530   11.61808129015897   14.74212889746032
W   13.48591725941768   12.01897487691850   11.81746997326055
W   15.86562275873993   11.87084792495000   10.33232528915607
W   12.01131356853130   13.14977389780689   9.59071308703449
W   15.45643206134970   14.02684579402468   11.62656833302266
W   14.46866831903813   9.77658902486131   13.16374785000414
W   11.89160418215433   10.50790802990666   9.96249018630814
W   9.04572111406253   9.93546025220315   10.82291842928758
W   9.85884859399925   11.85290082603623   8.94065863293194
W   14.43180146082281   9.70708579094950   10.45862455638773
W   15.97531521196189   12.02055902759235   13.08239833885032
W   8.16262639178107   12.37590271415555   10.61685458419584
B   9.86781478733508   13.80536160804643   10.11537359264420
B   9.20873499381914   14.14568183792620   11.66553668193559
B   9.98789996413541   13.96950671569640   13.22340697779057
B   14.33957965880456   13.49057777353834   13.52583809976421
B   9.78702936584130   10.19429626881373   12.95618512057995
B   8.55796185100573   11.31493301528496   12.57373584528420
B   13.43016423894311   14.40992781299437   10.77231787713704
B   14.25942515373709   13.26344748522627   9.80753473079356
B   11.02119221977112   9.75962072940885   11.86816435388247
B   16.07391956307974   10.25724305574714   11.77332955189502
B   13.80121463647703   11.65950793562522   9.46137817493514
B   12.71977796407542   9.60151868214813   11.85041002076356
B   13.40586802715636   14.45325534871625   12.48437402662433
B   8.60468219467156   12.99661486767581   12.77905601294792
N   8.15788568317936   8.21419968082373   10.03087331050083
H   7.12547797302320   8.23103038347404   9.94438845314703
H   8.40683992315980   7.28424805818824   10.39654564922170
H   8.11458802782243   8.70202441694000   11.69796964901242
35
F:    ...  E:  0.613553840000009
W   10.59791400285082   12.12834392919033   11.70601901104119
W   11.35413570527290   14.71650146843227   11.59825224138101
W   9.84849364361692   12.03629338368493   14.38595816277720
W   11.91591472832700   10.67868068466121   13.77326059269837
W   12.02520114591339   13.32423060066904   13.80537457723654
W   14.13282578273180   11.60369263009400   14.75053078914052
W   13.49187037768326   12.02027995173089   11.81692298742570
W   15.84110091317352   11.84390240103825   10.31518256721270
W   11.98926589365679   13.16544290898697   9.57739016876501
W   15.45835772580796   14.00405541032777   11.62221087641224
W   14.46646665159574   9.75065411090313   13.14524404715905
W   11.82849410939036   10.49890509719762   9.97233903818059
W   8.97568371123462   9.78157632575800   11.01720816393107
W   9.90371096401476   11.91777650203059   8.89671268063966
W   14.41589120889656   9.70774063090061   10.47128667390313
W   15.96619721494052   11.99043089070610   13.08405188146452
W   8.19437186327492   12.24323788379291   10.60795132801947
B   9.85682876927162   13.80341679691622   10.11312698369979
B   9.18190500137175   14.09379739726105   11.65327399973382
B   9.93466519502521   13.99427813606390   13.20535214246702
B   14.32553752822061   13.47409139802360   13.53257767593209
B   9.82933332615575   10.23661755962318   13.05457853859097
B   8.56254875581367   11.29381887148120   12.64320075759422
B   13.44530206436713   14.41936861770215   10.77069741776461
B   14.25408480926215   13.25718366972096   9.80796008967729
B   11.02011439693850   9.77728400913570   11.90800474559947
B   16.08618115776481   10.23925417329388   11.78375978533477
B   13.75902184513035   11.65762325821052   9.45441661636367
B   12.70633600973572   9.63745968761165   11.86415704311137
B   13.42763547371941   14.47178822377767   12.48134628154360
B   8.58933336201185   12.97694232133527   12.80092228535026
N   8.14423730813401   8.27875161465125   9.93214528353736
H   7.36742017702644   8.29920597084527   9.25932785683658
H   8.11671254482229   7.36933129324317   10.40014090495244
H   8.33666666498353   8.65780222313469   12.13887583665900
35
F:    ...  E:  0.370165289999989
W   10.59351150776217   12.10869524321842   11.71048461885002
W   11.35749766636837   14.66278212827806   11.64358927243040
W   9.78389672248260   11.98478900221069   14.35061420919298
W   11.87061997279498   10.58969468471903   13.73570673960496
W   11.99605101567542   13.24216768930511   13.81022536843970
W   14.03507755285366   11.59477744670406   14.75538183585108
W   13.47416456958314   12.03373219876163   11.81162392871244
W   15.83347212132231   11.79476106510224   10.31452811109225
W   12.01159518159170   13.17168189642952   9.57959449626554
W   15.45593010815898   14.02117528475831   11.65093456848499
W   14.44846714443929   9.75095390545125   13.16712069094671
W   11.84779307482796   10.52460843540734   9.93663252182407
W   8.98792583782449   9.88543520469123   10.83674279695152
W   9.85072610352394   11.90442634710546   8.92719894844803
W   14.42591612388343   9.73747647065245   10.45584768690304
W   15.92699284090468   11.99835300460709   13.07520798672179
W   8.14155654910577   12.34189214004756   10.58147578643790
B   9.88986391154349   13.81307970386909   10.12638121874652
B   9.19523210040496   14.08169369720682   11.65542236760136
B   9.91445556111578   13.93729988108767   13.22551218757781
B   14.31497790175997   13.47154290796505   13.55075440886139
B   9.76432343301290   10.20207379812356   12.93686614744985
B   8.49352220122859   11.30941865506226   12.58340191133339
B   13.44203459420343   14.40417011888810   10.79971735113512
B   14.26962447981815   13.25507082323283   9.83987589424297
B   11.02055917977872   9.76807115686677   11.80814429106638
B   16.07640477050557   10.21816138982824   11.80447112747951
B   13.75121845073212   11.67614034226980   9.45369041844396
B   12.70371675966345   9.59270156965489   11.84498140979071
B   13.43068032298647   14.47948339742699   12.50932568943575
B   8.55717465954070   12.96921148738205   12.77743622144889
N   8.05972354584826   8.28370542108073   10.03837967976797
H   7.43744812645358   8.22934518174331   9.20660110760441
H   8.05096057817373   7.36847193232937   10.48876337939909
H   8.93664536226320   8.94271642066817   12.35712565359393
35
F:    ...  E:  0.0270036699999991
W   10.59546994351606   12.11171548975313   11.71355365298046
W   11.36836705751434   14.62926535082881   11.58796245435224
W   9.78419480359422   11.95178522511628   14.29897081488654
W   11.83744441884997   10.57327920475144   13.68424563540879
W   12.02004922980771   13.24042998126387   13.83071176864135
W   13.98170598630722   11.63395749132587   14.75678172352488
W   13.46043058737141   12.05203583465998   11.80815317611326
W   15.84897215308664   11.78279156393418   10.29899471361313
W   12.02883535243899   13.16585161245079   9.54598545414724
W   15.46566937231730   14.01782680504045   11.63910673574490
W   14.42067619935549   9.79022805004015   13.16000997827310
W   11.86664902929140   10.55137138095352   9.92566295842312
W   8.99810439819948   9.97507938802074   10.72635792978344
W   9.79456928891147   11.79724853510613   8.94169738107666
W   14.43087879434876   9.72641901814441   10.43338506927337
W   15.91574525186810   11.99600069305846   13.06522835341242
W   8.11420552763906   12.38554663399189   10.58821145601936
B   9.86332207160739   13.76927330204606   10.09089879784584
B   9.20876614030900   14.11456269945878   11.64038254538564
B   9.94786240666263   13.91415314899353   13.22282519332008
B   14.34294635488873   13.48846604542212   13.53976152942832
B   9.67229986743897   10.02978148355497   12.92503200544869
B   8.50653793413110   11.30850204612256   12.54728827908236
B   13.45852376363668   14.40884940811699   10.78119595426256
B   14.27894949165501   13.26336047671926   9.82157858632375
B   11.00440655867385   9.78662774762855   11.76194255679841
B   16.06422141720475   10.21474312850879   11.78243482303196
B   13.77599818416070   11.67439157649861   9.45373417379457
B   12.69639987329070   9.55567829073956   11.79856521022164
B   13.42715791147615   14.46794864590709   12.49650324921091
B   8.56549701260729   12.97085710158413   12.73565602556759
N   8.04557801165956   8.35407344074521   10.08151560168924
H   7.26453657697475   8.26998512882738   9.41808196940220
H   8.25842658659721   7.43945146894690   10.47892471775607
H   9.03636247474400   8.93822263387467   12.76841955789223
35
F:    ...  E:  -0.134705789999998
W   10.62058298321045   12.14480880520879   11.69027528490210
W   11.36952954563695   14.64731651971847   11.53896031844718
W   9.81406787567881   11.97261362833845   14.28205146567335
W   11.84842005628789   10.60591102103053   13.66542855162389
W   12.03979365661340   13.28417458406741   13.80107237722339
W   13.99422500835935   11.66271212061840   14.72810344714584
W   13.47256559294348   12.04513489414660   11.79296743917327
W   15.84346135175970   11.77442446913738   10.27025008736346
W   12.02655422982959   13.16281715323510   9.50985453124700
W   15.46975100295534   14.01293404505638   11.59054662502961
W   14.41422206687893   9.79616863568627   13.15283900255489
W   11.84571436329832   10.55282122508833   9.94334530825317
W   9.03430289030697   9.98814595111111   10.68282920763613
W   9.79600053665584   11.76022470672090   8.91981663965683
W   14.42747624731174   9.71827336290420   10.41490353402547
W   15.92717654577678   12.00217964186330   13.03135450554844
W   8.11347192203979   12.39111646200110   10.60886967357425
B   9.84865400158115   13.75489863475627   10.06097342254632
B   9.21113683091727   14.11550388173418   11.62058522401823
B   9.96587461873595   13.92649286262754   13.19544510378505
B   14.35941421534225   13.50675048834987   13.49495716688803
B   9.60769093121244   9.91310700072488   12.96872076052926
B   8.55040624921397   11.29099961419166   12.53237274048096
B   13.45937618797174   14.41280638564959   10.73216458537570
B   14.27261689267490   13.25164584181087   9.78601187425028
B   10.97126642988464   9.76457568557199   11.79112405364236
B   16.04685881175068   10.20647230441688   11.76719702303295
B   13.76306968581254   11.65778630783544   9.43682042361851
B   12.68222058834967   9.57027223082528   11.79802499900497
B   13.43485897663362   14.48221951757260   12.45049807484858
B   8.58919121884918   12.95347978529064   12.72493985151006
N   8.02652031176774   8.37576661925978   10.12879535777759
H   7.10497515395236   8.32536317202650   9.69199990710201
H   8.36641713215577   7.43448697954160   10.34377938008727
H   9.03189591978910   8.88535549401679   13.20188208456032
35
F:    ...  E:  -0.188338269999974
W   10.64319796644237   12.15237052638397   11.66593554448391
W   11.36378503502253   14.67080598672223   11.49309102076496
W   9.84700848606458   12.01698486659268   14.27965184585928
W   11.87327849336015   10.65756754964280   13.65930453289455
W   12.05028330206765   13.33950293712080   13.74500124983624
W   14.04194925093635   11.69062219225371   14.68230325384584
W   13.48730433404271   12.03140928639901   11.76089031997631
W   15.82604195658296   11.75038997197804   10.21160143773674
W   12.01214601403053   13.15530068573856   9.47823167868618
W   15.46969698626438   14.00392316274246   11.52629572981505
W   14.42401296709644   9.78951473596139   13.14552280101485
W   11.81163811204080   10.53222196600935   9.95736161761741
W   9.02973877614114   9.95366284976881   10.74987747058691
W   9.79777130477022   11.74441617261508   8.90984484732216
W   14.40515161897498   9.70645203381523   10.38213663996968
W   15.94337071249867   12.01126179992402   12.98484509770867
W   8.12063721093872   12.33640234813843   10.61261936540655
B   9.84554406937229   13.73839532416335   10.03418285455832
B   9.20765454439700   14.10076059771426   11.58712356414126
B   9.96842457794951   13.95547478404957   13.15195219662106
B   14.36721697797529   13.53356090252464   13.44035966370510
B   9.63157583565136   9.90955292353051   13.04932070955049
B   8.59410792423300   11.27079473366883   12.57438186129481
B   13.45539434787268   14.41187286626001   10.67252652275445
B   14.26233936496334   13.23006720002797   9.74461201909507
B   10.95336639775235   9.74164670915028   11.83930201104149
B   16.01806918431435   10.21028371044746   11.74194831461335
B   13.73074020787827   11.63980855409111   9.41141433457052
B   12.68530661992491   9.56259971585165   11.80916266544747
B   13.44373914304961   14.50615860103466   12.38921550109681
B   8.60832844793947   12.95173503355277   12.71411730834420
N   7.97201448908121   8.36888465030125   10.23127791396584
H   6.97617551540532   8.34484895707755   10.02195677781971
H   8.36269506817812   7.42468955430120   10.18108123345624
H   9.12005478892349   8.90581614258246   13.51131012653473
