35
F:    ...  E:  0
W   9.45123410892702   11.55777252842974   11.80148998855509
W   10.00681732972023   14.19536789889208   11.66389040287932
W   8.53682927082539   11.42523208929646   14.38450487911452
W   10.76469978836817   10.14751043781764   13.94435773951837
W   10.69831143357681   12.80412866296832   13.98062305916521
W   12.74476398693804   11.35113659294634   15.04698320955436
W   12.27454128299174   11.67352703450382   12.05135307243664
W   14.85800567403017   11.64559148096969   10.70158565802758
W   10.90402046447100   12.54960741325069   9.77559929156678
W   14.16296577443644   13.74907514309343   11.92996133514572
W   13.41339694482697   9.53788088136332   13.44821741169420
W   10.99279854810079   9.94683076218729   10.10877114546949
W   8.20231795433602   9.45545426605969   10.75274333510759
W   8.76447043236408   11.05145988395867   9.04467555409628
W   13.53683530169977   9.42241459949971   10.86415008449924
W   14.73539589928320   11.83514633860652   13.42750553761045
W   6.93926747067184   11.73719907401167   10.63532916515396
B   8.65661798844400   13.11860335858883   10.13842172458932
B   7.92635897493167   13.47754630931858   11.65175986344899
B   8.64718233698432   13.36199646490549   13.23574325417743
B   12.98813470783320   13.19446189976951   13.80124738887054
B   8.72221377240114   9.64277055650888   13.02239205754810
B   7.38001419403651   10.61751034720371   12.56038838145245
B   12.15859933546909   13.96620685012854   10.97453560099372
B   13.13881570385418   12.89255829214070   10.06738042322269
B   10.02580858018862   9.20018157131475   12.02474512413259
B   15.14946603568858   10.04471908745714   12.17362984534322
B   12.82736187267767   11.24850734916740   9.73605327875382
B   11.71325051667535   9.17735537075509   12.09299747030306
B   12.04065891868610   14.07333517411061   12.67819741436725
B   7.32811088601976   12.29943087022021   12.76291197784849
N   16.68047993427699   11.72955288767861   9.36513945573876
H   17.47194868840915   12.06460646493745   9.92350705977245
H   16.92664784600079   10.79830911651368   9.01738000403296
H   16.58141807399129   12.35677297356214   8.56158883794562
35
F:    ...  E:  0.0172155399999951
W   9.47819768271968   11.56390889107861   11.81041645801368
W   10.03890105057086   14.20256677777585   11.66645653827567
W   8.54979508724903   11.44448171149746   14.39430025790322
W   10.76822442039989   10.15815119130731   13.97216493671102
W   10.71897036685064   12.82040788018024   13.98560776091940
W   12.74994510332028   11.35901724713326   15.07493967436455
W   12.30726422780506   11.66293242367667   12.08169548004635
W   14.86977919350930   11.61063079545636   10.75096964792644
W   10.93607525201924   12.54701420388394   9.79330279017745
W   14.19133593598580   13.73566537145412   11.95697695973800
W   13.41910883239804   9.52265332049586   13.50180668427066
W   11.01532208848757   9.93590612972645   10.13601790400322
W   8.21740394085923   9.46308139263706   10.76954638178691
W   8.79025268397305   11.05851262174576   9.05840495741933
W   13.56560493550329   9.40260686206285   10.91222654880526
W   14.74906001321363   11.82373079085857   13.46893108052488
W   6.96144725768285   11.75148619354607   10.64069728644862
B   8.68649374799625   13.12436070239029   10.14410066103793
B   7.95674948766043   13.48608625775432   11.65279148600873
B   8.67024181233919   13.37705791967456   13.23543840566588
B   13.00709264310837   13.20096211122625   13.82124391514936
B   8.73087262521782   9.65642240947662   13.04049279064559
B   7.39818808468904   10.63211325804992   12.56583689051606
B   12.19658966426535   13.96850432708476   10.98730782608768
B   13.17160180319656   12.86852911604691   10.10685947957031
B   10.03722401210918   9.20234059543404   12.04842473855501
B   15.16352373334468   9.99771477605365   12.24212892726732
B   12.85295717077085   11.22650472101169   9.76757897263598
B   11.72728569734670   9.18213879794485   12.12432712595814
B   12.06915169254809   14.07815328097414   12.68744556492338
B   7.35155055014696   12.31306884749785   12.76499962903302
N   16.54757095561777   11.73113585546385   9.22100103155468
H   17.29702579944922   12.31839416648444   9.57945313643550
H   16.92758531003307   10.80401536440829   9.05109367299074
H   16.23136716974993   12.11950372064457   8.33477443076712
35
F:    ...  E:  0.097246919999975
W   9.52775213330545   11.56914771586120   11.81162037944936
W   10.06864459239880   14.22308152388550   11.67266698783676
W   8.57886006763608   11.47145297497621   14.40537703931383
W   10.78521180543648   10.18022883707782   13.98471692868982
W   10.73805539250769   12.83904596081178   13.99246076382035
W   12.81195009615484   11.37375922842459   15.10857666536896
W   12.33553347662484   11.64198012135731   12.12654103651146
W   14.86833053386599   11.56967620163703   10.78362663458429
W   10.96031978624456   12.57658011548594   9.81768745719724
W   14.20981806036052   13.73661717467507   11.97568065774620
W   13.40817889677974   9.49893329005518   13.60464331790925
W   11.02669268668394   9.93074505157698   10.13714796347463
W   8.24472806893170   9.46806567419337   10.78991887762755
W   8.84077473341211   11.04598505505664   9.06576263246260
W   13.58739060497776   9.37792021338420   10.87111403303839
W   14.76291111080169   11.82710597583486   13.50520331878335
W   7.00523120795667   11.73789756997900   10.64531893112169
B   8.71716871871441   13.13338457871166   10.14454845126355
B   7.99218936444330   13.49948855455142   11.65117412088015
B   8.69548125043563   13.38817013169560   13.24107537345118
B   13.02968715863273   13.22059033109869   13.85057028234849
B   8.77539328539052   9.66683540444658   13.04558801883201
B   7.44250561101604   10.64176592389323   12.59058041332557
B   12.22486416269771   13.99217631584944   11.00518920849969
B   13.19069135054893   12.86154889904382   10.15320095506833
B   10.08867037528545   9.20721438263033   12.06092108742663
B   15.07767312560578   9.99415418257021   12.28965892158240
B   12.85325268913580   11.22270647247623   9.80154374675071
B   11.78530007144287   9.21641448753526   12.13786538604339
B   12.09874005508943   14.09114063634038   12.71055808438745
B   7.39010801332574   12.32132117794154   12.75835024557235
N   16.40843041581552   11.69244495484222   9.12318099658893
H   17.03006498614365   12.48817410794903   9.20517731581714
H   16.95633221324153   10.84972257115585   9.04368137109283
H   15.83282393109426   11.79428423513382   8.23883242827132
35
F:    ...  E:  0.555983470000001
W   9.50704522468044   11.59449439717798   11.82364931747424
W   10.08749961751062   14.19110923012644   11.68337473444513
W   8.56319007604025   11.45976949820389   14.41709563044429
W   10.80873965060184   10.21283108225253   13.97305429513174
W   10.78026835483586   12.83647379010014   14.00610473420172
W   12.94590769985888   11.34360237404208   15.04165120685652
W   12.32416444216732   11.65605986503496   12.10862642354747
W   14.89276463643172   11.63295722499683   10.81059465555947
W   10.98945554641975   12.58507268933956   9.78148427154645
W   14.25098712880854   13.76992612137605   11.94748407219058
W   13.43703717004612   9.42612729255398   13.61585657685221
W   11.01521006109189   9.97976898703787   10.14399946684281
W   8.22714524905195   9.46066310443705   10.81328522551673
W   8.84286826087144   11.03806039861960   9.07129607727458
W   13.56009410941771   9.38506148566254   10.81877613111807
W   14.84638212510796   11.86687511417747   13.53984798390952
W   7.01827330063618   11.72192330248201   10.64137967270709
B   8.72299886480865   13.12997832403473   10.14162514013146
B   7.98918929107926   13.49396798439936   11.65755829163227
B   8.71328535991300   13.36341998024136   13.24884944741156
B   13.08066693150874   13.22379792767373   13.82644661996829
B   8.78741215669980   9.67970448148529   13.06100223467226
B   7.43918509417052   10.63444751500691   12.60557175154708
B   12.23555834924909   14.00414171525910   11.00322250101197
B   13.21492696879897   12.89859267192564   10.13228795298849
B   10.09096738473506   9.23737387375628   12.06164261236679
B   14.96494101614937   10.10550241084075   12.28551051211633
B   12.88757154521399   11.26077560971722   9.79986290189237
B   11.80165013220040   9.25764960870520   12.14018629764673
B   12.14665071367128   14.07949172656052   12.70286025235275
B   7.38396927544679   12.32334742916489   12.76257486315503
N   16.40525045917211   11.60330718892356   9.20338396086034
H   16.82482973037304   12.53458778842048   8.90614290364232
H   17.05430751809924   10.86430054507602   8.91692036637722
H   15.50936658727101   11.49459729332701   8.65655094674609
35
F:    ...  E:  1.29440969000001
W   9.50406577879516   11.57087055137854   11.80553867864145
W   10.05590357774175   14.20363439168288   11.66953254622020
W   8.57632234835944   11.44168612275290   14.39798853834020
W   10.78513804425988   10.15010036685272   13.94398594993213
W   10.77801276225721   12.80936390156759   13.95421676468085
W   12.92508581445281   11.32697045259633   14.99076492594712
W   12.35277072290639   11.63710104053452   12.09439600236111
W   14.98647143632268   11.62876114995623   10.50013717151682
W   10.94624555748637   12.57854018625313   9.77779733388197
W   14.21183874548619   13.70811692643851   11.91282778548034
W   13.42455560691374   9.42021204212466   13.57992775643321
W   11.00008137240592   9.96841334356017   10.07841454474422
W   8.21389849964709   9.45289736530321   10.79744491173213
W   8.81001933893213   11.03812755930439   9.06470340874248
W   13.52287436063587   9.42746363899991   10.78008655754765
W   14.82923714131735   11.89243381863167   13.55536766881414
W   6.98138847715246   11.73191875694436   10.64555259862624
B   8.69142418857716   13.12317980075969   10.13952411672612
B   7.96189769463499   13.48941537835057   11.65739508739065
B   8.70145804240112   13.36000425699409   13.23669663478124
B   13.04997325845300   13.25513409632557   13.80543201695569
B   8.76636302954091   9.65768844992934   13.03140547007063
B   7.42098986653626   10.62671930995102   12.59126761575160
B   12.20642034424682   14.01149449103022   10.97491210222598
B   13.16258071546110   12.88431670092809   10.13761106507305
B   10.07792826641607   9.22000450795037   12.02601614756533
B   14.91994665545693   10.17902299190282   12.27732116878189
B   12.84108153972595   11.26810580057016   9.73607106156888
B   11.77985764448168   9.23101598085770   12.11323186007108
B   12.11874935930199   14.10807251383095   12.69047988508460
B   7.37437452831532   12.31360923839806   12.76467472571311
N   16.92145952813664   11.52514596528331   9.68323473985616
H   17.14198505966171   12.43915681141774   9.22937507067966
H   17.04647857564290   10.86460088158326   8.91557342804736
H   15.26288215007487   11.80646124119234   8.79085469215233
35
F:    ...  E:  0.380591760000016
W   9.57061762750598   11.53935291643574   11.78111442446737
W   10.03472413804967   14.22105112260985   11.68219087198264
W   8.61082797587144   11.43065766165363   14.39350593472196
W   10.80461434549195   10.13712280018113   13.90774657308483
W   10.77307596328095   12.80488367007926   13.92511693285564
W   12.89312967766652   11.33563564025607   15.00749245831045
W   12.51146848234083   11.63638748099625   12.08590780268773
W   14.99510658683994   11.65036783576233   10.34434463311734
W   10.90640936330098   12.58637076497444   9.79396720914448
W   14.21970088154793   13.67855844981623   11.89030892830546
W   13.42095233191569   9.46496303059128   13.53277922056519
W   10.94386804288267   9.95129751953418   10.08703431190013
W   8.16050726275490   9.48660027678442   10.77226664698256
W   8.77425250729445   11.03925727434198   9.00821940680825
W   13.47508485406888   9.39493596905554   10.68143132634011
W   14.84525030107421   11.98152650697460   13.64194009893358
W   6.98376661674045   11.70261801410424   10.68727619725961
B   8.65908648858930   13.13923309172940   10.15100030334249
B   7.96964218024242   13.48553181316330   11.69075647961471
B   8.71093191481032   13.37815564826534   13.26304322187536
B   13.04110133515403   13.26161540434591   13.80135960079907
B   8.77681440086891   9.63902688580773   13.01476862680644
B   7.43739258963783   10.63724350633248   12.64212738325869
B   12.19107702893941   13.99811978381153   10.94460249540688
B   13.14030652357955   12.88309722077881   10.07307333001732
B   10.06507504823530   9.14757394270104   12.02699223345674
B   14.72070868570408   10.42486492377281   12.16516476468861
B   12.77037104551425   11.25300114152072   9.72694237365216
B   11.78215319668151   9.14016906714436   12.07408881998790
B   12.11458151663442   14.10047138923354   12.65729638266906
B   7.39171663984200   12.31883721324975   12.78577687554269
N   16.95088370938738   11.55321546432653   9.80001174288120
H   17.61208849685676   12.34863447438909   9.82409234803475
H   17.10158884115474   11.12624587273269   8.90713570922843
H   14.99088343167780   11.47313625468177   8.57888436340718
35
F:    ...  E:  0.19792713999999
W   9.55577316312012   11.55982634825805   11.79567026765078
W   10.07488704617664   14.18486483829335   11.71397369622747
W   8.59423726810110   11.39972938781576   14.39998904875384
W   10.81948059235133   10.17683850827119   13.92508036691592
W   10.81625726870877   12.81734720940050   13.93607779000549
W   12.93274127222647   11.33651911139483   15.01765262043913
W   12.51993718320222   11.66890703629320   12.09698422867107
W   14.97815772252462   11.67979302095052   10.39721436295728
W   10.93846166755755   12.61683250931883   9.77799880302343
W   14.25400794707586   13.73532825436583   11.87151247092109
W   13.43823818015113   9.46273485642908   13.54938249811967
W   10.95352667639168   9.99124576032904   10.12238200293487
W   8.19643816893952   9.48766523797790   10.75565833910826
W   8.88637752048866   11.05943053215701   8.98803153874473
W   13.47102735835339   9.39472904416995   10.67838452512633
W   14.87568239228710   11.99847626852039   13.62823089653001
W   7.03625740139971   11.67470228764649   10.65264120568449
B   8.71256884354500   13.13903212180387   10.15190823803014
B   7.98599932688296   13.46005779885923   11.67127636100416
B   8.72665374215000   13.32545028873154   13.26211774911191
B   13.08210523369554   13.28225735980273   13.81983834657256
B   8.79140612815298   9.63833146251830   13.02268786845709
B   7.45073305713407   10.61090105011444   12.60302282788545
B   12.21148566464259   14.01403071441071   10.96014440680457
B   13.17540659247833   12.93172922770462   10.07946356308835
B   10.09213434658979   9.19413601002788   12.03776920140890
B   14.64297374729826   10.45161413790637   12.14420914864600
B   12.79536062270945   11.29890424943863   9.75626215691418
B   11.79626484574097   9.18369283186873   12.09271360553771
B   12.18012192833743   14.10708594959048   12.66946520009435
B   7.39374093777994   12.29262776120101   12.77970762994285
N   16.86546672413319   11.60290117123087   9.66282135363032
H   17.59177403505173   12.34702801214923   9.78182170290642
H   17.04661518859320   11.15260462588787   8.76813293205638
H   14.46746023816605   11.07240504730015   8.77953307823197
35
F:    ...  E:  -0.0669224399999848
W   9.54514036840981   11.57042137693602   11.81368176322283
W   10.11092096068374   14.15822480724717   11.71145321054110
W   8.57833228008599   11.41222874780220   14.40136995483355
W   10.82002333004082   10.19730145956525   13.95673641220267
W   10.83574071698426   12.80443021005691   13.98107410422177
W   12.94518260813605   11.33069196924381   15.05528336182079
W   12.43470323630672   11.70694836411367   12.06523852044670
W   14.99427976374186   11.74133008761903   10.52600167571013
W   11.00960949617074   12.61428830983463   9.74647844863519
W   14.27967001097885   13.73178049873931   11.89072020905659
W   13.44500200674013   9.47054979449546   13.60488331951232
W   11.02172402466799   10.02361996196431   10.14071985931750
W   8.26044221694593   9.48339059759899   10.75132579279131
W   8.92059327155118   11.05260290494572   8.99077878479035
W   13.46952349727571   9.37933231431216   10.72286712206149
W   14.86208496684463   11.93510202812263   13.58095284842674
W   7.08071815148251   11.67987653383806   10.62177887109481
B   8.76832712020273   13.11858602464052   10.13433559157963
B   8.01616827360862   13.46239502319543   11.64812890744942
B   8.74341932537840   13.32096508644787   13.25745987130994
B   13.09794462139249   13.24671388364509   13.83053525053192
B   8.80041670254720   9.64168380797575   13.02939201862364
B   7.45731469043190   10.61194992709604   12.59197161872710
B   12.24369740094622   13.99223592522751   10.99647369485209
B   13.20342527520706   12.96948090200882   10.07561067821054
B   10.12054153746635   9.22071515119455   12.05581559805054
B   14.68335183478466   10.37448261914602   12.15131928930117
B   12.96870357154835   11.30576834897653   9.60319722097333
B   11.81940525771708   9.21153668224439   12.13328266942390
B   12.19789880446312   14.10792636782032   12.70074386158368
B   7.40406217071970   12.29993075763620   12.75892414461338
N   16.74029946382890   11.69726125299926   9.58279408555940
H   17.48284738603812   12.43844600038869   9.59229224258597
H   16.96057229604660   11.03685870211817   8.82408922380072
H   14.02767339276238   11.00070360294179   8.82204980627495
35
F:    ...  E:  -0.145365470000002
W   9.54507767448784   11.57592858205089   11.83572236876080
W   10.13712677862926   14.15489955884286   11.70499080172495
W   8.58529156723410   11.43619435237650   14.41898281524340
W   10.82258118140012   10.19941544525696   13.99279520715968
W   10.85071552369191   12.79998259505579   13.99718158771238
W   12.94468370127750   11.33775606408244   15.07320937252984
W   12.40897136965077   11.70920365352626   12.09177540090259
W   15.02668636483915   11.74845707945772   10.60172398857859
W   11.03343458265291   12.58978449606817   9.75237611924380
W   14.29119615151730   13.72977120737699   11.90482666525662
W   13.44809341235116   9.46598612755411   13.63371789122493
W   11.05841349072388   10.02351106818349   10.16818869270401
W   8.27745418797121   9.48337299222426   10.77888553410592
W   8.92267640701763   11.03985965638290   9.02512419760367
W   13.48319588325849   9.38946986168069   10.74343916337506
W   14.87281362293932   11.91155222461573   13.59885601105360
W   7.09448094286674   11.69769165361761   10.63859540823565
B   8.79170344008493   13.11470136091000   10.14289134159102
B   8.03323920475130   13.47687449764260   11.65537174228879
B   8.76182171640576   13.34088711002539   13.26517532508657
B   13.11299027313148   13.24601759657990   13.84278510289501
B   8.80444594872770   9.65589299963229   13.05910843135002
B   7.46007486588013   10.62934018980056   12.61682578923623
B   12.27781902290123   13.95348337856599   10.98942837618124
B   13.23237788172178   12.92005561843269   10.08978072484383
B   10.12724154129652   9.22657234713907   12.08464765029445
B   14.72084278107666   10.33377129055367   12.18691739633686
B   13.03846164356754   11.27777488376231   9.48406754599619
B   11.82445312591190   9.22311106944452   12.16443242707333
B   12.20479686408754   14.10780150236819   12.70027319307929
B   7.41592496087566   12.32143169681395   12.77329776523626
N   16.67402373105586   11.75815771685265   9.52180422726525
H   17.31123837495077   12.56180422788741   9.36538975830920
H   17.00121283364620   10.95917874294067   8.94185732811862
H   13.75419897955753   10.95006718443679   8.50531468154143
35
F:    ...  E:  -0.213539369999978
W   9.57061618279666   11.57654882827011   11.85719212148641
W   10.16587961584331   14.17049026362755   11.70089868156415
W   8.62512987033305   11.47350577798865   14.44404453652153
W   10.84402515306329   10.20165086290100   14.02040286652737
W   10.88242981835996   12.81289806344753   13.99601801089065
W   12.96012945635236   11.34724577851367   15.07278261298208
W   12.43686567157996   11.68938439575148   12.10846626491452
W   15.03159028686535   11.71151375558333   10.58071862670164
W   11.04022806444340   12.57337403089746   9.77292667787621
W   14.31022899413522   13.70893971289370   11.88798045788610
W   13.46602020967506   9.45942862829157   13.64734625546961
W   11.04470272916684   9.99790092928374   10.20120647133284
W   8.26698684259882   9.48920330354012   10.82446217165558
W   8.92934979567682   11.02062228135798   9.06043764365226
W   13.48227111048207   9.37164190013570   10.76172524037554
W   14.89490640293240   11.90770383978331   13.59791987647338
W   7.10403563457562   11.71436316889044   10.67886236897972
B   8.80536572820476   13.11761002463193   10.16084574432239
B   8.06456623912261   13.49643834942766   11.67251842347443
B   8.79859456964450   13.37151338141249   13.27473973392392
B   13.14131765210577   13.25421585788411   13.83541737487554
B   8.81820584856950   9.67816011199509   13.10173886961376
B   7.47924315121724   10.65883833570570   12.65892239349331
B   12.29588922824616   13.93789088554869   10.98040955250329
B   13.24066137041840   12.86211041267157   10.06470633520926
B   10.13013733320341   9.22377163281282   12.12351245941166
B   14.74064519063514   10.32911988859142   12.19289908532695
B   13.01489841322937   11.23357516979804   9.46309613650176
B   11.82886034842169   9.20480495020649   12.19844980767425
B   12.23268745922005   14.10786863884689   12.68904269119406
B   7.44693570639901   12.35036497421302   12.80145254015440
N   16.62503112786766   11.80435962463778   9.41732015606446
H   17.08248592853964   12.66515443605451   9.11915887815911
H   17.10079313030532   11.00127302096329   9.00587395238822
H   13.44804576790549   10.82627481557708   8.37626501255587
