38
F:    ...  E:  0
W   12.69968975136372   12.00004847398499   14.46045385099544
W   11.13848031169569   10.12565602640293   13.15467782088168
W   13.45136176934710   11.42393504672004   11.98184587749654
W   16.14561242948165   11.11084594847884   12.37731363970890
W   15.22276684716253   13.04239119283242   13.63938887165803
W   12.80834406132027   14.13989168936289   13.01213395410298
W   10.71957941414679   12.55010059864598   12.20202114099779
W   15.13904722126713   13.46796426201447   11.11887231312767
W   8.11988358702548   12.61466419134820   11.78579862682775
W   11.01142747550843   10.15567539014895   10.58835180399830
W   8.68699282907757   10.94563031069617   13.77687942419010
W   11.25031739557052   15.57336139286058   11.36778559855554
W   8.87755271025585   13.49650109455922   14.03887083316617
W   12.59366976941225   13.73899850204033   10.30862613890872
W   9.83667548309846   14.13321792749712   10.05843684849700
W   13.09484892554020   8.71409423858577   11.90108175067913
W   13.71163318645200   9.78817370992471   9.85039765359514
B   14.62346725631152   10.92401757974332   14.05508549157815
B   13.28868506860672   9.89843208370062   13.86660848730432
B   14.73049537855112   9.58167923414808   13.02542876380896
B   10.44902794628689   11.99066740413403   14.55361159392394
B   11.09777197363915   13.56927958000398   14.41229596977714
B   10.61721312751111   14.77832693718787   13.33874999463918
B   9.31453663130492   14.61763167713044   12.13314367534501
B   12.47556504712803   11.54733004467296   9.60680878290260
B   13.81297446839552   15.29309439242776   11.33911879772077
B   9.43331710089462   11.88844980682724   10.11295220365176
B   7.68606756223833   10.38738090143407   11.99655771847959
B   10.97806057464667   12.27373136121551   9.71828616190445
B   14.82632445859309   15.00941746002596   12.62923222572831
B   14.03910835794764   12.11396577007685   9.72656375897664
B   8.62751222064586   10.61565208063011   10.71603832604416
B   15.30093419882166   11.29822941434839   10.44256810939163
B   9.22066191115933   9.65346955924393   12.04653682355719
N   10.23817974767816   8.49304173044507   9.22993332472464
H   10.52805199205761   8.63852236313237   8.26052812749820
H   10.62471068391396   7.59883216245060   9.53774085675523
H   9.21458991758066   8.44283725255578   9.26441345053977
38
F:    ...  E:  0.0359887800000251
W   12.72827221331897   11.99521929049557   14.46853296913959
W   11.14922656833662   10.10756929412975   13.20599022253094
W   13.46536983453130   11.40494722787007   11.98708211527990
W   16.16148047411544   11.08937466794384   12.36356447706084
W   15.24591563690693   13.03503737237048   13.61580892702911
W   12.82401636408857   14.12200180091158   13.00331422656038
W   10.73000057838668   12.52288978342569   12.21522917649771
W   15.14083361076940   13.44572937471492   11.09526838185788
W   8.12553811515234   12.59342897215561   11.81192492261312
W   11.01977567579832   10.12547371499593   10.63946100293796
W   8.69740587661946   10.94336627372142   13.81729735113949
W   11.25686341047317   15.53571931000697   11.35842816771982
W   8.89835503398987   13.48822569512322   14.06061381774302
W   12.59435683561536   13.69757559467901   10.30193687142769
W   9.83283693692614   14.08882795580313   10.06250365192802
W   13.08864159053854   8.68777003283039   11.94087400654079
W   13.71430720763423   9.74497007593955   9.88422149690965
B   14.65078098254888   10.91926616276016   14.05218978064342
B   13.31553193268885   9.89354745469757   13.88295808127499
B   14.74691022301661   9.56847601243180   13.03072862106189
B   10.47207339116652   11.98212559402600   14.57715231135418
B   11.12215861761420   13.55881440144136   14.41912786638907
B   10.63364189306453   14.75842097663156   13.33640657810723
B   9.32505707754682   14.58655069064751   12.13935104773273
B   12.47541999554320   11.49981018737257   9.62096899080218
B   13.80632491657496   15.26782670797450   11.31412490141537
B   9.43004121154878   11.85179280980280   10.13657349173993
B   7.68849578835886   10.37092340099244   12.04569742805107
B   10.97367165593456   12.22848800716906   9.73632392197415
B   14.83415857140948   14.99623358310791   12.59655512515687
B   14.03838474692964   12.06991980902425   9.72014922062124
B   8.61871732516575   10.59128220361921   10.75971839256668
B   15.30973263461849   11.27057306411074   10.43642197305984
B   9.22621452401590   9.64276009941707   12.09580704379960
N   10.17202231813275   8.64202072924206   9.16530690995162
H   10.21728633601424   9.11212218386444   8.26058217565841
H   10.71352203193879   7.77618912922364   9.10766213700933
H   9.19179665460388   8.41986914696398   9.36928100835236
38
F:    ...  E:  0.263171390000025
W   12.75667790990947   11.99034565974844   14.46846866894858
W   11.16570509631504   10.09417716279032   13.23975475731486
W   13.47817857373517   11.38925031147510   11.97929874392782
W   16.18086277837006   11.06350942813516   12.34811399003505
W   15.26904342717238   13.02288897838478   13.58848678968816
W   12.83683930866179   14.11046012020882   12.99995316465182
W   10.74605919408066   12.49566382033161   12.21807885473589
W   15.14533980405482   13.42808622783360   11.07782495763345
W   8.13509826495148   12.56463206825922   11.81674981479532
W   11.04058335142343   10.08608391715095   10.68652643215896
W   8.70824763333868   10.93494360085687   13.84783261405535
W   11.26242780452104   15.49478050396450   11.35210150781770
W   8.91505071145597   13.46281502855099   14.07191719491935
W   12.59848793951914   13.65651057812672   10.29184673494318
W   9.82806533880771   14.04366438972020   10.05975311784849
W   13.07876276372426   8.65504013112897   11.97193207981781
W   13.72818544670208   9.70923984089535   9.91855611788036
B   14.67575698574326   10.90975954750383   14.03508228256802
B   13.34030344750019   9.88606034188195   13.88438414525953
B   14.76204672584715   9.54885288047461   13.02111523666994
B   10.49738449029368   11.96679598096289   14.60050253111751
B   11.14084071459378   13.54190656769600   14.41866175201648
B   10.64264755854452   14.73968465254536   13.33374149331034
B   9.33345043796822   14.54707418016710   12.14056082551560
B   12.47929565220107   11.45557918899786   9.62081068077062
B   13.79984012451201   15.24567601858690   11.28838265855735
B   9.42665230609157   11.81197438574173   10.14073381835807
B   7.69718520900989   10.35410700530425   12.07378217843205
B   10.97412891340318   12.18013685779449   9.74918852420154
B   14.83740151366888   14.98497093575067   12.56874442494020
B   14.04488476606745   12.03350239129977   9.70961669514404
B   8.59256350287044   10.56920222766569   10.76799728764958
B   15.32586363603749   11.25211886128526   10.42645094348286
B   9.24391391197981   9.65527344641985   12.11591752843883
N   10.09623643234819   8.76383278255502   9.14260351687704
H   9.97076359544898   9.57329803247022   8.56253476107474
H   10.69244913769550   8.05523812552428   8.75213572151994
H   9.18791438307089   8.35800261344978   9.34499624455962
38
F:    ...  E:  2.26603870000002
W   12.72975714264219   11.98112536145634   14.45841274186149
W   11.17115274624471   10.12944854085345   13.17676106562817
W   13.45522639850701   11.40147756376799   11.96162701644659
W   16.16729458428674   11.06980850324704   12.35322438695043
W   15.25292496508449   13.01060095036120   13.59984924908354
W   12.81768262490766   14.10491710034742   12.99842901380275
W   10.73916719470337   12.50460870450446   12.20892230203968
W   15.13995415356740   13.43675311244507   11.08295345227941
W   8.12425583209844   12.59432718984074   11.79372060270823
W   10.98865860509728   10.07540128851549   10.52833368844454
W   8.70479756678298   10.92817577485623   13.78686606920968
W   11.26207223863304   15.52219169864621   11.35721347443569
W   8.89718428690368   13.46362909421349   14.04425447657375
W   12.59139912051924   13.68339475242433   10.28788003891483
W   9.82002911304745   14.09570140087181   10.04397777180904
W   13.09196605405489   8.66903863863750   11.90711270973874
W   13.70972477918730   9.74337026203946   9.85390608056696
B   14.64490179505942   10.90071479563116   14.02630108420571
B   13.30905259133563   9.88061731467829   13.85300050799702
B   14.73985648147880   9.55572414895854   12.99750675368587
B   10.47137282096516   11.96473394162647   14.57876898434966
B   11.12044508827378   13.54458818174464   14.41249960816795
B   10.62466658439224   14.74794874270076   13.33169632091243
B   9.32542694189056   14.57734496464116   12.12319473948091
B   12.46564897443271   11.49991928373107   9.59140039919359
B   13.79754729525492   15.25496723062749   11.30905344029924
B   9.42629581125817   11.87580661467037   10.13925558684265
B   7.70119105556017   10.34919008142284   12.01119502743840
B   10.96578368516073   12.24596862551011   9.71992549081476
B   14.82943915681454   14.97822362636434   12.59322455806323
B   14.03661894807666   12.06411121502117   9.70452424396484
B   8.60371053365107   10.58833631221721   10.71420983943414
B   15.29885541403373   11.25945389544548   10.42996585185729
B   9.25525160369646   9.68281833150676   12.05853996409606
N   10.18291882222940   8.42948526370581   9.39567969779639
H   10.24098883757011   9.94860383956586   8.87169361420160
H   10.72470110840495   7.59537467489925   9.14751190509496
H   9.20721783583123   8.27723776994150   9.18254703324738
38
F:    ...  E:  1.99431802000004
W   12.73417572045208   11.97359288967984   14.45434789662489
W   11.19928515698454   10.15270244387143   13.15202273545726
W   13.49795649757838   11.41047305456660   11.96805943836793
W   16.18121297970137   11.04189252260481   12.36343740246932
W   15.27805016609068   12.99470558232488   13.56246525059119
W   12.80756789312852   14.12946959290158   13.01824654252168
W   10.75762011613025   12.46299534344505   12.19412786946376
W   15.13689705676203   13.47202580016578   11.06772291313773
W   8.17865845409014   12.57092146095930   11.74345099491851
W   10.95003419505279   9.98897949093500   10.37074859469447
W   8.70406145847442   10.94235316727942   13.78182843742874
W   11.26139544419344   15.49676048378109   11.34492357691542
W   8.91556554212193   13.45276148608826   14.05397551246311
W   12.59073992077057   13.65493739119589   10.30131488119163
W   9.78331858451188   14.05743789957064   10.05838195943623
W   13.08771763081701   8.66952699830442   11.93387066270402
W   13.69171272614772   9.72385196564459   9.89587514851119
B   14.66307206762012   10.89356816844749   14.04459331333659
B   13.32677534631052   9.88427686331294   13.86297511358098
B   14.75362594241548   9.53788317052992   13.01176575137329
B   10.49195284803406   11.95285070642903   14.59942137344851
B   11.12079337670913   13.53896699228341   14.41709879722860
B   10.62934252882161   14.74279058652776   13.33775885513886
B   9.33491470101749   14.55651777215319   12.13841700034373
B   12.48152574048804   11.49814915946865   9.58625924589288
B   13.77523748936999   15.25469858925963   11.30465124530363
B   9.41277986880641   11.78528981979366   10.00329061412631
B   7.68671407214845   10.33314996519392   12.03582528061351
B   10.97986161803269   12.23462300621068   9.73319186255995
B   14.81710999868463   14.97765831366455   12.58890387891245
B   14.04349454544857   12.05362412498943   9.70439647996432
B   8.52468142686272   10.57522556707966   10.70176995469427
B   15.30521380782987   11.26370508358079   10.43993579274019
B   9.29469499880712   9.76258547301449   12.01652292206166
N   10.28865501200279   8.32815084260035   9.39204276512953
H   9.88360487842119   10.61518049571763   9.03068841517962
H   10.70656127105340   7.39077656981232   9.44892038877483
H   9.35855770974630   8.26007994825066   8.97190992433650
38
F:    ...  E:  1.65145312999999
W   12.75726654174134   12.00216926345501   14.47181147459070
W   11.17227022959896   10.13607950748714   13.24402481863805
W   13.48677890479183   11.40803212995413   11.95021603701420
W   16.18977375205145   11.05800122287476   12.38735454547097
W   15.26652795367335   13.01642297781252   13.57742742671396
W   12.81185599465503   14.18567811584024   13.04462239108504
W   10.81137853130439   12.44731395784826   12.22131396858967
W   15.13530954398087   13.48457273398293   11.10848332952516
W   8.23959347534840   12.54596060944805   11.70792396880473
W   11.08789689604604   9.92216973270340   10.51867505865207
W   8.70652967443837   10.98265404913502   13.78988192245495
W   11.21454298850202   15.49087285719519   11.31187248339325
W   8.88838859970606   13.48779931325792   14.05287088529675
W   12.59615912135582   13.62285350316717   10.35511060151874
W   9.77430219258445   13.94578853568596   10.04384326676712
W   13.01491064610032   8.66777574002496   11.95213665871603
W   13.77449807327219   9.74260057624152   9.94736549731480
B   14.65720489282649   10.90999920607209   14.03852714733875
B   13.32065179458272   9.90479496917621   13.87457604152941
B   14.73046293909646   9.55550295948668   12.99992369150256
B   10.48177982286037   11.96860684611394   14.61897748237071
B   11.11810469621395   13.54814536514773   14.39545773661896
B   10.61590497783216   14.75181372056955   13.30931489589134
B   9.33582653686474   14.53461867015092   12.12406124319162
B   12.50860028561923   11.46769900738637   9.58895911415283
B   13.76839201362310   15.26427307912169   11.31062864566431
B   9.41601232516604   11.51920091268066   9.65824424183122
B   7.72659180911732   10.33701414787664   12.01442840002955
B   10.97795550353131   12.14264074858500   9.81085519470957
B   14.82095709535227   15.01005092819522   12.59969827056454
B   14.07367285020893   12.05744007292031   9.69797646128943
B   8.64319558723172   10.53686983311420   10.72062704894975
B   15.34561082805875   11.29660368109593   10.45742018362241
B   9.28295783741028   9.70419566993080   12.06759036815734
N   10.27799903052182   8.39852814360122   9.46112514057348
H   9.58491711945352   10.74740798134140   8.67687058302431
H   10.71407205010811   7.47769009693614   9.38337416781222
H   9.30628567680755   8.35529792602090   9.14156839826751
38
F:    ...  E:  0.805740080000021
W   12.78249232712981   11.98477469624272   14.50620246532161
W   11.20370105009028   10.11627030391805   13.35122186928171
W   13.49837661893190   11.38857517772109   11.97475330500214
W   16.20494660888571   11.05624094176702   12.37231827865519
W   15.29956396743933   13.01413644257969   13.56957034095906
W   12.83035626939253   14.15351542674409   13.04722683589828
W   10.83279936855196   12.40054876838123   12.24750440758176
W   15.11269322723082   13.47194277429379   11.10118530770959
W   8.27348650936175   12.50165398157271   11.68854197288149
W   11.08408889663988   9.92925627259019   10.57338567141760
W   8.70475741478179   10.96536754566068   13.86665304126019
W   11.22728336230307   15.44996584991472   11.30891113210415
W   8.91413208685015   13.46626948407628   14.05370829385282
W   12.57333693843763   13.58037561575114   10.35021245761840
W   9.78610116657175   13.88987515778125   10.03383531764506
W   13.02458453588257   8.64178694622849   12.01135326997628
W   13.80111809502373   9.71586631245730   10.00361031444645
B   14.69194957987998   10.90925515533360   14.04733741654303
B   13.36485201774811   9.88876661759319   13.90744278464610
B   14.75302080805395   9.55346249269961   12.99684797997252
B   10.49774286359325   11.97120113759359   14.66560891286529
B   11.14282429544579   13.53829766945547   14.41234203542885
B   10.64001373010210   14.71690650391904   13.30132982556882
B   9.35573269917971   14.48160930867771   12.11909794583000
B   12.49947451393820   11.41376959760942   9.59916896096202
B   13.73628868731435   15.24606379396292   11.29761800743482
B   9.35214949331187   11.47469467652080   9.54051786957466
B   7.75974065437803   10.35654869216078   12.04934353136219
B   10.94627568491287   12.05157914008659   9.85961866302887
B   14.81410529580524   15.00495929679999   12.58018721248088
B   14.05173865538269   12.02598492396417   9.70046059509596
B   8.66468556209251   10.50689708197215   10.69382016424714
B   15.35216036815422   11.29628073026513   10.45100467121730
B   9.34952296633774   9.81500621651122   12.10299997152502
N   10.27252225778083   8.48285727844961   9.46045870863757
H   9.18812488001081   11.10793646953385   8.38845658694155
H   10.74455198405583   7.60360308861855   9.26475782390936
H   9.30384335065614   8.46303722223086   9.13652484275345
38
F:    ...  E:  0.484536910000031
W   12.79752138113508   11.95569320156135   14.51703507426123
W   11.23670506750782   10.10135961588728   13.39085991170231
W   13.50558369697246   11.37125637857639   11.99118762662473
W   16.21486682403373   11.04559244537949   12.34579614337042
W   15.32851586578358   12.99157306399014   13.54073283343104
W   12.84823536495992   14.12318193617486   13.04482219761814
W   10.83794882020447   12.37273899582721   12.27033744045400
W   15.09447803548989   13.45531630101397   11.07417000327587
W   8.26952698502471   12.47908891486022   11.70063746640210
W   11.09586229613942   9.89320528493311   10.56143107248456
W   8.71603942864638   10.93753834327443   13.90393186086704
W   11.24619475098222   15.43384623212614   11.33375797143040
W   8.93876597166216   13.43274784392795   14.06676678653094
W   12.55279503290105   13.54956088485743   10.33354051304202
W   9.80322052922460   13.86200162484939   10.03593686495547
W   13.00621468650063   8.61353995097404   12.04167146553440
W   13.81343160836606   9.69196174740816   10.03565126224394
B   14.71867848650421   10.89114212700524   14.03963384195117
B   13.40054410165099   9.86005024176258   13.92634750095925
B   14.76021638408162   9.53814295970635   12.97618981582943
B   10.52841772137789   11.94902319718528   14.69348398275738
B   11.16926030892407   13.51718464276771   14.43293624116938
B   10.66665816656807   14.68903863872429   13.31990245795376
B   9.38530760159512   14.43661786048875   12.13400754812151
B   12.48778446148044   11.37049215989260   9.59454506212656
B   13.71388881068695   15.22414007318366   11.27140673712922
B   9.24874465214463   11.59877362018088   9.58266029952377
B   7.77922490654248   10.34939650574054   12.06126099830822
B   10.92984392474168   12.00462251909439   9.89436252800826
B   14.80906564812243   14.99178656434072   12.54584651900404
B   14.03565219013618   11.99524080255424   9.69389205681198
B   8.60154071338494   10.51170411410451   10.67177530613052
B   15.35070309334033   11.29153298162958   10.43499162854711
B   9.40390809481718   9.94532005349384   12.07520243672212
N   10.28554745743870   8.47025771342990   9.43348937175461
H   8.94915149348221   11.60988614046030   8.39436771704910
H   10.77552673388374   7.61200799857649   9.19506082854497
H   9.32956749520128   8.46857511169596   9.07550941900548
38
F:    ...  E:  0.338290599999993
W   12.81703854141919   11.93721072422950   14.51429591172116
W   11.24440738103360   10.08291521930374   13.43064416117102
W   13.49151441586651   11.36311649647597   11.97419827124707
W   16.20961095948567   11.04958231086955   12.31902674495752
W   15.30222725809372   12.99057868220389   13.53352167067207
W   12.85139154440829   14.12229920384863   13.03838080568649
W   10.83925083753024   12.33156349759581   12.27414977775107
W   15.08705609410617   13.45459840555700   11.06086769489419
W   8.26965351555976   12.46805213861359   11.71534749218677
W   11.12155951056345   9.81756687820231   10.57694773247843
W   8.70984934779143   10.92841697216141   13.92349911532450
W   11.25022480920095   15.42678060474566   11.33880227238380
W   8.95774558307140   13.41474625939169   14.10148861838917
W   12.52925012883579   13.51470984463745   10.32765225131515
W   9.79630796821156   13.80621068667986   10.01923282375774
W   12.94505816934149   8.57692610806449   12.07452923220647
W   13.85138900746732   9.67717191416381   10.08226007965692
B   14.73525457737203   10.87099937676472   14.01193471244874
B   13.41842595928316   9.84028076006417   13.90169075533426
B   14.76836216723052   9.52951744353549   12.91923647258026
B   10.53854904473971   11.94160219098381   14.70054079743171
B   11.19123439615569   13.50231433238127   14.42898883439746
B   10.66734283035037   14.66376500211716   13.31424025520678
B   9.40870620198910   14.39985083043902   12.13394792876674
B   12.49627144086397   11.32228859453265   9.59803440273427
B   13.69512423431035   15.20057376194652   11.25321273589791
B   9.19349766676433   11.68606597856655   9.64041867601839
B   7.78322743480180   10.34370899615010   12.06403059652045
B   10.93994739364714   11.94240869873389   9.91799957260787
B   14.79759715465739   14.99438675685490   12.53512292105568
B   14.03594107366299   11.97299768270821   9.68228205674688
B   8.55882750377722   10.52403756889201   10.64979308217709
B   15.37740511467769   11.30999212144491   10.39791971276074
B   9.44014872958124   10.04479839691656   12.05649494480988
N   10.31208675997949   8.43562041502299   9.41190315253833
H   8.84794233751928   12.10411056669511   8.52093503649782
H   10.78681607080693   7.57102125039418   9.16548209154302
H   9.36889562748322   8.47235211975176   9.02608539776064
38
F:    ...  E:  0.246071319999999
W   12.82450710665204   11.91562987367063   14.50619486808757
W   11.26070174549817   10.07023301217504   13.42988882837982
W   13.50361622133214   11.36925550997783   11.98317238409875
W   16.21347309900453   11.03249122917677   12.30003572557487
W   15.31212917805072   12.97614365269523   13.49670348171562
W   12.85595298680332   14.11410098180851   13.01860531322229
W   10.84006685991481   12.30067583675696   12.26677292897841
W   15.08184457591962   13.46078330489158   11.02650835049934
W   8.27122957014129   12.46537559303508   11.75874055344805
W   11.13819352669634   9.75492999152310   10.57040197239466
W   8.71073632792389   10.88685358038230   13.91594880443684
W   11.29409728839835   15.43773920947103   11.39464566517414
W   8.98060247635012   13.39014167072637   14.11146070547055
W   12.50350746041580   13.48410731273207   10.30805305440324
W   9.80488968240687   13.78942584548583   10.03648075188576
W   12.92250539713440   8.56078762988042   12.08212757684025
W   13.87082277510908   9.65199792231670   10.11218250327718
B   14.75072731275811   10.85297526994506   14.00634040549294
B   13.43723270300977   9.81538883562443   13.90573797551432
B   14.77925575591323   9.51226859160345   12.90371385535377
B   10.54948013222966   11.91788482173987   14.69042568684284
B   11.20313192070959   13.48411064820175   14.42613186994502
B   10.67368426964025   14.67784387311604   13.34884564975394
B   9.43528395916314   14.38657154182937   12.15064450709558
B   12.49108936007105   11.28653805979300   9.60992286339699
B   13.68156592882255   15.18865690279023   11.21102049717401
B   9.13989831181884   11.76560479265504   9.69032073398760
B   7.77469869225170   10.31828808559334   12.05643519080904
B   10.92001179303901   11.89453784352603   9.89022478321241
B   14.78663085375893   14.98767504113304   12.50650034579785
B   14.02471093171188   11.95304144356711   9.67751620950182
B   8.48959525468705   10.54595036824282   10.61346703109108
B   15.38098690433612   11.31393911759654   10.38337605280481
B   9.46603993007799   10.12974889323650   12.01496549486749
N   10.33784188783915   8.39062695816429   9.39100802796706
H   8.72559707399026   12.55993430162809   8.73765533019450
H   10.79566719629873   7.52596563906367   9.11134853609463
H   9.40313234175985   8.46691560588308   8.99161427685353
