31
F:    ...  E:  0
W   13.37016050777741   8.65844404205816   11.62871666182913
W   12.38277230748650   10.95009947785595   11.16644372828446
W   15.10773361473193   10.36041253368091   12.32922837825151
W   14.68213582044315   12.25074102811085   10.72462413170624
W   10.88679911151692   9.03707983411497   12.84841103446144
W   13.25787154835317   10.47200417010121   13.88077450889234
W   10.96156038445207   11.38311998983213   13.68605252229264
W   13.48514068475667   12.86635942147490   12.86580439338686
W   11.03503689410119   13.45058209859466   12.15143942609214
W   10.78362495734272   13.36451442703733   9.67903209650993
W   8.61929039763517   12.76044003442625   13.34250677468186
W   8.40723272854054   13.32229275294110   10.66165375838142
W   9.75507736516740   11.17977323833312   11.27692727526282
W   11.21131192034064   10.82892025981953   8.85491828581896
W   11.02849525588864   8.62408072235658   10.27855631922187
W   8.43892586603468   10.00802770399668   13.18557354156200
W   6.92317454817669   11.73375070749848   12.03213142398028
W   8.93264384939215   9.58013998979587   9.21998927488336
B   13.57487920838683   10.98679520475525   9.12188664100704
B   12.80820525291183   12.47426448341328   9.33858175356063
B   13.02370507272259   9.40871492092623   9.49973141199764
B   14.43142878234124   10.03484375615151   10.23445414636045
B   12.79760158578565   13.44351032950470   10.76747307802395
B   7.72693135719010   9.88699905234144   11.06562258171028
B   7.73109665772662   11.31167183461004   9.97525661240725
B   9.07687577380938   8.85596655811775   11.38753825154341
B   9.13110335307505   11.85032133608821   9.08383617915001
N   14.40362752918587   14.44908724465860   14.18121812585961
H   14.65552603263410   15.27638489268889   13.63184295420856
H   13.75788705526553   14.74210093491511   14.92166122903623
H   15.25781411976427   14.09422656273633   14.62378304257224
31
F:    ...  E:  0.409832620000032
W   13.38208734456381   8.65725902327534   11.63766726253226
W   12.37973384075270   10.93648198136645   11.17410019867820
W   15.11463947719541   10.33946249299186   12.34523799252447
W   14.69104710107061   12.23995508174049   10.74601383495130
W   10.88502420829446   9.02361350710975   12.87185061850772
W   13.25968081985331   10.40956472056648   13.91030939532790
W   10.95973528326624   11.35457521835282   13.72008349608241
W   13.48140069181633   12.77420595031868   12.90643800200012
W   11.04108052861095   13.43586253054763   12.17987569273007
W   10.79543552675385   13.37771577745337   9.70613075947924
W   8.64003920542546   12.77699491349161   13.39041997907213
W   8.42509460760205   13.33700231378179   10.70255248073564
W   9.77003590685422   11.18816731062123   11.31216776689257
W   11.21297095864834   10.84483506272212   8.87026926565741
W   11.02951094832853   8.63482367329783   10.29503198359729
W   8.44540751397637   10.00267561094011   13.22142926785367
W   6.94663897925847   11.74843396426649   12.08339483224421
W   8.93761228035113   9.59385093203810   9.25163952605168
B   13.58108232421736   10.99223542774414   9.13530149838979
B   12.81520210892008   12.48116398114231   9.36243792790591
B   13.03363986291494   9.41075910891653   9.50518743755564
B   14.43826102381958   10.03659187007631   10.24358514056382
B   12.80502443557620   13.43726828820412   10.80345044030937
B   7.73786373148058   9.90229506703501   11.10367796459921
B   7.73967401650383   11.32709163446302   10.01909441642042
B   9.08487341398614   8.86295618566586   11.41781426689926
B   9.13829141853522   11.86497681033931   9.12258684919306
N   14.36739455847862   14.42275003874445   14.07622835853187
H   14.46785383195641   15.12730028151652   13.29362026079593
H   13.73676959455697   14.84128063820410   14.77051041580033
H   15.30256399936743   14.26352014600119   14.46756221105307
31
F:    ...  E:  0.773048780000011
W   13.38435140342546   8.66888912277133   11.64527108440895
W   12.38119639944167   10.94762013057038   11.18333079614133
W   15.11422784617203   10.38725561710391   12.36740320363273
W   14.70155342178807   12.26886104012810   10.75951362842800
W   10.89990231270117   9.02098981272392   12.88135125217111
W   13.25597402418783   10.39093517223165   13.92797705673836
W   10.96049468752797   11.35318894698309   13.74861492478334
W   13.48659291314957   12.72904508961863   12.92703115098896
W   11.04218907094799   13.43941594221332   12.20276972338811
W   10.78563842503066   13.38393106226773   9.73440603393398
W   8.66327402711259   12.80034554582108   13.41738258634477
W   8.41285612704104   13.34423913261387   10.72629161529660
W   9.77875547931904   11.19836885799143   11.33971111919565
W   11.21899006199726   10.85889217358023   8.88735183359342
W   11.04339669432447   8.65039193082150   10.30823406576605
W   8.46404471217280   10.00819574000196   13.24673427386235
W   6.96495611358180   11.74665303750094   12.12188432878534
W   8.94492645534534   9.60692385382960   9.27223387749535
B   13.59486101619363   11.01414595813504   9.15493755677183
B   12.81674595915317   12.49709718038250   9.37558054491863
B   13.05230696450080   9.43369111120468   9.51782089276104
B   14.44988305986789   10.05854941730541   10.26760242196019
B   12.79417107992145   13.43892683661312   10.82522660729457
B   7.74786796913810   9.90666326239048   11.12626188230167
B   7.73872639393870   11.32981816284574   10.04970421428241
B   9.09883986094694   8.87181500712614   11.43214479090569
B   9.13860794657379   11.87312607871112   9.15310530075488
N   14.35184134474306   14.37685941786034   14.02069291268389
H   14.34569224774310   14.71008182504164   13.04103763923789
H   13.68751037617932   14.88258440218523   14.63022743156185
H   15.32529514877058   14.44816867436027   14.35383479254640
31
F:    ...  E:  1.40945370000003
W   13.35768820869386   8.67138551832889   11.65214558068754
W   12.39753693056109   10.98693489834828   11.17957625767674
W   15.08270771365399   10.49399567377874   12.35983365601571
W   14.71209386300458   12.31799473857393   10.77498790657109
W   10.93135846037400   9.03256578873851   12.83651882493155
W   13.22726355917858   10.44406179067733   13.91523580698171
W   10.95658491990096   11.39832539444467   13.73720653077745
W   13.50928728848204   12.88587653301554   12.92969454172188
W   11.03316198521093   13.45825226384187   12.17038386520092
W   10.75749369963464   13.37379056672777   9.71977617792573
W   8.66434359943239   12.82240225935747   13.37074283668604
W   8.36333287187772   13.33639350221799   10.68496680410016
W   9.77205359139951   11.20134386536846   11.33030611178310
W   11.21557004807998   10.84422368571768   8.88516274911889
W   11.05919380958411   8.65910985489962   10.28996553064800
W   8.47651657699990   10.01043300968850   13.21807690309270
W   6.96162167592265   11.71703308719840   12.11950419185642
W   8.92601184495735   9.60142616361508   9.23864656456636
B   13.59892606962878   11.02076356632051   9.16171364392943
B   12.81602497757405   12.49877919450596   9.35384498941275
B   13.05375562891000   9.44578906794347   9.52375823569099
B   14.44413286419580   10.06575512883664   10.27991370944042
B   12.76732079301411   13.42613045545400   10.80313436081713
B   7.74845445205497   9.88848858210874   11.10140448004316
B   7.72750327545455   11.31226303393255   10.03580095980631
B   9.09840101172228   8.86847185247060   11.38706191282053
B   9.13255033929317   11.85520832177104   9.14659729412646
N   14.30549095889008   14.31811417605831   14.22110277227962
H   14.55940996334875   14.41743107004430   12.88160351116847
H   13.70070287264612   14.83537687378985   14.86596846191456
H   15.28917568925565   14.43754962516069   14.47103437114439
31
F:    ...  E:  0.56556384999999
W   13.34704177964156   8.67727153078987   11.66223135160205
W   12.41686809883238   11.02585995376461   11.18651569635947
W   15.05049206670947   10.54712919020496   12.37348287731353
W   14.70833307164273   12.33150348719181   10.73373987893063
W   10.95523349123884   9.03186009483123   12.80965140877380
W   13.21901364368201   10.47191179361142   13.91170636858159
W   10.93313045224670   11.40612263436224   13.71600687136011
W   13.55637364287989   13.03967228271435   12.95545170563936
W   11.04873111221968   13.46281749337929   12.16195963403957
W   10.75042255429054   13.36136568571694   9.71034370236000
W   8.66240517934023   12.84220247841401   13.35166044233865
W   8.35748622442368   13.33363288057711   10.66096178173392
W   9.76912614457192   11.20126371675798   11.31531752025062
W   11.21318272660198   10.83645964417149   8.88191543493241
W   11.06148397940603   8.65483119966087   10.27137499770162
W   8.48076169583357   10.00832219507052   13.20664513047798
W   6.97431098398195   11.70530901757155   12.10623366138603
W   8.92699875825207   9.59342824786343   9.21986153434439
B   13.59793176663905   11.02332564353838   9.15871581547723
B   12.81255021984453   12.50497405229002   9.33051911502441
B   13.03906191205952   9.45518613434371   9.52996845687662
B   14.43428035309321   10.07703410715243   10.28825429688440
B   12.76419228546644   13.43453459061022   10.78111469206731
B   7.75051594079808   9.87976231582334   11.08506708305412
B   7.72653472281853   11.30544737749805   10.01485150850859
B   9.09807851055950   8.86561215136886   11.37362381460118
B   9.12596315110345   11.84453424830330   9.12508454032779
N   14.22916154698489   14.17853209581234   14.48414034420895
H   14.72182699713136   14.32831729387900   12.60084505825743
H   13.68730842273339   14.77458272501948   15.08045894087711
H   15.22686810790945   14.44286328064320   14.55796587864520
31
F:    ...  E:  -0.253638919999958
W   13.35903731728960   8.69353490260218   11.67037755812740
W   12.41547376093584   11.03760855380442   11.19554389981928
W   15.04757986179131   10.57041004870709   12.38436522513060
W   14.69101024559824   12.38804859389791   10.77533612785161
W   10.96818680337388   9.03392826089767   12.81970831591703
W   13.21679249960532   10.49551966548129   13.91802699461376
W   10.92652928078793   11.41001440527769   13.73170610505964
W   13.54900094674842   13.05953318779028   12.95360374942296
W   11.02158519750978   13.46764507884521   12.16195727827569
W   10.72859809496889   13.36337165708792   9.70374308740645
W   8.66736847936981   12.85013337113265   13.37667637799488
W   8.34682211411726   13.33775337742991   10.66786637231869
W   9.77170160284478   11.20655332032266   11.33619164307050
W   11.21269774973835   10.83834298200371   8.89245876308329
W   11.07095559585906   8.66385202953079   10.28264376448871
W   8.49460175323642   10.00221913496151   13.22445826153312
W   6.98553052010008   11.70772636747317   12.12973648936510
W   8.92847596701728   9.59806752939676   9.23409022566638
B   13.60101664281843   11.03782576849857   9.16832747950354
B   12.80194119156577   12.51366458747670   9.32404148438746
B   13.04568638331807   9.46967164615459   9.54169318428872
B   14.43951041402697   10.09896968552896   10.29908693363564
B   12.72449465589464   13.42883323347735   10.78256027811817
B   7.75689079303666   9.88192410684178   11.10295948245231
B   7.72526691238952   11.30752397993095   10.03555988836136
B   9.10563016267603   8.86825435257172   11.38181631653730
B   9.12171166988268   11.84406500346521   9.14049445054515
N   14.21051215327034   14.16702146667420   14.48025739695036
H   14.86247587181155   14.12483041457913   12.23164142738145
H   13.67586835974477   14.63387572908533   15.19424807759608
H   15.17271654160905   14.54494710200793   14.50449290403286
31
F:    ...  E:  -0.653425760000005
W   13.38415037204381   8.71008212283288   11.66805810092608
W   12.40979092544298   11.02762342230668   11.20930291288579
W   15.07109754493287   10.55803253605613   12.37962805573486
W   14.67235624699561   12.40304013448865   10.80849066322226
W   10.96474427988180   9.04356042280087   12.86163538871086
W   13.23350221121336   10.50167439144084   13.93345493642489
W   10.95767364247503   11.41419716733252   13.76023705397155
W   13.52050407871990   13.02384155529105   12.95413670362487
W   10.98103591757866   13.47285013675774   12.18381478394920
W   10.70862187858973   13.38431321428509   9.71498528805906
W   8.67238749847807   12.83546773048228   13.42006483958575
W   8.34067451232697   13.34662326020183   10.69433969659432
W   9.77867568722005   11.20971285552682   11.36570137879892
W   11.21670067875551   10.85040380385082   8.91226752410018
W   11.08234495257280   8.68455307387220   10.31543449546021
W   8.49961353876296   10.00261218333525   13.25061135832933
W   6.98529845942790   11.72361337472990   12.16195454105196
W   8.93217906459870   9.61084474726405   9.26431289833689
B   13.60509748706702   11.05703117023335   9.18224266884593
B   12.79857933109752   12.52692699981883   9.35349408957211
B   13.06310344697895   9.48233828769219   9.54678768606890
B   14.45405734034013   10.10949634050130   10.29811764711294
B   12.67586573785907   13.42365263041759   10.81451424419666
B   7.76547999962588   9.89343182345333   11.13397741797879
B   7.73021892917004   11.31588064507021   10.06985117743439
B   9.11607201485028   8.87553915293133   11.40581357254713
B   9.12777668761419   11.85466478703429   9.17251001404460
N   14.20886983109832   14.21547554873733   14.37815767944739
H   14.88287204465147   13.88835317239204   11.86977590199959
H   13.67160624744127   14.53724831669282   15.17714925191091
H   15.13471895512602   14.66258453510435   14.38484757200956
31
F:    ...  E:  -0.273172819999957
W   13.41309520619185   8.70404780280699   11.66773219781740
W   12.41484692024286   10.99207162632115   11.23704534540874
W   15.08821331263381   10.48276677931169   12.40430128222384
W   14.66349750783351   12.32855453853664   10.75224746749258
W   10.93542853556094   9.04706397824787   12.89857396933988
W   13.27374481463061   10.47366818791465   13.96317979327057
W   10.99375254043508   11.40461372719735   13.76607788006197
W   13.54772254334289   12.96890289249633   12.94827757811637
W   11.00551826635326   13.46923966962771   12.22222748652838
W   10.72901423668827   13.39692901392102   9.75211437039637
W   8.69551082441058   12.79111552108553   13.47863838914283
W   8.38938296121215   13.36371213925798   10.75482198794400
W   9.78763686631351   11.21622816871173   11.37119113330321
W   11.22915994715893   10.87935954777094   8.92249571564923
W   11.08339040042829   8.68523622732102   10.34112469985486
W   8.48592906838323   10.03605964270560   13.28867230901228
W   6.98707917872536   11.74836336849595   12.13397980764817
W   8.96633961934555   9.62325968818770   9.30743296315936
B   13.60037924593750   11.05961859531291   9.19619931514156
B   12.80021759461744   12.54290109329449   9.39562975298911
B   13.06340085829942   9.48279534315625   9.54685468647884
B   14.46997105716515   10.08845889834194   10.28785086838567
B   12.69302623360974   13.46253422140988   10.83936962248620
B   7.76302126646836   9.90902808399960   11.15594583659382
B   7.74475413267258   11.33459915603613   10.07345036242786
B   9.11596653368036   8.88582135923505   11.46768295040959
B   9.13250874249734   11.87980533174350   9.17196643985233
N   14.19569283245133   14.22308687544512   14.32928573846305
H   14.62894733591828   13.95671415905084   11.50404241284388
H   13.66327876968575   14.48417662347346   15.16235197474448
H   15.08524219004345   14.72493728251692   14.30490520574899
31
F:    ...  E:  0.0202859400000079
W   13.41251396397380   8.69291942098821   11.68135530744748
W   12.41869204895538   10.97748666800148   11.24780806430029
W   15.10450028092993   10.43873811893082   12.41195526027372
W   14.68900644150480   12.31208910777431   10.76167059196460
W   10.92576792928709   9.04641272314694   12.89130333816052
W   13.28738472404038   10.45309443530386   13.99065302126986
W   11.01476459543095   11.41522637552544   13.75714410752891
W   13.55953329800083   12.88601023585579   13.00620650312707
W   11.06609166245533   13.47908152316572   12.21987256095626
W   10.77746543379106   13.40784412379798   9.78271720626494
W   8.70639910439699   12.78491688689692   13.47415368197691
W   8.40671405792499   13.35803769952862   10.78478639768523
W   9.79592076242565   11.22733423968913   11.37186969216807
W   11.23267853571299   10.88594986168901   8.94379867765099
W   11.07527322362538   8.67157088425457   10.34521021362290
W   8.48447747696218   10.04839484706834   13.29568991366153
W   6.97329225095797   11.74580400135575   12.14426306329348
W   8.96014224924621   9.62884383222090   9.31792077626700
B   13.59833792911009   11.05226327814805   9.20821276392580
B   12.81915788198022   12.54084225872651   9.42888218556266
B   13.06287579512927   9.47051719855939   9.55480681311904
B   14.47530979858266   10.06890100102466   10.29333854056037
B   12.81672801577367   13.53588183188463   10.84391219746434
B   7.76427014536303   9.91714589714513   11.16550832976919
B   7.74733255050026   11.34218632760714   10.08586446217060
B   9.11568473680029   8.89041912792387   11.47195070180886
B   9.14120750265584   11.89282103173941   9.18846007462321
N   14.18164698855860   14.20761487378620   14.33051683534581
H   14.32048008905503   14.06597043155496   11.19752425100291
H   13.65587757746289   14.47204950946985   15.16930525829712
H   15.05614249234420   14.72930179016922   14.27900875166490
31
F:    ...  E:  0
W   13.41956221155121   8.68002755830627   11.70663308272916
W   12.42482282267418   10.96507713360725   11.25548433904441
W   15.10122435259343   10.42110188877871   12.43269368838368
W   14.68605036803135   12.31219047461079   10.74392150103861
W   10.93825761535613   9.05464779702009   12.89025970778756
W   13.29463127916611   10.44039936407513   14.01851352053550
W   11.02517088281174   11.43769223759391   13.76035640932906
W   13.57345193285611   12.83364759110396   13.03006333785121
W   11.11294293115505   13.48344842669274   12.20338996820567
W   10.81330179645878   13.40021814094148   9.78497663739788
W   8.72374137066468   12.76387197655156   13.52361583944654
W   8.41830148162899   13.35026300083411   10.83910787861203
W   9.80128264510417   11.23978871839135   11.38684219541360
W   11.22444774125140   10.86357470841479   8.96632178486658
W   11.06283763024610   8.64763591140128   10.35867546701464
W   8.49445792007251   10.06094793393431   13.32158252900170
W   6.97923341685222   11.75190344012328   12.17848134900698
W   8.94461682060146   9.63327518477065   9.33570510354434
B   13.59110969333405   11.01900274789877   9.21273258750303
B   12.80880769035003   12.50475403699529   9.42098169058828
B   13.06068867549418   9.43598592585214   9.57722913747756
B   14.47007519304507   10.06418859583010   10.31289770706902
B   12.90885114956589   13.59495755954019   10.79573616449527
B   7.76966921917448   9.92761057436386   11.19227381865709
B   7.75006943087430   11.35678610001398   10.11273666215498
B   9.12053250422619   8.89899042235418   11.48766288597687
B   9.14194800094783   11.90519947665051   9.21215341891314
N   14.15792790163422   14.19408707484096   14.33600817809895
H   14.19577426844181   14.18634035718989   10.82248461175275
H   13.63804705357428   14.44401839002032   15.17690645344562
H   14.99383354319779   14.77403679423485   14.24924188759481
