31
F:    ...  E:  0
W   13.92889861964807   8.67317565777844   12.48215367726847
W   12.89969553530662   11.06601986185631   12.02323419436869
W   15.51263503459534   10.59035203702656   13.29411150718791
W   15.08407466896887   12.43225553743704   11.59621536098492
W   11.54606084453170   8.89992508023342   13.63644532580963
W   13.68775987661598   10.45212520514013   14.73675308088256
W   11.33254876251563   11.32459177353018   14.48680357805821
W   13.64592612917642   12.95228630393356   13.64222750622480
W   11.22659714760245   13.38381471491527   12.90961391137969
W   11.18898447769710   13.23210728084608   10.30150242405930
W   9.02565701681089   12.36992064287165   14.35287693287796
W   8.90591455300106   13.02868860740556   11.50186124647000
W   10.24476490082568   10.96824087576423   12.07832880390076
W   11.78823728701303   10.72057493872157   9.62253854890836
W   11.70747404670702   8.54341566174296   11.08833234778078
W   8.97075755184285   9.71355142809788   13.97685169583980
W   7.43289608311395   11.33213627853199   12.79695356022212
W   9.56528742670874   9.34218704168673   9.98075014156010
B   14.12457212990256   11.06521705888880   9.99448657678606
B   13.25856210329961   12.50103571801169   10.13140625587188
B   13.63816005017598   9.47564435130010   10.37255227042136
B   14.98003478010616   10.17619793285613   11.16321995427606
B   13.06419005530169   13.47358938546583   11.55409547249191
B   8.30665409602113   9.56511889444144   11.79890066177599
B   8.27901341502974   10.99387880169953   10.74970170155964
B   9.71660789151695   8.62960792073381   12.18422532995937
B   9.67480531753224   11.61279058467400   9.86380955229744
N   11.22333365111639   15.05263207600409   8.98307991807665
H   11.73958298489355   15.80264547637163   9.45451519551217
H   11.67278706270823   14.88164543993929   8.07781456504291
H   10.27319604265060   15.39029697503032   8.81030824508155
31
F:    ...  E:  0.0113402299999734
W   13.91087740190193   8.68962897331139   12.50422563461793
W   12.87820636435380   11.07655113779813   12.02676387709892
W   15.49465637111345   10.61928676422939   13.30398531563319
W   15.06167605216832   12.44749386686744   11.59591945769405
W   11.52435209577747   8.91507305123273   13.65456803707560
W   13.67113648920831   10.47524869649942   14.74289528165832
W   11.31199937016627   11.34152054152303   14.48820204597213
W   13.61955361634637   12.97208268651256   13.63714630928399
W   11.19421625567844   13.39542342800653   12.89392925289342
W   11.16765775739355   13.22381103867463   10.28895380321765
W   9.01055897398187   12.38552847168743   14.35405732594051
W   8.88350917989720   13.02614508339876   11.48642309883969
W   10.22036777688593   10.97121298450323   12.08214438132541
W   11.77093409090881   10.70741079847943   9.62720316206158
W   11.69287482739927   8.54613469512310   11.10888478698557
W   8.94751704749920   9.72588290397845   13.98633940444835
W   7.41624879065521   11.34225966139383   12.79373383427028
W   9.54666124694323   9.32997156992459   9.99123964245268
B   14.10755738406832   11.06566295948207   10.00129765089875
B   13.23909526717727   12.49988867634580   10.12647177304259
B   13.62327271048805   9.47742933686475   10.38765094356825
B   14.96433942666567   10.18629206551455   11.17635149188508
B   13.03911867338709   13.47935400874048   11.54609251099436
B   8.28160754539628   9.56553790440227   11.80554700102349
B   8.25720839872716   10.98634994156086   10.74805059300886
B   9.69407870049089   8.63322238037867   12.19785994961975
B   9.65723098690892   11.59772582079588   9.86057087596804
N   11.34239947951292   15.01846353435979   8.95651665191461
H   12.08406766586345   15.62865445682258   9.31608208821566
H   11.55728289137821   14.75586639297773   7.99576111015680
H   10.47540670459360   15.56055571154705   8.96080225117027
31
F:    ...  E:  0.0274568399999566
W   13.89301665603119   8.70066157686600   12.52237140159516
W   12.85877970092283   11.08402206340922   12.03406046996431
W   15.47952688247804   10.64459722016885   13.31825084578800
W   15.03733643484995   12.46486443219973   11.60642931000423
W   11.50228110160793   8.92457969997992   13.67071756971995
W   13.65696500515132   10.48968108543287   14.74870274409758
W   11.29720153847994   11.35438512829463   14.48832367197040
W   13.58892132804680   12.99052650786345   13.63601836348960
W   11.15196315141157   13.40801476930307   12.87710478933239
W   11.14506799720563   13.21744034993240   10.27406771141136
W   9.00551737768624   12.40055123303489   14.36608116488639
W   8.86251871216443   13.03355434671200   11.46692097560077
W   10.19743447533527   10.97774381895096   12.08523987960410
W   11.75599937255349   10.69653518932481   9.63784682702887
W   11.67755678393968   8.55105050028510   11.12760742999488
W   8.92895703804619   9.74253219228065   13.99368087338333
W   7.40661597487611   11.36276890108346   12.79347748765662
W   9.52526647267819   9.32540631656876   9.99943889040522
B   14.09407937910965   11.07097261600509   10.01574316538344
B   13.22025400928440   12.50007556411071   10.12823092676104
B   13.61294941627885   9.48370501950788   10.40417294196504
B   14.95126065546589   10.19676960043132   11.19516412241830
B   13.00957167609900   13.48538635013855   11.54485228678512
B   8.25456501821996   9.57503914973110   11.80889384088482
B   8.23580750960150   10.98709427183519   10.74639769855074
B   9.66697266235151   8.64227017228441   12.20667693734273
B   9.64048645164070   11.58989503936683   9.85628312446658
N   11.45167960771375   14.97378691257789   8.92121496909617
H   12.37000466362494   15.35893334975104   9.14252574038311
H   11.40539598384806   14.70600108909397   7.93404556266638
H   10.76171650623366   15.70682507641254   9.09512782029821
31
F:    ...  E:  0.167905079999969
W   13.88078698955016   8.72258307005103   12.53908538675381
W   12.84197394938866   11.08581372986543   12.03845939043773
W   15.49077763624068   10.70376920570167   13.33560529879809
W   15.01057692476793   12.50203604027982   11.62655844529480
W   11.47463645231689   8.92735478496363   13.67742833591678
W   13.67796066451025   10.48031936765963   14.75444299930342
W   11.31522674132249   11.34449737163950   14.48806953454079
W   13.57143456721124   12.98586118842091   13.65041852074558
W   11.09258743570099   13.41872835446509   12.87533901701586
W   11.10874854164760   13.21685604601544   10.26568572560320
W   9.01883762897538   12.39444698543303   14.39990586083566
W   8.83969686621957   13.06553989108159   11.45092596323527
W   10.17873318757589   10.99447251485308   12.08780992298189
W   11.74591261085388   10.69647315793659   9.64715582061778
W   11.66866800054253   8.57251300349219   11.13544104628400
W   8.91814200010413   9.76020299332230   13.98833750096604
W   7.40794798976922   11.40831215146818   12.79497520623924
W   9.50574903051286   9.35034446988190   9.99028289743924
B   14.08910130599239   11.09584774098832   10.03503121758336
B   13.19574876881474   12.51000072999119   10.14499005639143
B   13.62126653697603   9.50288990422890   10.41373334528383
B   14.94360679646773   10.22654479739391   11.22273382948693
B   12.96075108550736   13.48947532930784   11.56975298454286
B   8.23281328099705   9.60652784801570   11.79740681917017
B   8.21887997095613   11.01278379409786   10.74483994845822
B   9.64208524846547   8.66511652855519   12.19069169795049
B   9.62437636845245   11.60531992381019   9.84827574289117
N   11.50876414730986   14.88973929307509   8.87402722182781
H   12.49409391652266   14.88032353101624   9.02217474671547
H   11.28662136607787   14.75794871016349   7.85532159530222
H   11.07916353318729   15.77302708576217   9.18076346432104
31
F:    ...  E:  1.09082689999997
W   13.92324833665275   8.70811993582828   12.52267568353058
W   12.88890427609779   11.03593206540057   12.05587341377841
W   15.54596173446697   10.75627301502593   13.35883893017641
W   15.01654222849901   12.53213516932814   11.62939861178478
W   11.46185416983386   8.91748525252309   13.62616267209772
W   13.76787636969898   10.35567454557465   14.75150783101984
W   11.41403951687471   11.30884067838042   14.48955376712244
W   13.62872449552055   12.91043757999967   13.68761858172389
W   11.07429833820130   13.41639290923714   12.89872060274290
W   11.11715383521369   13.22254690607584   10.26486585372277
W   9.05998595774633   12.35478444192838   14.41317059345464
W   8.85011542674276   13.12674406374687   11.47093865039889
W   10.23501336239666   11.02689606658385   12.07624070584843
W   11.78920207479598   10.72317708355725   9.64298286939376
W   11.70216940853350   8.59072301148471   11.08948187831859
W   8.96179089012426   9.76508281005157   13.94542995152741
W   7.44137916998597   11.46152987446739   12.78123251584252
W   9.54513418619906   9.42944875153852   9.95114140423109
B   14.13326479273433   11.11775738433199   10.05555046689563
B   13.19792319109065   12.51173343395082   10.18713139294000
B   13.67656240929671   9.51734938068702   10.38996282781696
B   14.98331149372429   10.23684782125778   11.24269857927235
B   12.93716254746562   13.47472042741703   11.63592161512555
B   8.28612585743085   9.66804567840339   11.76683807452319
B   8.26928230436834   11.07755696575522   10.73807055347317
B   9.67364069649001   8.69599915853629   12.11898952453180
B   9.65336336829103   11.66778372532033   9.84275548634481
N   11.14629367068031   14.78966912354202   8.77005056108087
H   12.09993388350034   14.63224809071289   9.31411527350279
H   11.49499428618789   14.98344042543026   7.81091904525871
H   10.67041726409292   15.63029376685912   9.11683162545491
31
F:    ...  E:  1.21155608999999
W   13.88668421271351   8.70713135140738   12.56313241842376
W   12.88058616123671   10.98087983841530   12.06440930117595
W   15.49506920997550   10.76459482373275   13.37834844838474
W   15.01416626889416   12.50612793289655   11.59236915280781
W   11.45778054573355   8.93575754917128   13.64005488065829
W   13.73456158685320   10.36686354192682   14.79932354663135
W   11.38693399306129   11.33678842677083   14.49634391029740
W   13.61917983737741   12.90008642987688   13.65893012948610
W   11.09069862157870   13.41903842310460   12.83967428852126
W   11.24796270053164   13.42535362936969   10.09555497271354
W   9.05663810755797   12.41596323683344   14.36446683451051
W   8.88385648500488   13.12595983465049   11.45721409848643
W   10.23644131112093   11.03179353415359   12.06277497694062
W   11.80012070296871   10.73234049665082   9.65835809846048
W   11.68049549360141   8.57346925093368   11.09911685889318
W   8.94425013072583   9.78480269985971   13.95007369867947
W   7.44079953246448   11.44971092677871   12.76813492349788
W   9.52372773622630   9.42039157213618   9.96561800576213
B   14.11625005467067   11.08391628522352   10.06306716463006
B   13.21509071625504   12.49549340344122   10.16745256236420
B   13.65898155457161   9.48275552717132   10.40850172843440
B   14.97652457835125   10.20483999274319   11.25339403188949
B   12.95178640632018   13.44860137817346   11.60822294067483
B   8.26337046701055   9.66568019918556   11.77504454015876
B   8.27321163091118   11.08616796474612   10.72244981345853
B   9.66648223995050   8.69970447475917   12.14711807107658
B   9.71063296518084   11.67130796989848   9.86073735629182
N   10.72440831396811   14.82648670719561   8.64811174641176
H   12.59589697707752   14.39755210275598   9.53464511870097
H   11.44382107152853   14.94970322220455   7.91651889359450
H   10.66925992951479   15.75640681677045   9.08650703091820
31
F:    ...  E:  0.709953989999974
W   13.91535718210165   8.73460557487363   12.50682130587852
W   12.90620227278495   11.00245754666675   12.07614816993112
W   15.55512267691166   10.70796606142690   13.28818006179468
W   15.03277119781467   12.52807716958797   11.62041675001284
W   11.43258855266310   8.90127821345415   13.63507484131712
W   13.75850347329189   10.44064997880503   14.75192322286129
W   11.36776050178020   11.31478349237857   14.48081762212177
W   13.66611286970392   12.90412914407379   13.68957909748359
W   11.09638675909329   13.41789968616222   12.92371156135245
W   11.16182177928708   13.44086665573306   10.13518635168685
W   9.01862267925873   12.34246940583227   14.41252487249601
W   8.88409433783203   13.13261174948903   11.50244233131124
W   10.25121091365494   11.03247716677273   12.06400794754714
W   11.79731828821061   10.76944289553140   9.67175563966994
W   11.69016491955609   8.59650529340812   11.10210886868258
W   8.94208767173882   9.74743029106371   13.94684136147984
W   7.43402335214443   11.41507022942871   12.77178052381634
W   9.56440931567400   9.44349656614205   9.94758988267616
B   14.10491649603533   11.15734084974001   10.06536465244855
B   13.17665448181990   12.63217253127376   10.14907469112351
B   13.65824253176615   9.53807068382319   10.37647261630641
B   15.00727413295272   10.21504735937093   11.18569870989180
B   12.92272301996039   13.47376202556186   11.68652484421095
B   8.29022809801027   9.67069990888813   11.75089498343714
B   8.29603753443130   11.09843175871639   10.72707418593030
B   9.66560784853329   8.69290440695152   12.12905015743597
B   9.70565581573141   11.72433472053040   9.86886141332301
N   10.81006475120596   14.83624883825479   8.70714122882258
H   12.82244362610294   14.00018510144154   9.60450376597150
H   11.45220476630369   15.07169198722755   7.94300671296858
H   10.25905769658314   15.66256225032861   8.92509116894480
31
F:    ...  E:  -0.0983043100000032
W   13.95915246856037   8.73656485986399   12.43679015342615
W   12.87071748436272   11.02803303325975   12.05481477854150
W   15.51387218543912   10.77464346748235   13.32302732460800
W   14.95805119586958   12.60129222330577   11.67436564170273
W   11.51362295690647   8.91321927536628   13.58276488292842
W   13.79194632203536   10.33631917759840   14.76380888567270
W   11.44788761664327   11.29884566872661   14.47024373494425
W   13.55378011447351   12.90215882733106   13.76042532515107
W   10.97137719000114   13.46506155908979   12.93637826208904
W   11.12207830188108   13.44276363516140   10.19023099059997
W   9.09032777905710   12.37042419741785   14.43168583535603
W   8.86367069622744   13.15510452940605   11.50784253790955
W   10.23532005384443   11.02291762799123   12.06406866088099
W   11.78073696300578   10.77533078798875   9.65412350644085
W   11.71068384185609   8.60993217905564   11.03037803310742
W   9.01377478648714   9.72641876559779   13.93883441249779
W   7.48002755239809   11.40202860206397   12.81851533261798
W   9.55027829697689   9.45730409112545   9.93333069552381
B   14.09177416274975   11.20961421725396   10.03602007095320
B   13.17168244659158   12.66223263499545   10.12365136418025
B   13.66689757683187   9.58808117894058   10.33580776118406
B   14.97001721373789   10.30477873232584   11.17954466515736
B   12.85958441039501   13.45336219236002   11.74973036142289
B   8.30518084189574   9.64705504847265   11.75532158883215
B   8.28063493796206   11.09460963737205   10.74635254625306
B   9.70067810417493   8.68011101627952   12.09817092376369
B   9.69039851232660   11.74434533726386   9.89083278720089
N   10.87309698465206   14.91853720350094   8.87532200484492
H   12.98806193995731   13.61788514010556   9.31780583735264
H   11.50153672649004   15.10281080208059   8.09020732394025
H   10.11881987914630   15.60388389415168   8.87527331385498
31
F:    ...  E:  -0.265938290000008
W   13.94988642495699   8.76836682332631   12.52370424331734
W   12.82401467514714   11.01102896519165   12.08736109602658
W   15.33954686662468   10.92665598899958   13.42985285460329
W   14.96873268777185   12.60759249512398   11.51080076159908
W   11.52657544775478   8.93634987860746   13.56103647867691
W   13.69507743014124   10.20227219351106   14.88695339659484
W   11.45193836798575   11.32004786976748   14.52036248583778
W   13.54074542183288   12.82509454125933   13.73731420428557
W   10.96588911707158   13.47723937600609   12.86685240316713
W   11.10814598836399   13.41022541746531   10.17220266050222
W   9.10870805152682   12.46104656802654   14.37935842225118
W   8.86940230453820   13.17216225464729   11.45018914826649
W   10.20761168115701   11.02866976613146   12.07700661974600
W   11.77943611391771   10.77862040386684   9.66475639437236
W   11.67746406158118   8.60910931629737   11.00768931752781
W   9.00843833258822   9.75180180709184   13.94910829258212
W   7.48629882580804   11.43745797246469   12.84345756919619
W   9.50039743989983   9.43102602812293   9.95391555083372
B   14.05118980272712   11.18131343430361   10.03979568439022
B   13.21691929319092   12.68379622885570   10.03365595881030
B   13.64759827397275   9.55361150030653   10.38782652126586
B   14.93964947316777   10.34393382979697   11.23360524964612
B   12.89744781628500   13.41056249166907   11.68396244673773
B   8.28730113480846   9.65534563608876   11.78257458141034
B   8.25928610848968   11.10161729419828   10.75146698604681
B   9.68722735529924   8.68419619043898   12.11201780061282
B   9.66341466202069   11.69793636037668   9.88264927857665
N   10.96655345521415   14.93311813409931   8.92445221207131
H   13.19474511832074   13.53300253152718   9.13781332344189
H   11.50503136503131   14.99451816668327   8.06001502614596
H   10.32099644574216   15.71795007868706   8.99391257438967
31
F:    ...  E:  -0.329822780000029
W   13.90084531496375   8.76745188771344   12.62333630736474
W   12.79980236169090   10.99471225915714   12.12058011821567
W   15.27766564784784   10.96803769253755   13.47832881329159
W   14.98491218819735   12.55685434582829   11.46540068786629
W   11.47163732401101   8.94821797898560   13.59203269064130
W   13.61589159223227   10.22803205594393   14.94774934639313
W   11.40733533372552   11.35552681078313   14.53690808797337
W   13.53228349503548   12.84267968706817   13.70272167771517
W   11.00410295738176   13.47567522580081   12.80259575879112
W   11.11852253176330   13.38331032892647   10.13763304218336
W   9.09819250346690   12.54164052418321   14.33453488369905
W   8.87291755779722   13.18131522245495   11.40767858212294
W   10.18740568338093   11.03815033089524   12.07745785268751
W   11.77778207818121   10.75962358198780   9.67751309572853
W   11.62627236123773   8.60599310666915   11.03803483386624
W   8.96805632349764   9.79926693410541   13.95864054385605
W   7.47142869628606   11.49706518489023   12.83956400969658
W   9.45607492024379   9.42232434406108   9.97192838569097
B   14.02355055537457   11.11953059397005   10.07031409815145
B   13.28612149519251   12.67330393302884   9.93384445734756
B   13.62277621456090   9.50173148717718   10.45785709149002
B   14.91014430514416   10.30575774313008   11.28748930264189
B   12.93102629424653   13.37438725096164   11.60020188878203
B   8.24828258871794   9.68425780300794   11.79691652778755
B   8.23626556931357   11.11868358774891   10.74105815034672
B   9.63576645581340   8.70213502180319   12.13584034534003
B   9.65312614147608   11.67470853333685   9.86961159530527
N   11.03667398316716   14.92786737362114   8.92481651611037
H   13.52040382790383   13.46735679880143   9.02467435470829
H   11.42203969385175   14.92787054858738   7.97947063356027
H   10.54836354723313   15.80220136576998   9.11093586358066
