31
F:    ...  E:  0
W   13.77708662863232   9.73295380504194   12.32625083759722
W   12.80057440294767   12.10593342422744   11.94088986142468
W   15.38275710686636   11.48049831337928   13.19583742158380
W   15.04848308329031   13.41970354678436   11.55926681186424
W   11.42663251049530   10.04598098949048   13.38308364498760
W   13.47892624019558   11.49529964998384   14.64848662881730
W   11.14881750232795   12.49254265123064   14.32566696089800
W   13.67018325442823   13.93596864872542   13.62737096062309
W   11.30399023637656   14.62279188665559   12.80658665296482
W   11.13585564201366   14.45495453172197   10.35599413897607
W   8.96820949987828   13.91966203381945   13.95228581260928
W   8.73533643725806   14.32708158339538   11.30858353503977
W   10.12635702773094   12.25081064986441   11.89831040277162
W   11.65481780273243   11.94594679150610   9.55728984291473
W   11.46161367810569   9.62036988209138   10.78089605494949
W   8.95362739909793   10.98019223741164   13.83005564450792
W   7.35431348608864   12.59704475927367   12.71528275375759
W   9.41290028473054   10.59677665956040   9.81698231611150
B   14.01258104815047   12.17198890169338   9.90793848292096
B   13.20150184461098   13.62807533774255   10.09907373541247
B   13.47221674157850   10.58413247970617   10.23316261175948
B   14.84536537766655   11.22410330750977   11.02809538256809
B   13.12123222356910   14.60005823260591   11.51376373344314
B   8.20334822053206   10.86871164698463   11.66244765876264
B   8.13054170129887   12.28935167014357   10.60519357775524
B   9.58328125550795   9.87276348701211   11.98223847316744
B   9.52574576887645   12.89499437232936   9.72198250945199
N   11.87410245406718   7.61059384143524   9.83629442056543
H   12.33942792155229   7.75107099830069   8.93594590341926
H   12.48620135495466   7.03599867987981   10.42171075427940
H   11.00964140737518   7.08931454342948   9.66870201703213
31
F:    ...  E:  0.0295504999999707
W   13.77751367863710   9.77219957047610   12.35652282496544
W   12.78875008879068   12.09329976248385   11.93130992188178
W   15.40368833337982   11.50504970464204   13.18892087481493
W   15.03426435761540   13.43211805915794   11.55143265028240
W   11.35826365034196   10.03401391554942   13.42162113984384
W   13.49091964940928   11.51402373745073   14.65232390275225
W   11.16221096331720   12.43352171147700   14.32801936525238
W   13.66406297077203   13.93644435994484   13.61708122779029
W   11.27890818627724   14.56701491153909   12.81378976139284
W   11.12227671550627   14.44830884088914   10.34569518681723
W   8.92698919878417   13.80861008154764   13.98882145856839
W   8.74723546419677   14.30489515241940   11.30045567889058
W   10.11649936090343   12.22445267778632   11.90364344275766
W   11.65531187067142   11.93268497868059   9.55319799084638
W   11.46825282832841   9.64398064121242   10.82564203066412
W   8.87116781079548   10.93536999399235   13.79586092343365
W   7.32586689586701   12.59902560040993   12.67380602025494
W   9.40932605133689   10.58759971160441   9.80072241135017
B   14.01230157610550   12.17306322809623   9.90564332629441
B   13.18871882157931   13.62541432537937   10.09392369078481
B   13.48244397961879   10.58076364027798   10.23827794103414
B   14.85063323228223   11.22750376117336   11.02739215913600
B   13.09911017827052   14.59111629600863   11.51179917515168
B   8.17766593653552   10.84172087229502   11.63737887196955
B   8.13089977105448   12.27777385318085   10.57730811190484
B   9.55160597878324   9.85006765186309   11.97049888268049
B   9.53267021291396   12.87493032096669   9.71318313639411
N   11.93223819398748   7.67016378852955   9.86290152560305
H   12.49325653838401   7.94358757708702   9.05587272932753
H   12.49727455255739   7.04441709336990   10.43753555661281
H   11.09534249593398   7.17253372344598   9.56508762348382
31
F:    ...  E:  0.102721839999958
W   13.75645304221725   9.81597128331618   12.41357813800586
W   12.77241078808353   12.11559286808165   11.90162192572441
W   15.42742897363405   11.55965261757828   13.15996729188443
W   15.06060116121406   13.42235669117836   11.52927759460226
W   11.31715873410228   10.04972574206129   13.46169622831279
W   13.50132222099862   11.55368052046576   14.65123256710969
W   11.16357704481632   12.38781727623880   14.36636784696296
W   13.64539733732812   13.94529682204345   13.60638347954826
W   11.25389631502562   14.47774247477170   12.83707710709600
W   11.11856097909497   14.40272277696221   10.33030959254176
W   8.87935116379798   13.68309833831832   14.04435596156088
W   8.76474933857373   14.28404154942700   11.30430996118524
W   10.08025947628100   12.19016722715364   11.91396455045098
W   11.66112887775905   11.90994333651405   9.52926832769629
W   11.50229670056673   9.68280586461334   10.87144756018617
W   8.79192709878576   10.87152673508042   13.75106138233859
W   7.29933192016618   12.58715738149620   12.64641548893970
W   9.41354716678339   10.59408951924220   9.77418266718076
B   14.02393951331722   12.17198261692627   9.90003215143819
B   13.20850714062672   13.63271453788076   10.08042603718839
B   13.49636349766404   10.57727584474466   10.24120241698201
B   14.85590330259123   11.21901743185625   11.02690475459628
B   13.08946664614384   14.56503324290445   11.50744931829967
B   8.14420296104038   10.81052298955622   11.59216739523821
B   8.12763441905062   12.27081699588435   10.55524178273227
B   9.53127435888061   9.84226392842249   11.93387893651067
B   9.52784070194813   12.86651347336560   9.70277625682919
N   11.96813496440471   7.72655988452086   9.89437253830119
H   12.57354433139185   8.14360417501459   9.21240240701133
H   12.52059539266337   7.03316344394513   10.42384889186998
H   11.16886397398566   7.25281195337201   9.48244898461346
31
F:    ...  E:  0.438813129999971
W   13.73746386532786   9.80571966383779   12.39314721183717
W   12.79145557567027   12.12079671599087   11.89613782230969
W   15.40575026307278   11.55621376998867   13.15731553908380
W   15.04436465689310   13.41629394773528   11.50288289803382
W   11.30729604924644   10.04942641346209   13.45283512922565
W   13.51792489523996   11.54445351156412   14.65107334473296
W   11.16935561064690   12.39819792645384   14.35416119114878
W   13.63524840197954   13.94784646169977   13.60136472316264
W   11.25119864916531   14.47231402727391   12.83489025859551
W   11.15535773171973   14.39131997594886   10.31427538254810
W   8.85977281733059   13.61212570533858   14.07173942509743
W   8.78594321024733   14.25564963626123   11.33962389822162
W   10.09115465375445   12.18013299846044   11.89823640029494
W   11.67510408172579   11.92780961923558   9.50625374630164
W   11.48421102202320   9.69605817931989   10.87519620431046
W   8.80020734368615   10.84685236722902   13.74454067087481
W   7.29190909951527   12.54134109805092   12.61960141929967
W   9.43896866260565   10.59593943916763   9.74841719881193
B   14.02359795299054   12.15600144304744   9.88233472738968
B   13.22655846126763   13.63953810663791   10.06148591211483
B   13.46941116801066   10.56684918013721   10.22839613557024
B   14.84422566494720   11.20154583898447   11.01564741879817
B   13.10289751768907   14.57991900328345   11.50018687464131
B   8.16023693499992   10.79395172181635   11.55958260591545
B   8.14180666571372   12.25511923197029   10.53357923695046
B   9.52541398680525   9.83260017138602   11.92964623802112
B   9.54499129310346   12.86644698575601   9.68781572841569
N   11.92334120691270   7.71303828775686   10.00797546207354
H   12.50187554677368   8.40380478987387   9.46217136313128
H   12.57911303777219   7.00556501032552   10.32440197240946
H   11.15951351610047   7.27279831494252   9.49075340361678
31
F:    ...  E:  0.958930889999976
W   13.70659951268996   9.74196791839674   12.32604311380286
W   12.82468795990308   12.12596930327620   11.93493826470293
W   15.37662858812402   11.49817269118307   13.16587319414292
W   15.05833734538659   13.39320514404618   11.50930271553418
W   11.34040627197575   10.06124056289234   13.41976181446975
W   13.51742198064016   11.49871047039555   14.63556555011566
W   11.19127231919265   12.47946585245712   14.31615211025031
W   13.67508533611120   13.94382311188119   13.58051373622571
W   11.29867354449174   14.56319105196439   12.82335084705587
W   11.15338440348099   14.41808798540547   10.33975171544891
W   8.90920572939397   13.68217530436815   14.05077556422369
W   8.74569180079711   14.26813660896116   11.36020432892216
W   10.14512434441906   12.22857512356317   11.87194617707978
W   11.65884576036079   11.97798696575504   9.50691959622397
W   11.49665279534159   9.59311323939079   10.81848707527815
W   8.84557181487889   10.92157316036236   13.77444469393120
W   7.32276946569118   12.52592340913347   12.62318947760865
W   9.45653646455476   10.60194072718482   9.77129534046463
B   14.00474482222399   12.14923113625159   9.88729391663026
B   13.22530827393312   13.64444201445370   10.07775255507822
B   13.40905806985249   10.56942452697949   10.20867038360814
B   14.81663852944301   11.16684287238862   10.99660642185027
B   13.13089416462497   14.61104487313560   11.49492472099043
B   8.20820836783056   10.82033695245941   11.57823424672309
B   8.16267847351055   12.26038757925963   10.54349992020306
B   9.58071774632282   9.86157670506119   11.96205566190137
B   9.54370457458519   12.89422785926148   9.68002543979927
N   11.82066036364757   7.61588852122886   10.02905181162892
H   12.42687874403059   8.48378470608057   9.50767012477109
H   12.55854045943177   6.95780567701854   10.23264167455495
H   11.03474151606622   7.08741748873951   9.61872734971618
31
F:    ...  E:  1.18031612999999
W   13.71759049208084   9.76828421865865   12.35181337180819
W   12.81589824492332   12.12535234930852   11.92837975917381
W   15.38818928894172   11.51989531350912   13.16745921604438
W   15.05902925684917   13.39040809140520   11.50399212181914
W   11.32998260693564   10.05034883589814   13.41007436185591
W   13.51698924254331   11.50206766028947   14.64266003736486
W   11.18093317174225   12.44272691734038   14.31689671924633
W   13.66999041837032   13.93565631891064   13.58425632508834
W   11.29078171887417   14.53548844764600   12.82723526691042
W   11.15083004902867   14.40560640265429   10.34811031710932
W   8.89091685473169   13.66525920576143   14.04129351750639
W   8.74329779884234   14.25903456893345   11.35337703685707
W   10.13812056905919   12.20666758126860   11.86628137312917
W   11.66062643360787   11.98632955103346   9.49711620914690
W   11.52518157226850   9.51489415526001   10.74416200200484
W   8.83335378960558   10.89523303595615   13.76058439518387
W   7.31170111567794   12.52232249551607   12.61852747598145
W   9.46385523446676   10.60727798177592   9.76217711130526
B   13.99398900930447   12.14270680990214   9.87841995736158
B   13.22986668893827   13.64455462768644   10.07571813910748
B   13.40584036065736   10.56305098726610   10.22032620772546
B   14.81523837705070   11.17007660066858   10.99406018701096
B   13.12091684076286   14.60522445538067   11.49864816893202
B   8.19621092012522   10.80767762135300   11.57318690009521
B   8.15555308088254   12.25601673044405   10.54343610318177
B   9.57744798139221   9.84921197606980   11.94515763569028
B   9.53768288526241   12.88259473381808   9.68225454277242
N   11.72069241784356   7.54065203943945   10.15670075291181
H   12.63849221962133   8.83315509676267   9.53691962934976
H   12.55264077603569   6.96816597433045   10.21326411702709
H   11.01383012651172   7.04972875868924   9.60318058423548
31
F:    ...  E:  0.661125639999966
W   13.71133125233614   9.74925557317451   12.31826866969561
W   12.82303720893865   12.14598522088110   11.94191456602093
W   15.37592216870447   11.49988362860768   13.16196978694817
W   15.07324439042607   13.39555847214489   11.52036199686075
W   11.35462341829765   10.02821260039539   13.37733655984206
W   13.49384663189178   11.48889773981255   14.63289223368054
W   11.17395377757545   12.44124210070512   14.30858140987373
W   13.69526518107338   13.94958529967844   13.58744587166316
W   11.31339508205964   14.54786248057518   12.82771954077209
W   11.14176682071447   14.41647124998740   10.36669040820383
W   8.90697985066629   13.73834175804383   13.99572572310030
W   8.72816971068269   14.26525456349559   11.34039785832050
W   10.14449288400436   12.21049975050899   11.85406256749155
W   11.66448382912525   12.01160629593148   9.49918222908881
W   11.54976679298943   9.42426033580843   10.67572450567009
W   8.87681006115686   10.90134066250827   13.76150767405250
W   7.32897216693893   12.51093599739970   12.64620948911303
W   9.48001323031185   10.60385829938357   9.75920375810090
B   14.00174743602858   12.16126378254332   9.88556977163180
B   13.23610466020767   13.65910500867143   10.08188088633707
B   13.37003364702498   10.59779720534446   10.23416846048926
B   14.79925274303315   11.17333615500789   10.99131944394492
B   13.13152639126332   14.61561783855957   11.50398555209186
B   8.21815557115025   10.80538454753378   11.57776675532282
B   8.16031137931174   12.24438203419713   10.55606787226154
B   9.61356350208483   9.85374604423311   11.92635272610912
B   9.52803947477837   12.88148109690293   9.68511829748257
N   11.60522020474993   7.43435261514996   10.26906585857593
H   12.79140243238794   9.03508446985004   9.50005464751096
H   12.46997506072258   6.92525184604333   10.12393486632542
H   10.88426258230103   6.92981486985714   9.73518955635533
31
F:    ...  E:  0.129708579999999
W   13.68665282510435   9.72417430942288   12.36243069506138
W   12.82134206641608   12.11176978860952   11.93548537955204
W   15.36896051844155   11.46003501963389   13.13763492778441
W   15.05667334300598   13.33882873799587   11.49242918522842
W   11.34948565727079   10.03236264183563   13.39075249123908
W   13.49747598314170   11.49687010528318   14.63260981557691
W   11.19576519332296   12.46563941802031   14.28821970688005
W   13.68127273035577   13.95227413826996   13.58302665870041
W   11.32169391402528   14.57836988768622   12.81717961422587
W   11.15013915831154   14.41103557163354   10.36466294559157
W   8.92253722717495   13.75927278423123   14.00421047895887
W   8.73319385611166   14.27780109816083   11.34007022207113
W   10.13864917115020   12.22598970371727   11.85076352713913
W   11.63894619792631   11.99544606076940   9.50500588240869
W   11.48936172027978   9.40910098842395   10.68714255941602
W   8.89628218960442   10.91453271751388   13.77044850585309
W   7.34966076875762   12.53415655414330   12.66383716959143
W   9.46693065877140   10.58834967715015   9.77039576005212
B   13.98052542207186   12.10593310534730   9.87395314355181
B   13.22865508703735   13.62070547658371   10.08287195198072
B   13.35147533748552   10.50877777688920   10.18603486549753
B   14.77282445641713   11.10739384011203   10.97398976634818
B   13.14693634603453   14.59345670471911   11.49685829588391
B   8.22182072865902   10.81438263640919   11.58851955634086
B   8.15288778001083   12.24999559459642   10.55796101625748
B   9.62840637658652   9.85707344095974   11.92918860493724
B   9.51576326858722   12.88364959653851   9.67640071953527
N   11.57859244379616   7.44159741362666   10.24297420380243
H   13.02062240033692   9.36901552873480   9.54790556778356
H   12.44643100918688   6.93507144153625   10.08445658295177
H   10.83570570755425   6.88260778438290   9.80824974273336
31
F:    ...  E:  -0.060923989999992
W   13.71172265267209   9.76982856129512   12.47591460479722
W   12.78911341072040   12.06356852066353   11.90339788213892
W   15.42329674079384   11.54715754000367   13.16854700965221
W   15.05837203392633   13.34888695852867   11.45213784183258
W   11.32250205209164   10.01126588009640   13.40082080074008
W   13.53950635882104   11.46599357953474   14.63713646131169
W   11.15533118711623   12.35411917060428   14.31364799641642
W   13.65544413657278   13.85819152010410   13.57657275667149
W   11.27660936283024   14.48116244142348   12.80106309088994
W   11.13580301414866   14.41408861952985   10.33120017559821
W   8.86287030147717   13.67243546657997   13.99050308615343
W   8.72340541754986   14.25689082525253   11.33601362593760
W   10.11926214019483   12.19283875228264   11.86146114861147
W   11.63467031010371   12.00432798125581   9.48357353565950
W   11.47626831143770   9.48727218602250   10.70871400636356
W   8.81649205096454   10.84429024406880   13.73518759880355
W   7.29321913025155   12.51289477635536   12.61655699155841
W   9.46710422603293   10.59070745597764   9.74789020138070
B   14.00156784599652   12.11514099810502   9.86168558576566
B   13.20893818489978   13.60465951407855   10.06874281763596
B   13.43216343884041   10.54589179340659   10.21777775052185
B   14.82203659135439   11.15718515895815   11.00346461464668
B   13.11126804568417   14.54574709369347   11.48942739179585
B   8.20397695644702   10.79491371006976   11.57016776990893
B   8.14464534673510   12.24290749274753   10.54072582231264
B   9.60886341201194   9.82707006433838   11.90418182155236
B   9.51828222816047   12.87707116714077   9.68501037366417
N   11.60999296369490   7.56597785494753   10.18551939630433
H   13.22074364087887   9.46706747982489   9.60876755678153
H   12.47745090884858   7.04635245676331   10.06815757032270
H   10.82474714167816   6.97976427928116   9.90170225720996
31
F:    ...  E:  0.0289960299999734
W   13.78538533771939   9.83458285228026   12.50273066614601
W   12.77719761869863   12.06165674798539   11.88840165382148
W   15.40321599997501   11.69020276124336   13.22257244877620
W   15.04321973303621   13.43342591188662   11.40312609428541
W   11.28429366861293   9.97670603960353   13.35899353341590
W   13.52114595561855   11.47417694923856   14.66084367121771
W   11.12746015082679   12.27871145924430   14.31564222938543
W   13.67410929022314   13.85526609578413   13.60556340536401
W   11.26450943602808   14.41659110604002   12.84965983787685
W   11.11244320363184   14.38508709933588   10.34564687754341
W   8.83378805630795   13.53989224562651   14.04140329225403
W   8.71139332746425   14.21393761925451   11.34605291915789
W   10.12833664782379   12.15704792030389   11.85404783984991
W   11.65437212471877   12.03436350859053   9.45618069487191
W   11.51137342830061   9.52076287367364   10.71230299492439
W   8.79078338079535   10.77144405130712   13.68376565409710
W   7.27840254352511   12.49185455134795   12.57060635430386
W   9.49366865043940   10.59442279798989   9.70648165340715
B   13.99322082033147   12.14907991830789   9.84299569054703
B   13.19793127785125   13.63717187005110   10.07264284616909
B   13.48173574382112   10.56717571922838   10.21361330023494
B   14.84115283322418   11.25346688652225   11.03208842187044
B   13.07085524252421   14.53073368865371   11.52789599763683
B   8.19293745603918   10.76662244350804   11.51907629175634
B   8.13465790358312   12.22214879166601   10.50208096315934
B   9.58270398037847   9.79217376285512   11.84456996518759
B   9.50512342105956   12.86821387975870   9.66018445075633
N   11.60906495271305   7.60004626966420   10.18850308186711
H   13.36399375202990   9.40629876388208   9.74344841279429
H   12.45825816462244   7.02500743568025   10.19840662030078
H   10.81893544101279   7.09739752242297   9.77614167995758
