31
F:    ...  E:  0
W   14.17140325605942   9.31298765730393   11.75221027910466
W   13.36130264604049   11.82658685457706   11.26917965163755
W   15.77538941308345   11.09988132093352   12.69915917494742
W   15.73623525748654   12.93435582818445   10.96030971788924
W   11.88850533738176   9.94320418382820   12.76451366025279
W   13.76024084800584   11.24691581496775   14.05270301638972
W   11.37328160204709   12.41859623488243   13.62329839528907
W   14.17320160619605   13.58831450504697   12.97700605707785
W   11.95311788551583   14.33399682225636   12.00516962215925
W   11.92922618113596   14.05444624880313   9.50162178931444
W   9.39760253047518   13.87588695304470   12.96749125001750
W   9.41471949999346   14.13173896261115   10.33187205470755
W   10.71592378899156   12.08046650961482   11.10589148145158
W   12.37928453228314   11.59152617466610   8.80696476913696
W   12.03977276912422   9.38885164225979   10.22982164247691
W   9.21699586675927   10.96480851723410   13.06237069300756
W   7.82236985689140   12.51659798155764   11.69733233594097
W   10.02162010320919   10.32578658577954   9.10813932166083
B   14.70976328135449   11.70112719718288   9.30437158293153
B   13.99437442472470   13.22057889960726   9.39559408645879
B   14.05982188830356   10.16705106932393   9.65064308994038
B   15.40789316967172   10.76610832704384   10.53452070023907
B   13.84481028383646   14.18632997352566   10.79557768900984
B   8.73050085699056   10.73855348735331   10.85409849953766
B   8.79346756249826   12.09316953815789   9.69691057193822
B   10.05804496076576   9.75148709184879   11.34691313593176
B   10.27390230519531   12.57929954273498   8.86315971366266
N   8.27031564611437   9.39568783323603   14.41113441163111
H   8.54970252351900   9.52005710374809   15.38932025223503
H   7.24641014033796   9.42783648122938   14.36738371715872
H   8.57646951894407   8.46343420039254   14.12098717979926
31
F:    ...  E:  0.0417556900000022
W   14.13466632784108   9.29116324590274   11.74080163416876
W   13.33894484895518   11.82361425302252   11.30268289145257
W   15.74181560835577   11.05450965595394   12.73636117356997
W   15.73017637803491   12.92179565581605   11.04446583210274
W   11.85627151751050   9.93906864173923   12.75438102943057
W   13.70760968482777   11.19901194479167   14.07969179642368
W   11.33023249062513   12.39616727905329   13.63701063706735
W   14.15350035206777   13.54553823045792   13.05047569649047
W   11.94226687988140   14.33911371881355   12.07042959909478
W   11.93943644971423   14.09163350238991   9.56288463040987
W   9.36264492305119   13.89498872382552   12.95944223636424
W   9.41084378555056   14.18013366889650   10.33471854735166
W   10.69314501782483   12.11291015765332   11.11745882100843
W   12.38224118775442   11.63586000744040   8.83146799429377
W   12.02048882525359   9.41400597491775   10.21263332185636
W   9.16372125023550   10.99017861412074   13.03661759131883
W   7.79300271983318   12.55730819891976   11.67094376011885
W   10.01758811504805   10.37795000455159   9.09035840513902
B   14.70897670426723   11.72707475692780   9.35299201011522
B   14.00254251350760   13.24758838405210   9.46570305547437
B   14.04961338674349   10.18936456934039   9.66089467256611
B   15.38758897888389   10.76541965478640   10.57057589021562
B   13.84153124705804   14.18784902566297   10.88016774813469
B   8.71101602817297   10.78275043784059   10.82437491883038
B   8.79019721822313   12.14705963458329   9.67888294994819
B   10.03563320388608   9.78678463125928   11.32195050182020
B   10.28540817767453   12.63121320290373   8.87106254642675
N   8.35920699046297   9.32276172922668   14.29626078219829
H   8.73418063230798   9.32249890131979   15.26571372132636
H   7.31580905410558   9.31495893086812   14.39370515492469
H   8.70536904527804   8.45539420589841   13.83055999329280
31
F:    ...  E:  0.211341729999958
W   14.10538863410565   9.26670868542175   11.72343035604250
W   13.31964583129754   11.80817628709484   11.32963999902683
W   15.71310318851890   11.00487527662579   12.77199886556257
W   15.71562821539735   12.90951688458361   11.12898426675641
W   11.82238278861849   9.90206521386390   12.72524141326610
W   13.66162515901265   11.12932969633728   14.09828605572501
W   11.32062655100775   12.35621318384509   13.64147266616940
W   14.13628401490668   13.49787363937727   13.12326063410410
W   11.92872961476562   14.32581718695884   12.15349883572410
W   11.93294650821494   14.11947170451977   9.63566749347216
W   9.32444415623698   13.88057267082222   12.95859837213426
W   9.38985113099872   14.20298365345751   10.35667691621923
W   10.67654960621125   12.12460474718042   11.11740505324408
W   12.38736791156205   11.67663239076240   8.84774980888070
W   12.01066264606519   9.42391646776536   10.17852826586290
W   9.12296704534780   11.02158634351915   13.01552920653899
W   7.75718405611507   12.57060190018368   11.64028378407477
W   10.01792899306398   10.41831382323334   9.05902956873392
B   14.70633007707827   11.75312571952600   9.39763109109938
B   13.99534594617789   13.26879267737167   9.53912554983080
B   14.04556187905359   10.20731536324360   9.66295457992834
B   15.36878171817414   10.76470535253258   10.59999666859390
B   13.82634537882695   14.18438343788383   10.96633768383993
B   8.69625743061329   10.80084952365420   10.78724265577618
B   8.78422058727777   12.17855197435764   9.66525368088515
B   10.01798756509097   9.79806108198100   11.28173732273997
B   10.28672551633758   12.67408783483976   8.87209614103094
N   8.40884301801462   9.30882562297050   14.26128464020739
H   8.84440906501598   9.15278383799327   15.18106078550658
H   7.41052693335968   9.22330236224321   14.36639548915606
H   8.91101837647012   8.69162499878624   13.55927169280251
31
F:    ...  E:  0.635247699999979
W   14.09640907693999   9.25193013165084   11.73809966174179
W   13.32145602109766   11.77470984277091   11.31496834703320
W   15.71052543023474   11.01253043807020   12.78914146161996
W   15.69151500916861   12.91101899114721   11.12000176831236
W   11.79610260453277   9.85166992164459   12.70517920539987
W   13.66854876579702   11.11678260487865   14.07579872100848
W   11.39512037685180   12.36056164572541   13.59917123311929
W   14.15787184655657   13.53349099387050   13.07601963695582
W   11.92688783198157   14.31814559288201   12.14071757637344
W   11.90145330216378   14.08297151407765   9.61212247013922
W   9.32915925889675   13.84601205074017   12.94253713520706
W   9.35420207220675   14.13939232296728   10.36365693035866
W   10.67776495307686   12.08264883865970   11.08145273282271
W   12.39041019468728   11.63212350740469   8.82761442208385
W   12.00038084309625   9.38105779416431   10.16409481159733
W   9.15009486170915   11.03824140666944   12.99631802034620
W   7.74779917444097   12.54087655936651   11.61354360242560
W   10.00884192877034   10.37973755649340   9.04336632689110
B   14.70030716193145   11.71854032503531   9.38204410660534
B   13.95207696262828   13.22313337511789   9.51491919032888
B   14.05543088603367   10.16531770227774   9.65996527069102
B   15.36215122018809   10.75083036820354   10.60606689187941
B   13.80605975015878   14.17053920075061   10.92251166803639
B   8.68317576009295   10.75013573084890   10.78603183926485
B   8.76437182298887   12.11209050686530   9.64785222701699
B   9.99893233909225   9.76256016848234   11.26777049852305
B   10.26313904652273   12.62722041525359   8.83801097407913
N   8.42473316609944   9.56502226833885   14.43267271752962
H   8.69776108620201   9.19028813142906   15.36380617999175
H   7.47416994086298   9.25164080503908   14.23202172884065
H   9.13881684792390   9.10444883211116   13.78819218671222
31
F:    ...  E:  0.45542746000001
W   14.09445881358233   9.24115363548540   11.71855858464962
W   13.30099873654910   11.78466878713544   11.35867917963135
W   15.70999451145506   11.00406473947316   12.79867564038801
W   15.69346864274330   12.89047405600748   11.12873118155153
W   11.77227637422219   9.87492063518216   12.71314006323796
W   13.66411774521994   11.07942453937000   14.08981935997784
W   11.33712831596433   12.35338561767828   13.63074428200780
W   14.12508690486186   13.46563692751494   13.12015570449539
W   11.91838969069912   14.32565194881963   12.18772606050569
W   11.89938681807699   14.08998385601626   9.65779022436977
W   9.31697125163524   13.85250391296446   12.92503630685662
W   9.35528127303084   14.15579562318459   10.36090761127466
W   10.66203442220615   12.09936036743497   11.08833863015082
W   12.37588184016252   11.64622381554317   8.85762309981664
W   12.00270490893027   9.37444542180743   10.16039001946812
W   9.08688879307969   10.87587798860045   13.06905871629114
W   7.73131471945317   12.51371029305227   11.63917283531879
W   10.01750230975001   10.39175375770284   9.05202551387905
B   14.69130330160945   11.74235523179925   9.40680655072115
B   13.95229592732243   13.24824007651608   9.53591600098818
B   14.03964803492740   10.19419863674379   9.67121873562704
B   15.36414792014096   10.75309165435817   10.61629631372740
B   13.79768411704932   14.17607600423974   10.96008253339210
B   8.67283709936939   10.75703984611053   10.79493218372244
B   8.75289695340115   12.12244404342525   9.66496362395157
B   10.01403477875363   9.79126583028982   11.23636415687154
B   10.25253443565482   12.64905995097734   8.84923739633006
N   8.25451502526677   9.74496003325995   14.53464119267880
H   8.77616311381115   9.09400738720327   15.15033559848876
H   7.39223217029159   9.27660995597247   14.30603074817223
H   9.62149059371601   9.07728496906794   13.36227149439369
31
F:    ...  E:  -0.257242950000034
W   14.09916764307828   9.28518394131845   11.75199278434005
W   13.32471944490281   11.74857861901476   11.32119401691022
W   15.75524915359818   11.05919138816984   12.77177517331948
W   15.67942472514604   12.92720314801331   11.08216287454126
W   11.60565978864304   9.79459107092401   12.79366122612302
W   13.69447191828361   11.14956865526992   14.02343394705804
W   11.42941379866001   12.31860463593525   13.56262924329146
W   14.16291087172135   13.57225843763412   13.02511996800199
W   11.94168078643251   14.38996525671379   12.10264194282233
W   11.86347399302528   14.05754142113674   9.62679919164276
W   9.38962445400735   13.80984526371093   12.90258547985398
W   9.36102979792162   14.12703482465622   10.30810449379076
W   10.69747079715133   12.05453863586480   11.08239543812170
W   12.36076858848861   11.55950707707400   8.84365897575277
W   12.00627659477720   9.37277388060349   10.23681989795638
W   9.09608075255209   10.81765309501116   13.11545552966055
W   7.78048263453283   12.51697579687011   11.68231685989116
W   10.01009605005987   10.34216955463687   9.07147070553429
B   14.70077788377588   11.70462526041550   9.37020646619913
B   13.92151992393918   13.19132842018773   9.47653602497538
B   14.07266165849870   10.15671866861884   9.65387133796866
B   15.36640460187597   10.75009673721226   10.59814881251225
B   13.78960940165141   14.17834130631317   10.86984243120908
B   8.68714773628758   10.73122602688482   10.84606540370483
B   8.76501815541510   12.07933247862883   9.68991656271769
B   9.99933467675302   9.74178182032372   11.25929048622280
B   10.23369331047366   12.59613082098438   8.84298485444674
N   8.10819268324838   9.84835824404271   14.58261475212335
H   8.58896776946262   9.31998729266707   15.32750692015484
H   7.25863185970712   9.35947462977646   14.32624769374247
H   9.89570808886550   9.08508313432277   13.49822004834811
31
F:    ...  E:  -0.808013870000025
W   14.10841202992732   9.28234406075650   11.74457695939930
W   13.33239603115218   11.75682997384551   11.33267282596757
W   15.76020533963194   11.03441397281380   12.77591990704471
W   15.65521157175377   12.93880900074545   11.12113682942165
W   11.59423626280043   9.81611980693292   12.71283405453794
W   13.68532268146845   11.13828202125502   13.98303689177001
W   11.50218010371640   12.28516756779197   13.54577632279543
W   14.18868393424018   13.61436129220287   13.04000440403356
W   11.95249141514816   14.41539434155092   12.11679592172914
W   11.85059537497369   14.07450160679934   9.67097486429618
W   9.42667194471006   13.70142649079283   12.94491805272657
W   9.34767559175568   14.13208749156093   10.32529810231434
W   10.67823899228010   12.02589166845913   11.07181288854633
W   12.34826730802387   11.56311677418867   8.85775851321438
W   11.98557553684596   9.35874268275641   10.20614500489455
W   9.03303603543749   10.74342447105726   13.02323759444041
W   7.79436804007828   12.50677577703702   11.69372262675483
W   10.00463591884375   10.38672108479308   8.99198447388534
B   14.69733857652292   11.70456558273216   9.39303230216423
B   13.90219643982508   13.18645359043211   9.50094327848474
B   14.06502877469368   10.15542057537083   9.66471605416845
B   15.36339036452263   10.73879386228901   10.61475895993348
B   13.78493839733970   14.20154575596686   10.88240825459811
B   8.64257270495590   10.71497186855477   10.76245057465969
B   8.74418320003998   12.10281639316108   9.66889841700638
B   9.93999808991611   9.71287320439998   11.15333129569830
B   10.21370678976735   12.63048165832991   8.85617841323700
N   8.07194443845290   9.84459579899389   14.52445302404391
H   8.54169027739570   9.27883266792456   15.23748313577638
H   7.06927913213642   9.70175163351824   14.57029078458937
H   10.36119824458020   8.89815686592302   13.65811881080295
31
F:    ...  E:  -0.695924900000023
W   14.11916217162683   9.23479654391537   11.71003269595506
W   13.29918220790278   11.79538445069620   11.35361535712325
W   15.72413518418833   10.98681907738891   12.79941764210112
W   15.67527255406942   12.89567597484903   11.16602481183997
W   11.76402265195637   9.85093562640166   12.63187298711086
W   13.67402662336154   11.09394500533252   14.07153225746970
W   11.37686930717592   12.31261024847197   13.61784692394783
W   14.13979098667374   13.49155745424491   13.13875996604970
W   11.93582438825120   14.36333761746565   12.23481043767959
W   11.85121605468062   14.08296629964110   9.71979330733699
W   9.35043999608416   13.77146747123799   12.94674887326418
W   9.30963082472796   14.15101932515418   10.38702935511321
W   10.64601377828820   12.10038042214045   11.10251505104677
W   12.35831641312347   11.63231449550845   8.87572263245081
W   12.00130157862834   9.36593690439478   10.08654389458621
W   9.06721144225263   10.76396518712596   13.00212874417086
W   7.73361505331294   12.42567882490146   11.70967926364002
W   9.98895064861461   10.40040169991396   8.99252330355010
B   14.69254286998646   11.74094214150303   9.42441046997035
B   13.92050193178281   13.22982291821217   9.55991621176473
B   14.05436839912838   10.18224577212112   9.67530585806302
B   15.36096821692665   10.74527302435488   10.62943696212993
B   13.77907196479397   14.18054433704364   10.97351204113532
B   8.64613919178126   10.71563488450441   10.74081373110105
B   8.72806482812294   12.12387797775438   9.68801868884500
B   10.02997384912975   9.79561568086370   11.11470448437008
B   10.22208624324914   12.64999982266512   8.87574951680928
N   8.14331497361737   9.77182715770318   14.46225899300608
H   8.64055552237788   9.12166179598366   15.06631396948331
H   7.14821903725045   9.75125067253343   14.67264936773021
H   10.26488064987071   8.91778072890913   13.21598174409097
31
F:    ...  E:  -0.535033510000005
W   14.12786510388401   9.23258832650689   11.71930856775597
W   13.27508944199580   11.80077675094677   11.40366539266207
W   15.74116777595799   11.00604095281154   12.78397232825995
W   15.69680451640721   12.87463458896327   11.11581891770715
W   11.84197709853329   9.87814287623065   12.66855850598271
W   13.68725308979014   11.09717126925515   14.10252327907436
W   11.36178901364579   12.31340830009671   13.65329484872667
W   14.18190302651213   13.45796908068860   13.14158727147469
W   11.96709482773567   14.35832611243729   12.30901204541370
W   11.84938096704833   14.05852891861878   9.76809797594535
W   9.32763225999022   13.78989035316126   12.87713696919265
W   9.28180924777872   14.15726403356515   10.35450089170558
W   10.64210623377089   12.09264148806957   11.11661618775202
W   12.35661147379034   11.64775152606723   8.88018431428589
W   12.00597779622362   9.37375594947993   10.11489772722609
W   9.03633455234428   10.83630367839441   13.05326723719440
W   7.70436044085086   12.39682072356100   11.70115593078771
W   9.99407553926120   10.36164620193609   9.04627791003450
B   14.66028149046750   11.75038644533305   9.42988630738050
B   13.93146594049695   13.25033626014170   9.57228168916015
B   14.02611300671209   10.19169386799120   9.68597618978429
B   15.34445588000371   10.74677150108170   10.62717885932975
B   13.79256210145565   14.18201277113213   10.99027712609362
B   8.67818030765600   10.69095264278069   10.78808213940526
B   8.73999466654282   12.10001384903161   9.70751752182988
B   10.05632340138345   9.76545958256258   11.24271014994435
B   10.22513748584183   12.60516930285827   8.87595301510519
N   8.17395758742027   9.77626246285549   14.49302784562249
H   8.66287959528289   9.08996258726070   15.06350535482268
H   7.16960630062269   9.71091276746851   14.67376882675070
H   10.10547937353214   9.05207437164880   12.68562821652264
31
F:    ...  E:  -0.595952750000038
W   14.11996705455919   9.23356912378710   11.67720161275911
W   13.26824609385623   11.80244606400243   11.43049820215781
W   15.71190695209123   10.97911059844659   12.80749638785846
W   15.70067912153225   12.89614022593981   11.20158140830245
W   11.83307396014105   9.82053088068805   12.62877518881253
W   13.62863947840329   11.00656847761277   14.11124450671297
W   11.32100033482167   12.24119685750165   13.66402563361977
W   14.14657215444774   13.39998107206798   13.22909251579686
W   11.94986148250111   14.33266598338870   12.40265508476063
W   11.86079704449436   14.10160031818472   9.86401545881109
W   9.30209147434620   13.75569327005424   12.90233492681621
W   9.29762292139307   14.18479720287387   10.40157894685726
W   10.63763582582234   12.08161482069316   11.11507910615339
W   12.37934677891536   11.73401447546082   8.89188699853099
W   12.01695159613761   9.43432895343667   10.07253838782581
W   9.00399040502747   10.82916532023740   13.01633670358537
W   7.68559279470421   12.39457022069171   11.67848904331007
W   10.01051210615407   10.42421992058575   9.00973611706019
B   14.67654564348786   11.82903589697633   9.46729460797618
B   13.94997876874206   13.32247596382228   9.65440523295011
B   14.04170391243837   10.26064042447012   9.66826528184816
B   15.34797953001842   10.78669361080685   10.63677236484073
B   13.79066343545184   14.19895400269373   11.10115663259230
B   8.68497912612753   10.71280586012647   10.74188762220885
B   8.75381571186517   12.14943722917512   9.69479177723548
B   10.02061443486633   9.72863026835913   11.21210742574500
B   10.24733055068561   12.66789655216884   8.88921399013478
N   8.21257257654992   9.70495996039580   14.43770349353218
H   8.74087359541920   9.00987021303976   14.96451958451197
H   7.23130891463525   9.68376527625800   14.71929566691910
H   10.07281576330021   8.93829049899004   12.35368963271090
