31
F:    ...  E:  0
W   15.47387136776188   10.78096250604431   13.55886301658034
W   14.37255038579255   13.06850063244220   13.14754428738889
W   17.17029850499477   12.55934813486871   14.27759803287121
W   16.62848019180318   14.45860939314364   12.65562047093275
W   12.87954523873529   11.02112625976960   14.81277704172408
W   15.26808468094038   12.48806935719489   15.79085617660532
W   12.91609315947768   13.34468035018677   15.63474625094531
W   15.39343317766806   14.86614602641438   14.78034556711138
W   12.87220970666863   15.41587665954411   14.09455319895309
W   12.64945135110553   15.33593633383819   11.65117845420946
W   10.45664104241086   14.53122422832469   15.27970304631811
W   10.23247744164962   15.14262153334374   12.61547191548580
W   11.70255696570781   13.09829188005022   13.22178805569899
W   13.20340734610208   12.83854786679975   10.81776701089706
W   13.14109267404567   10.62795865476887   12.25719028091416
W   10.40229724530611   11.82058919920022   15.09433878666522
W   8.81908470775310   13.47869453101683   13.91385802306758
W   10.99680340977241   11.46129079092311   11.13341076928362
B   15.54942584297093   13.13427083616049   11.07964124749133
B   14.71618890204073   14.58115694999925   11.29276118272494
B   15.07247900917722   11.54615512688000   11.46812509760889
B   16.45117302595841   12.23915989543267   12.20713384045014
B   14.65218205761202   15.55605575900099   12.71387352672642
B   9.74385161004611   11.68019508720944   12.96330396191081
B   9.68914690946469   13.11328662735718   11.88082278611818
B   11.14050690367245   10.73459679025395   13.29207636551932
B   11.07128327357404   13.74126472204437   11.02926773801032
N   19.14230486040681   12.07796355416101   15.24179168091291
H   19.94238960643558   12.19918066730046   14.61286539982217
H   19.28662967082666   12.68079799044703   16.05815736976854
H   19.14064346505343   11.10706451655906   15.57072553916803
31
F:    ...  E:  0.0379026199999544
W   15.43725387056522   10.77734876537295   13.56806932547600
W   14.35440499298122   13.07049871296297   13.14412660282460
W   17.08967399780333   12.56209336169262   14.32084431192981
W   16.61137528325942   14.45750195436187   12.69524572006333
W   12.89773884847579   11.01025866480239   14.78572874487991
W   15.19085173349253   12.50234237289982   15.84654352918772
W   12.86007010430047   13.34339223261988   15.63667865275980
W   15.33499962896081   14.87538058161754   14.80642934571000
W   12.84850182401946   15.41857535160925   14.09159374938935
W   12.64014354511159   15.33721642132069   11.64122979179695
W   10.44054661346954   14.57511516956185   15.26264973997634
W   10.23174524911404   15.14193037262906   12.59131584575809
W   11.69396723802350   13.09838267264454   13.21133211905721
W   13.21000533591644   12.84537833715646   10.80591598944452
W   13.13726728584385   10.62921672927476   12.21968673373672
W   10.40710037043395   11.81492816698228   15.08113195670883
W   8.83285217908765   13.46310786876778   13.91749843457175
W   10.99882908395971   11.45469303353689   11.11631715366526
B   15.55824664721317   13.14385367061970   11.09275581973880
B   14.71715659314959   14.58736430250467   11.30309129489886
B   15.07829575241068   11.54977630562398   11.46505605096536
B   16.43925782490809   12.24187606893970   12.22919913905438
B   14.63603573933220   15.56062825790919   12.72292079689137
B   9.75153362811279   11.67181941004857   12.94833564827004
B   9.68970194466852   13.10407958185916   11.86722619112039
B   11.15309835594889   10.73081465229768   13.28106452838915
B   11.07252686267801   13.73164045051928   11.01479707730190
N   19.10075962560182   12.03994617793848   15.11191171344140
H   19.71623194055797   12.02580025301874   14.28971455062495
H   19.46317596245355   12.72124193211193   15.77715629624155
H   19.11875546505792   11.11587975732493   15.54913706710799
31
F:    ...  E:  0.194291509999971
W   15.41778977410215   10.77871152658088   13.57615754407706
W   14.34669327330373   13.07552055322415   13.13717611000952
W   17.01794436452616   12.58780818550441   14.36076664944345
W   16.60236312038482   14.46245800153294   12.71844565569312
W   12.93072740017834   10.99387274073596   14.75401987278339
W   15.12883963450729   12.51399870184100   15.89390679600099
W   12.81464580978400   13.33480240466760   15.63784908862670
W   15.29570827279011   14.88150113707181   14.82788462037020
W   12.83520624215366   15.41861406200237   14.08669982752039
W   12.62980701869092   15.33826577606903   11.63160273966630
W   10.43817063053558   14.62538064341195   15.23463206204094
W   10.23171085676087   15.14253841726084   12.56750688519056
W   11.69506662382391   13.09453146404354   13.20153697810022
W   13.21830057997581   12.85210897889155   10.79307114454831
W   13.14020217714596   10.63169615178287   12.18458188146118
W   10.42697463358654   11.80967856287434   15.07496131619575
W   8.85135405080682   13.44397797425516   13.93002134989907
W   11.00312283363418   11.44722175963889   11.10351378408088
B   15.56673234895472   13.15509706004746   11.09851483742298
B   14.71769761245705   14.59372295010880   11.30806011944436
B   15.08875663148196   11.55339628040127   11.46105903330707
B   16.43477458076875   12.25037936979374   12.24600559442690
B   14.62286905476081   15.56048332982959   12.72989655893129
B   9.76711531530415   11.66572965872573   12.94071180379613
B   9.69482343003303   13.09439132379462   11.86158786964521
B   11.16895816032255   10.72328464518593   13.27226558457512
B   11.07547516482421   13.72274958243784   11.00322154826171
N   19.05045989446850   12.00809959689658   15.00128553863200
H   19.33516571024158   11.88379587215688   14.03814155698487
H   19.61193118755705   12.70589332651754   15.46238906884284
H   19.09731553417009   11.12732316988725   15.51850507080972
31
F:    ...  E:  1.33188128999996
W   15.44231532685085   10.76877806514843   13.55099601646119
W   14.38042935260239   13.06910462779705   13.14927271424478
W   17.14005227482184   12.53587520771232   14.30150220526953
W   16.62789941538583   14.46757883727502   12.69343907288182
W   12.93787953935657   10.99186720516893   14.75197933675548
W   15.15237247644307   12.48397680634683   15.87116534043064
W   12.90076850667993   13.31528309506104   15.65543474275258
W   15.35177867178926   14.85644182982241   14.80736587846491
W   12.86463365605787   15.40301903431816   14.08963869442898
W   12.63524460197641   15.34191058346095   11.63873635290901
W   10.46429013907241   14.60601475573999   15.20850180024574
W   10.23288502370897   15.14082625755141   12.57170788229843
W   11.72008793159256   13.08574520191795   13.19964235483881
W   13.22008278613404   12.84882520545654   10.79945088567182
W   13.14498292782025   10.61473289473302   12.19943953901118
W   10.43640567871318   11.82431212263804   15.06610632562410
W   8.84391984019777   13.44740629753623   13.92179631253329
W   11.00903467776392   11.44968001062885   11.10922638715412
B   15.56428834747348   13.15521842699529   11.08375256420063
B   14.71550629179168   14.59018851025543   11.30405718791578
B   15.07974565698285   11.55506599989215   11.45747066065617
B   16.43196255842723   12.25354429645654   12.22296307240501
B   14.64808836955060   15.54708423183386   12.73092587338733
B   9.76999832158703   11.66670004061649   12.94178447993145
B   9.70440248116941   13.09507292372794   11.86368902515490
B   11.16591287096209   10.71757916435989   13.26987823298073
B   11.08595765611934   13.73356577210064   11.01079127000489
N   18.91096901573766   12.04273549199174   15.24605127065825
H   18.85197125851803   12.08076290860180   13.79810175535879
H   19.67513540834641   12.67893339306335   15.47912513485880
H   19.10584733369889   11.09771148116961   15.59409381984302
31
F:    ...  E:  0.613222029999974
W   15.47012163438279   10.77056064877484   13.56460029521191
W   14.42962423072883   13.07296504068406   13.19449772891694
W   17.32107709759679   12.46731926596025   14.25769896298998
W   16.63649547663877   14.48215931356229   12.67763015134472
W   12.94269492070106   10.97253375348486   14.74688621064239
W   15.16134690257897   12.47476122538267   15.84265711342183
W   12.93387881889373   13.30160019942454   15.68096606611762
W   15.35862817345868   14.88709113377562   14.80259874994805
W   12.87895372169702   15.38600599434254   14.09747847163400
W   12.63435066817441   15.34056371029091   11.63051959032987
W   10.48564690806642   14.58792241794996   15.21129478966359
W   10.23904487796376   15.13892340074026   12.58150576056670
W   11.75603202969180   13.07469848640576   13.19957806052120
W   13.22746460294218   12.85622040403259   10.81141158557025
W   13.14263394237033   10.61652167731295   12.22144587070188
W   10.42905696647420   11.82820650616240   15.06298330290965
W   8.84052742113630   13.44783470939012   13.91766757318271
W   11.01179697562107   11.45160220032296   11.11333808990152
B   15.56053285879198   13.15698563677403   11.08965015333051
B   14.71382123735906   14.58676493952833   11.29992590846068
B   15.07191566606417   11.55657908530437   11.47890220290808
B   16.44237852842697   12.25707316758347   12.21813579885580
B   14.66113362653806   15.54957362177588   12.71828007784489
B   9.76800479812134   11.67262902379561   12.94228661113254
B   9.71257833240888   13.09825825302653   11.87055873100107
B   11.15373122349464   10.71797732792218   13.27866338608704
B   11.09180064035146   13.73840091021314   11.01969345148763
N   18.77109105745001   12.07050860281382   15.58838509902378
H   18.77892671436684   12.16755553248014   13.33936058259541
H   19.61512616118948   12.67185206000775   15.63630911774804
H   19.10367814969236   11.09938198252996   15.70283182350705
31
F:    ...  E:  0.448662729999967
W   15.43866648571214   10.73185797414931   13.52010079024489
W   14.41821589951198   13.06824449412090   13.18610076284386
W   17.28322960413501   12.43108001587971   14.25047891702410
W   16.62402823157507   14.46516262336374   12.71164435448618
W   12.98249851092594   10.97661840449137   14.72583629714905
W   15.12803241272731   12.48466702590298   15.86071410949630
W   12.90800085504446   13.30392221370483   15.68296926502997
W   15.32055419436604   14.89997821294154   14.82500851315744
W   12.86858960780490   15.38482191388343   14.09597033554649
W   12.63204238348168   15.34284392009533   11.61984958469510
W   10.46553903216143   14.62531108705880   15.18649098783894
W   10.23776268228146   15.13752509780540   12.56317892194485
W   11.76012760902517   13.08013722660800   13.19044952331249
W   13.22969972181991   12.86463173192677   10.79402404653855
W   13.14851219841158   10.60745828137023   12.18106439342813
W   10.45823016482809   11.83076731900829   15.06197810659055
W   8.84931125946753   13.42825488369981   13.92493839910475
W   11.01942809847890   11.44073825337519   11.10710534921551
B   15.56228760053035   13.15935272330313   11.08447539017516
B   14.71475951768548   14.59015483581826   11.30309422259779
B   15.06789672225620   11.56191593341406   11.44888457833704
B   16.41382679319485   12.24505935437009   12.21286330961782
B   14.65717883784855   15.53932676957346   12.72498653339245
B   9.79650604188858   11.66968465803644   12.94778625699694
B   9.72678176356757   13.08902340374457   11.87129871054700
B   11.18427647354735   10.71458413882586   13.28055524805096
B   11.09651856189184   13.73457481833989   11.00931083573978
N   18.79610396958086   12.08059014713197   15.48071708447201
H   18.42695670420431   12.15936775107003   12.95972647593349
H   19.70439060595772   12.58172473258825   15.40516856615957
H   18.99477009603823   11.15374942832127   15.88447014508042
31
F:    ...  E:  0.384879909999995
W   15.39905115663326   10.69849533856430   13.52876360043749
W   14.40102823918802   13.04906756046356   13.15594252075474
W   17.16487238607785   12.49784928624067   14.37130845429140
W   16.63735268271006   14.45665905943702   12.75339822995958
W   13.05066009372313   11.01199403873425   14.70147521664784
W   15.10654769027191   12.48041290310091   15.92641983153258
W   12.88816598084537   13.35212964943672   15.67017102262424
W   15.30962785529509   14.82902436759270   14.83559740947454
W   12.84404690085996   15.39768434797118   14.07495334659762
W   12.65391492631989   15.33673351006440   11.60349856264231
W   10.45019960504989   14.65772392435632   15.17902717453387
W   10.24681270296231   15.13284781992561   12.55254589731468
W   11.75219614602733   13.08698631794320   13.18262863116367
W   13.26253447834512   12.85443252223424   10.78092402484858
W   13.17488968652378   10.58711200926968   12.11492345547851
W   10.51617525886468   11.83646113037144   15.07248355889118
W   8.86990990516067   13.40820181828204   13.94885125199235
W   11.04056892897002   11.43238302647359   11.10629544649997
B   15.60657680565915   13.15330100808745   11.10494517712504
B   14.74344949618251   14.58214200725423   11.33022383689130
B   15.12094286907970   11.54752643911987   11.43509075965999
B   16.46441583888805   12.23463948578069   12.25511367994015
B   14.65333069463720   15.51049673476639   12.76496242430027
B   9.82903596847087   11.66760864178397   12.95101635859229
B   9.74358830274591   13.09290635925722   11.87261626653915
B   11.23660185780244   10.72353119520494   13.27997942527601
B   11.12891222448551   13.71354131353057   10.99319089880735
N   18.81531546343910   12.07315973401505   15.38214438230548
H   17.95958030351648   12.20934006952223   12.73252259114256
H   19.73695273498653   12.50738606455436   15.23387762680812
H   18.93896070651282   11.21508209839503   15.93301055674891
31
F:    ...  E:  0.083287539999958
W   15.41890381661889   10.72796441304940   13.61630115634945
W   14.41161116786601   13.06713407547973   13.15747112942548
W   17.06078705118804   12.59657258670822   14.53248460742817
W   16.65073206225006   14.47993565678335   12.82789435709151
W   13.13178474029236   10.99970693032100   14.70024635424214
W   15.06210866458914   12.47092600258437   15.96413773799811
W   12.65209848206979   13.38363329592939   15.67041810561395
W   15.20967837005205   14.82097644851500   14.89806870874995
W   12.81300138784488   15.42301761785014   14.05387998368275
W   12.67000740980168   15.30857160243882   11.57713829352392
W   10.46428780710834   14.72062964293777   15.22683010741017
W   10.28381237764110   15.14687217327801   12.50977645229149
W   11.77535441863744   13.09033288332586   13.20809576277376
W   13.31989247967004   12.84671687961078   10.79600755501466
W   13.19867195197163   10.62334199776815   12.10924584523150
W   10.51143809581817   11.79589416689300   15.09374403201587
W   8.92547020569680   13.39588979437399   13.98130951666272
W   11.06415273224033   11.42169138306042   11.10327869626976
B   15.66459782673378   13.14959832298956   11.16675880990137
B   14.80039728607683   14.58204582725522   11.34106739097006
B   15.20673540255750   11.54827186805406   11.49361276670481
B   16.64087581539092   12.22280287411688   12.26566840425840
B   14.64300267626109   15.50216751384919   12.77490492384165
B   9.84543555378509   11.67315862777270   12.95062414407291
B   9.75924532676129   13.08304191964112   11.88432395327378
B   11.25361659000091   10.73532966299669   13.28312395394483
B   11.14323009818926   13.69453436399349   11.00313606004911
N   18.79959985097441   12.03736754588323   15.30467774837669
H   17.88537420522803   12.05567350290540   12.38109076899748
H   19.68953590893896   12.53261926770494   15.22063240987263
H   18.91707372529975   11.23512034651751   15.93682109913492
31
F:    ...  E:  -0.267874150000011
W   15.44398209816697   10.70989192616470   13.56101067260025
W   14.37529867840977   13.10112595635036   13.19422382629445
W   17.01609496281812   12.60200748986780   14.50569689034618
W   16.63314004775253   14.45086341883322   12.83279966820569
W   13.17298717183331   11.02088285668222   14.68416050599077
W   15.00281832898150   12.45451036060963   15.95362792908538
W   12.53876250724682   13.41611987080882   15.69954681669643
W   15.11781932044842   14.82354340381271   14.95269487043015
W   12.77911195918641   15.43670626457609   14.04952088202519
W   12.67513442148192   15.30224476972081   11.57585254232194
W   10.45128227648875   14.78833697588681   15.21440764304827
W   10.24340558143427   15.13180819058580   12.49821783364476
W   11.75209312699299   13.10024998239530   13.20407857110615
W   13.32140416462384   12.85872788146828   10.79438755827503
W   13.22793278244883   10.62164521615598   12.10620992676619
W   10.53469289375787   11.80319877751131   15.11298145741967
W   8.93054551490490   13.38755955945625   13.94521075994056
W   11.07568495652268   11.41950869796969   11.10730669376241
B   15.65559535681038   13.17325427012436   11.19678541292271
B   14.79710071324241   14.59560942247845   11.34957900144745
B   15.18417013556619   11.57471576630149   11.50920094144301
B   16.71716382381955   12.19047316687520   12.20604119387770
B   14.63323584228127   15.50819359155628   12.79357840050744
B   9.84559516672886   11.65830840850316   12.95324468077358
B   9.74727640056424   13.05282542279887   11.87003474366265
B   11.26584693599726   10.74161001652764   13.29309676321147
B   11.13288100257997   13.69442716664369   11.00355617849459
N   18.76641473574666   12.02292077536402   15.22805008145746
H   17.86702817167631   11.85771904752180   11.97698268867002
H   19.67387601106642   12.43860646408414   15.01829939891143
H   18.87634857144177   11.31922348345734   15.96467246413635
31
F:    ...  E:  -0.372785950000036
W   15.44811660408705   10.69760804787924   13.48152445933239
W   14.34387007568493   13.13279211416466   13.20489046128512
W   17.03932837255458   12.55506158180716   14.46350384673697
W   16.60359577954874   14.40716551553790   12.81432627582007
W   13.18370584937452   11.03414585056525   14.66106128871040
W   14.98686623099272   12.44049904595347   15.91009294790465
W   12.51167160017025   13.42889254726327   15.70655061243097
W   15.05891298066839   14.84798027736701   14.97118219959624
W   12.74684802737687   15.44115760993560   14.04482354591828
W   12.64990847269681   15.31429797699571   11.57371966502252
W   10.43132143924744   14.80813617049190   15.20131720605265
W   10.20380357586678   15.12774102346281   12.49901809667168
W   11.71464415373434   13.09771091237088   13.19098321727864
W   13.28058550578699   12.88526119865636   10.78367170067064
W   13.21198901416162   10.62359683231967   12.08593294946344
W   10.54547029116818   11.80931782070204   15.11622001717126
W   8.91756778220166   13.38114291081441   13.92646278389929
W   11.05439355845542   11.41953393237527   11.09941622374151
B   15.60560965093537   13.19183991275331   11.17106415634660
B   14.76500085168743   14.62461162662564   11.34842188678632
B   15.11342864146897   11.60209545368844   11.47512046304026
B   16.70627503859683   12.14735326115531   12.03793128484748
B   14.62343165910769   15.52638439863591   12.79850370595872
B   9.82892235860601   11.64350314567918   12.95037836474566
B   9.72377213718049   13.03653478969373   11.85877871778972
B   11.25862790174306   10.74020303693194   13.29383782620873
B   11.10643411171787   13.70128120214133   10.99884893727448
N   18.79466922477564   11.99776924991450   15.19732966292199
H   17.74980381861501   11.70238247789827   11.59488534665813
H   19.71175109925991   12.30343780781280   14.86588815864834
H   18.91871190080422   11.41832012789511   16.03064181095467
