31
F:    ...  E:  0
W   14.17140325605942   9.31298765730393   11.75221027910466
W   13.36130264604049   11.82658685457706   11.26917965163755
W   15.77538941308345   11.09988132093352   12.69915917494742
W   15.73623525748654   12.93435582818445   10.96030971788924
W   11.88850533738176   9.94320418382820   12.76451366025279
W   13.76024084800584   11.24691581496775   14.05270301638972
W   11.37328160204709   12.41859623488243   13.62329839528907
W   14.17320160619605   13.58831450504697   12.97700605707785
W   11.95311788551583   14.33399682225636   12.00516962215925
W   11.92922618113596   14.05444624880313   9.50162178931444
W   9.39760253047518   13.87588695304470   12.96749125001750
W   9.41471949999346   14.13173896261115   10.33187205470755
W   10.71592378899156   12.08046650961482   11.10589148145158
W   12.37928453228314   11.59152617466610   8.80696476913696
W   12.03977276912422   9.38885164225979   10.22982164247691
W   9.21699586675927   10.96480851723410   13.06237069300756
W   7.82236985689140   12.51659798155764   11.69733233594097
W   10.02162010320919   10.32578658577954   9.10813932166083
B   14.70976328135449   11.70112719718288   9.30437158293153
B   13.99437442472470   13.22057889960726   9.39559408645879
B   14.05982188830356   10.16705106932393   9.65064308994038
B   15.40789316967172   10.76610832704384   10.53452070023907
B   13.84481028383646   14.18632997352566   10.79557768900984
B   8.73050085699056   10.73855348735331   10.85409849953766
B   8.79346756249826   12.09316953815789   9.69691057193822
B   10.05804496076576   9.75148709184879   11.34691313593176
B   10.27390230519531   12.57929954273498   8.86315971366266
N   8.27031564611437   9.39568783323603   14.41113441163111
H   8.54970252351900   9.52005710374809   15.38932025223503
H   7.24641014033796   9.42783648122938   14.36738371715872
H   8.57646951894407   8.46343420039254   14.12098717979926
31
F:    ...  E:  0.0150941599999896
W   14.16414560439689   9.30710989080189   11.77970811069691
W   13.36797020222407   11.82435114704635   11.29609543468040
W   15.77770417274553   11.08417985930405   12.72827035006785
W   15.74703514441132   12.92502495102572   10.99604039308105
W   11.88556918354390   9.95211852967786   12.79764087067352
W   13.76434792670678   11.24245523512187   14.08245681124327
W   11.39008114457156   12.43326771777002   13.64808980863492
W   14.19358096059801   13.58383556061761   13.00370857370007
W   11.97053425021065   14.34120650351609   12.03507278263630
W   11.94769821753473   14.05710992046343   9.52836399835788
W   9.41119651680498   13.89719063668037   12.99327576458875
W   9.43394091135316   14.14922089916724   10.34854210932642
W   10.72079844079052   12.09631592436142   11.13380666449817
W   12.38740971199575   11.58951362831551   8.83697786019754
W   12.03679150320131   9.39278873873361   10.26367839007080
W   9.20869100183132   11.01523409399183   13.08327045483779
W   7.82830573737964   12.55947075096057   11.70504871264533
W   10.02291549840113   10.33371062398540   9.13904740739903
B   14.71613411827473   11.69397154807446   9.33432627586600
B   14.00781962665520   13.21575591505841   9.42645575685788
B   14.06164495353601   10.16155951392909   9.67865866991429
B   15.40935301374454   10.75676579789148   10.56423204154286
B   13.85842338484022   14.18246001808573   10.82523282601160
B   8.72798039183569   10.76147668976702   10.87763368226180
B   8.80364229701449   12.11051064088888   9.71443936778524
B   10.05657854169950   9.77634079444265   11.37846561998265
B   10.28848823016467   12.58601236404206   8.88584229005328
N   8.22553960927365   9.36848110806756   14.27937042343058
H   8.63409726345302   9.21807138610764   15.20083283869317
H   7.21614463848471   9.49578080670257   14.38330886540069
H   8.38110734525878   8.53437834833714   13.69777638779971
31
F:    ...  E:  0.10151535
W   14.16392086558483   9.30115769508338   11.80370238198660
W   13.37726449862752   11.81953021512649   11.32395851149965
W   15.78540902115284   11.06984073575143   12.75693842401998
W   15.75734436350727   12.91855235763194   11.03277223895086
W   11.88506528725457   9.94502266335971   12.82289292138967
W   13.77414981469499   11.22811370193852   14.11025792468482
W   11.41631365393292   12.43106887570903   13.67622751642193
W   14.21499305259566   13.57569767572664   13.03693082356047
W   11.98860711969315   14.33841576195775   12.07734830404908
W   11.96185514737783   14.05969333922682   9.56689918192829
W   9.42660717459025   13.90082763274469   13.02774003799752
W   9.44827584909206   14.15834823091684   10.38293984853552
W   10.72975830194788   12.10126206401123   11.16136354555548
W   12.39788171228103   11.59213983427734   8.86575352096456
W   12.04035659607930   9.39313837770854   10.28767644393029
W   9.21372519369134   11.04584883835946   13.10949726987093
W   7.83709939545808   12.57865453363086   11.72551068086519
W   10.02881432229227   10.34208195142038   9.16308965366784
B   14.72403872326276   11.69174868862732   9.36447469103577
B   14.01900664417067   13.21469534238247   9.46136277094215
B   14.06766240832356   10.15885181728654   9.70374227331892
B   15.41410247051494   10.75031763422577   10.59161685468065
B   13.87128288535160   14.17880538435209   10.86174683969722
B   8.73321660933337   10.77099402198806   10.89887720303213
B   8.81465544650576   12.12260021623751   9.74025613146527
B   10.06222727678568   9.78546883170196   11.40177261748083
B   10.30011679540415   12.59443948582543   8.91333602811618
N   8.16567038409249   9.36129812661939   14.14877523421750
H   8.65157375504189   8.91664501290155   14.92754341338186
H   7.18445600331529   9.50676545130184   14.40872710154001
H   8.19021877098113   8.79364504490367   13.29193915414841
31
F:    ...  E:  1.48963086999998
W   14.17429878791765   9.30418386706873   11.81129111017028
W   13.38716131519288   11.81526211228977   11.35380019180119
W   15.80081438245169   11.05409025175785   12.77869509041737
W   15.75128815600997   12.92212005827230   11.04789101944833
W   11.85114664891965   9.90202016370535   12.79030300896940
W   13.79381684857498   11.20000797514541   14.10053853153934
W   11.41594397098034   12.35123928966280   13.67083689540756
W   14.21927519608353   13.57454025045868   13.06863110631362
W   11.98894367756178   14.29337415036628   12.13093885685282
W   11.94802828280848   14.06386712631898   9.61722351591047
W   9.42990269472483   13.83534048223120   13.01739127097543
W   9.43825127115785   14.14696281218416   10.41012318502287
W   10.73102919999088   12.05393422996425   11.15243533887509
W   12.41232912238174   11.61163797664784   8.86986700910566
W   12.04360879454562   9.38959865544656   10.25652351560442
W   9.17398716737736   10.87453467101527   13.08962177940748
W   7.84948091345541   12.48619060350236   11.73668759621994
W   10.04869240071860   10.35805892201266   9.10855550101543
B   14.72702864292758   11.70479605939576   9.38082500627099
B   14.00826973139151   13.22125392733604   9.48830188583482
B   14.07392945038535   10.16860768639002   9.71201097718979
B   15.42373676007763   10.75537735925410   10.60275694741385
B   13.86921919322428   14.17781179515169   10.89416200410662
B   8.74564236201242   10.73651433339582   10.83868110356065
B   8.81648897116157   12.11242656208320   9.73480200319352
B   10.05592320898752   9.72489758507270   11.34329643188013
B   10.29820046115046   12.61684205040521   8.92163173675718
N   8.09850767080906   9.59895178153565   14.36345919995329
H   8.64753996927682   8.97701159385480   14.96682876452159
H   7.12731702806657   9.27943553369611   14.42127104136094
H   8.29586726261369   9.33477967731312   12.96628791783530
31
F:    ...  E:  0.52903742999996
W   14.16618816203357   9.30620714821428   11.79219488218270
W   13.39139482351838   11.79183137224258   11.34083916348830
W   15.81414570339549   11.03795905952370   12.73998534024376
W   15.72602743435804   12.94972212231276   11.06682292004290
W   11.74411167189595   9.92543293496285   12.79576490025449
W   13.80728497658267   11.25845209762281   14.06179219492508
W   11.42217034723677   12.27707544394166   13.63670853337349
W   14.25614817884739   13.65726124550081   13.06942578512784
W   11.97504645572104   14.32188789522869   12.07080212488385
W   11.92148675907093   14.10022888799291   9.60652235418747
W   9.51203091001809   13.90390878337864   12.96471049993013
W   9.43187939614360   14.16098645959927   10.36655048558771
W   10.70839632704696   12.04680389596145   11.17651034487741
W   12.37259332582900   11.60384947515527   8.88468690771406
W   12.02153206626590   9.39281970171764   10.25726589489438
W   9.02008101075907   10.54536040315748   13.06219943993612
W   7.91455111072872   12.49175772811884   11.76015651020018
W   10.05884245495246   10.34797090314317   9.06416335114463
B   14.70752781686083   11.70861965587638   9.37067366291688
B   13.97964665655514   13.22210224287334   9.46903587835193
B   14.06170116691861   10.17898469827536   9.69906069250239
B   15.40926463260358   10.74562838181061   10.57283618116714
B   13.85619650732090   14.18671237055227   10.86800995041126
B   8.75439130626641   10.73457526957902   10.81822020739710
B   8.81266439676618   12.09589564468206   9.73692633869679
B   10.04868916099054   9.70011749111402   11.26363664860202
B   10.28841058113008   12.63035072452439   8.92045138043212
N   8.07369910488037   9.85238506598538   14.75036331400491
H   8.64248237621338   9.22034700025712   15.33154882473291
H   7.24605783512614   9.26910834127279   14.54442189778053
H   8.50102688690053   8.98132709835753   12.58338293294511
31
F:    ...  E:  0.631324649999954
W   14.18290335019953   9.31899921799542   11.81487764837151
W   13.38806249855246   11.80149386743142   11.36780711555134
W   15.84450564788566   11.03287380094615   12.74961037349881
W   15.73194674115640   12.95001378786138   11.06832503218042
W   11.75164515281638   9.91495936485641   12.82107864806812
W   13.84308072658620   11.23958805819296   14.07488100836474
W   11.48463704907388   12.24676992142923   13.65209194550224
W   14.28346820550208   13.65731077312632   13.07837762182782
W   11.98555110721803   14.31295746920561   12.11354436805689
W   11.93106846680024   14.08742694717955   9.63505048938311
W   9.46376242475864   13.81186364565007   13.00207673639650
W   9.42106502437427   14.14894522843676   10.39763370853050
W   10.71948124300557   12.04925673430668   11.17319650484969
W   12.38742250345582   11.59560365178636   8.89207518977634
W   12.06032842831388   9.36244318517171   10.27070991634164
W   9.05548291894954   10.58751661546634   13.08746042037653
W   7.89314551766073   12.48668817327007   11.74772272324699
W   10.07890419306318   10.34260154080343   9.08790671075465
B   14.71638516740284   11.70840007317739   9.38909121685361
B   13.98803779844291   13.22469614785993   9.49282569311799
B   14.07936549356191   10.17829094973359   9.71173121709118
B   15.41092496630533   10.75768364435955   10.60271546554587
B   13.85419722969917   14.19290138438126   10.89472683694003
B   8.79834779845048   10.73275589531381   10.82783261229561
B   8.81814013220844   12.09106512146647   9.73693455663255
B   10.09505934894399   9.69878943087251   11.28838375081420
B   10.28875992820938   12.62150113613982   8.93299895892326
N   8.14799672942474   9.65407876972035   14.61002027636879
H   8.64603333263930   9.16758665453010   15.36078926766209
H   7.24441860282926   9.18702721333393   14.50723164716762
H   8.05154181544699   9.48358113893022   12.25596188244456
31
F:    ...  E:  0.293710489999967
W   14.26246670626148   9.31879335348955   11.78382020799502
W   13.39585574766701   11.78432767895242   11.34864384803635
W   15.84377383616068   11.05632953307154   12.72845180794664
W   15.71917985348731   12.96207794558601   11.05374518676176
W   11.86547162730541   9.92189498601892   12.86305900035415
W   13.84849595832033   11.21678729843274   14.09589050339671
W   11.37946049427170   12.23037971917363   13.68131451155912
W   14.23486849102151   13.59423465551912   13.09410589232295
W   11.94179030413217   14.31129867299918   12.09616046033954
W   11.88944477900992   14.03235479738516   9.61936046771246
W   9.47312621717317   13.86593588039575   13.01187709803188
W   9.37532624786490   14.08480387697233   10.42635225870322
W   10.72342998605046   12.01928358454663   11.20246808149304
W   12.36878365394791   11.55244265626999   8.89279254387750
W   12.11049567697252   9.35300603758676   10.28844935337511
W   9.17473720929389   10.71286379438206   13.21569167236870
W   7.86082711046887   12.48850358543207   11.79023961689683
W   10.07414277926821   10.27013516516875   9.17064111520805
B   14.72259441455197   11.71817937287421   9.37131947046528
B   13.95850148701181   13.21360300251804   9.48031289636510
B   14.10678979935324   10.17392973535148   9.68820547417180
B   15.44726466790106   10.76552244174587   10.56470291730298
B   13.81946723898946   14.16881896628904   10.89584275482606
B   8.76650068603758   10.63111189057702   10.94462654037086
B   8.77341332085350   12.00376000646929   9.80144889848350
B   10.18527477197328   9.69666053353263   11.38374787863536
B   10.24342299989049   12.54993755277077   8.97237269551886
N   8.19755351093156   9.61285964433240   14.55008898210017
H   8.62374215668192   9.13426483955053   15.34382468080836
H   7.25042073122723   9.24028005801365   14.44000955397003
H   8.00904707885698   9.96128827752719   11.84610317353771
31
F:    ...  E:  -0.110151730000041
W   14.24862830477790   9.28734218833904   11.78539369325200
W   13.41090832503238   11.79458222025752   11.35598568454330
W   15.83214536306704   11.01882717003172   12.73857556325269
W   15.71903967421682   12.95283788321524   11.08496122780464
W   11.92122702508734   9.94830008574861   12.87170382075188
W   13.83072778362318   11.21040923012511   14.09301291540253
W   11.41284949633950   12.35783024689711   13.74727566365083
W   14.19473688508906   13.65008274763311   13.07382245084169
W   11.96002109176754   14.33676358871996   12.07614618007372
W   11.91288597507740   14.00483834275577   9.60499964144672
W   9.50946963791296   13.89607449138956   13.08669500961675
W   9.32138207349662   14.01221282096799   10.51593879947487
W   10.75689777231451   12.05801349221636   11.23997617537687
W   12.35842250848454   11.54516014007770   8.91598338626922
W   12.10882852583122   9.33468656393600   10.31590106432651
W   9.28649333636305   10.82363194507442   13.25304404189204
W   7.87325793563257   12.45527040401330   11.84426107824033
W   10.06427941116794   10.25095969185927   9.21042935429883
B   14.72369345175766   11.70986718762177   9.37414459048827
B   13.97755723271478   13.21484547053682   9.46897840186152
B   14.10150640819929   10.16636465913540   9.70330212958739
B   15.44533078801418   10.76151841546178   10.57317540982839
B   13.84843924928470   14.17689050335651   10.87634077478193
B   8.67688543830562   10.52152812881590   10.98563985058262
B   8.76541938200638   11.93291752608081   9.87081274276988
B   10.19376764826525   9.76001556479863   11.42229108503676
B   10.21166446545999   12.53573582979063   9.01952763277431
N   8.27953330926039   9.63768176102250   14.48159041011781
H   8.66385924720753   9.09948084982658   15.25520242914880
H   7.29776942548048   9.36103556354889   14.34252749573915
H   7.73804237169907   9.82996482968126   11.45803083970305
31
F:    ...  E:  -0.38579229000004
W   14.22510657466381   9.27861556047341   11.81547467208496
W   13.42226693516820   11.80225053352779   11.38458037929122
W   15.83083473513358   10.99220537357536   12.77835321359080
W   15.73659902851626   12.93501343334588   11.13088445657087
W   11.89022998788680   9.96159651968000   12.87569134422919
W   13.82659045497738   11.20525772730361   14.11031351555137
W   11.44604900243445   12.37616063120998   13.77730083241917
W   14.21854722002620   13.65645704831526   13.10824093675833
W   11.99253933198488   14.34451556177117   12.12355896057415
W   11.94427235622067   14.02641205550392   9.64304605284786
W   9.54277350793462   13.88157538103468   13.15955915098438
W   9.36771112846584   14.03340814359332   10.56576751653559
W   10.77569290322800   12.07958059363903   11.26448929214068
W   12.37396682914502   11.56312052552715   8.94541905435439
W   12.08692842122726   9.34864039721133   10.34014657946643
W   9.26212094009503   10.82455055916734   13.22186491648259
W   7.90472784867462   12.44540564392891   11.87149799668552
W   10.06869633920299   10.28864124639427   9.20669359173378
B   14.73332426322509   11.70224454467606   9.40843516272836
B   14.00491641880875   13.21700391802965   9.50616527485082
B   14.09420288257250   10.16555774897530   9.73795803636793
B   15.44142565769558   10.74896385122089   10.61062198301505
B   13.87554414054788   14.18093811272869   10.91300152045723
B   8.58137765826272   10.49361284839018   10.94618154694476
B   8.80024582871350   11.97249129901274   9.88428442668851
B   10.14221311155621   9.78703070006794   11.41179931044498
B   10.24265649034473   12.56694455772283   9.04035737279322
N   8.27465840787393   9.60039060288572   14.41705401398211
H   8.69974435736020   8.96903669986082   15.09305252788215
H   7.26928085791522   9.40866946208906   14.35218119473451
H   7.57042592307715   9.78937826207067   11.00169470974299
31
F:    ...  E:  -0.446731740000018
W   14.19096104649723   9.28295475982832   11.86083489071791
W   13.42654814522757   11.80582381822514   11.41895977424733
W   15.82969728321842   10.98252933600797   12.82506611454715
W   15.75486272599824   12.91608296105046   11.16938056328674
W   11.82425338585793   9.96326895804627   12.87850629179295
W   13.82380621824270   11.19128908229693   14.13614778452355
W   11.46264669994654   12.34527040060701   13.80683686846663
W   14.25154379240000   13.63861396455813   13.14392711104851
W   12.01857947239388   14.33084688794573   12.18838835487114
W   11.98170905817071   14.05634408988760   9.69495087161507
W   9.55656928357607   13.84442162398928   13.21932533854494
W   9.43124862228315   14.07696975244664   10.60608862434169
W   10.77989534814559   12.08428127919415   11.28320483615107
W   12.39908252238012   11.58134761227748   8.97074095443925
W   12.05892665960384   9.36596418028673   10.35881371899361
W   9.19983714599562   10.79504061671107   13.17613291135839
W   7.91921069361226   12.47563002494302   11.86186307423621
W   10.07525572989479   10.34456140975412   9.18280677332436
B   14.74265721324202   11.68990765747378   9.44933148234500
B   14.02778957278816   13.21327098626151   9.55525003509962
B   14.08480869604733   10.16174892278912   9.78167253382477
B   15.43775675057123   10.72971228510131   10.65602525139023
B   13.90011086516020   14.17867775151603   10.96596775726530
B   8.52294239053134   10.53701297341091   10.85954006726310
B   8.83907289735917   12.05182043073936   9.86954574930923
B   10.07884834753302   9.80016095405271   11.37635630209232
B   10.29309868078643   12.61244967493733   9.05313547104283
N   8.25336928917286   9.52856838567898   14.36336798771839
H   8.71900951348180   8.79032572544712   14.89106840051849
H   7.24120595788434   9.40810257335136   14.42326775432550
H   7.52036553493420   9.86267046412047   10.61916589423462
