31
F:    ...  E:  0
W   13.97683718422370   9.28235320705168   12.16912393138779
W   12.98560113677013   11.66548888981651   11.77391414919367
W   15.64527697997140   11.09665949612026   12.95592366307611
W   15.24104340735427   12.98416939858887   11.34405599955799
W   11.53697792269232   9.64630293243369   13.30692246587217
W   13.72515582029623   11.08578059089358   14.45904051185377
W   11.42388686155499   12.00101843620094   14.33648492020855
W   13.92720929642398   13.46878765924089   13.45110791201543
W   11.46601296365258   14.01199341387610   12.74724702240192
W   11.26687515081754   13.87707867507882   10.26905666091742
W   8.99184746422720   13.37401314365175   13.54212042593046
W   8.79439437038768   13.76889526385280   11.06994598423701
W   10.28777584466416   11.68658910807279   11.79635225740646
W   11.85181740502957   11.42011340082494   9.40307291585604
W   11.73291333204194   9.18537161137264   10.78378386334227
W   8.97037511984264   10.48511157761001   13.62688639105303
W   7.35292671530217   11.97216084512414   12.42916893458325
W   9.61680260626354   10.03304255814026   9.68575160396152
B   14.18379943353481   11.68908867021535   9.72451836366605
B   13.35675813605288   13.14493223050707   9.92855505321263
B   13.68218406690816   10.11150662149849   10.08698848756930
B   15.05025351227311   10.77343246153159   10.85989974292081
B   13.25515066697674   14.10364081734500   11.34896177988622
B   8.35403821341383   10.26427870490943   11.48668677684423
B   8.30919604341717   11.68939124873702   10.41710264480363
B   9.74892217453503   9.33130865889103   11.87455551855257
B   9.71269674440625   12.29421895144819   9.56950059272407
N   10.83818660896750   12.29421063266324   16.51046217783167
H   11.42825699234846   13.00846565780779   16.94694817782931
H   9.85577626192460   12.55714509090158   16.63767219404390
H   10.99114200746793   11.41122015266954   17.00611639478839
31
F:    ...  E:  0.128982820000033
W   13.99087484713763   9.28510208145536   12.23174290248445
W   13.00434269874701   11.65671424048966   11.80366565540072
W   15.66340742506798   11.12807381535493   13.03769249349824
W   15.24961630487486   12.99887665317616   11.39042011793633
W   11.52836609201371   9.63793002483852   13.29847171148984
W   13.73393358119953   11.08696464441367   14.47973969419878
W   11.41329332961657   11.99576147303987   14.26870081570161
W   13.91428344852757   13.48444493362790   13.45843982285314
W   11.45380960092634   14.02890798845256   12.69571016343847
W   11.29153273925521   13.86997059932512   10.22186920748765
W   8.98782075163964   13.37865913868637   13.46313026483905
W   8.81676711637764   13.75033704736267   10.96493996463787
W   10.29820084393797   11.67697700232262   11.72718245899971
W   11.90682639363193   11.39032057841263   9.41481900118715
W   11.76072697394715   9.16335701881794   10.79108133407888
W   8.97660605248732   10.49595029260017   13.57401272069669
W   7.36504161441094   11.97395004791921   12.35153568226324
W   9.66260098780692   10.00472589960265   9.64067623594957
B   14.22955054376253   11.67680859031350   9.78384718949988
B   13.38918917993119   13.12602400715292   9.95014645978864
B   13.72928940250309   10.09978845014100   10.14433839356010
B   15.07946742442654   10.77585109857269   10.94677355207082
B   13.25605492623528   14.12077967667311   11.34095479294571
B   8.36834125166087   10.25658554624909   11.42390551891279
B   8.33876729388622   11.66664898213322   10.33906084028099
B   9.75416675261278   9.32432973427775   11.83558646928918
B   9.75245061923669   12.26175231981144   9.49519478388475
N   10.95769525939595   12.28559575503432   16.43739437934788
H   11.69679768812996   12.90704802475006   16.88308559866985
H   10.04374604334296   12.69359420288163   16.55627614721403
H   11.05319007705807   11.37198574757043   16.95955200528274
31
F:    ...  E:  0.398827820000008
W   13.97261803539592   9.29733616355333   12.29842095151240
W   12.97984155223260   11.67004232769258   11.84934500186681
W   15.64924473691187   11.16800226915584   13.12574472790005
W   15.25283656239992   13.01096320207905   11.42954647426197
W   11.49909411152161   9.65109258300687   13.29806822224779
W   13.73576499619736   11.07661162026288   14.50964784559575
W   11.37174862721232   12.01990972414924   14.18881914866736
W   13.89727340555359   13.46698963301044   13.46541957257709
W   11.43630253268581   14.08341141728853   12.62365289967757
W   11.29398001489413   13.88750353474081   10.16487202435575
W   9.05701340807472   13.32326248565043   13.53702338841280
W   8.84618466689557   13.72319046714917   10.95475143167387
W   10.28764153766240   11.66783491508583   11.65624922520276
W   11.91249563936787   11.37530673114070   9.42828432647651
W   11.77075533029190   9.14593013320372   10.79139022924071
W   8.97700233922519   10.46017923579663   13.52452802657208
W   7.41375271403581   11.98419134975364   12.30512113428769
W   9.68505277316260   9.98018668988028   9.59688836804972
B   14.23396387784553   11.67519735979615   9.84407174791684
B   13.38524270605040   13.11747054710001   9.96111421110576
B   13.72933459112935   10.10591954057676   10.19660503545798
B   15.05989083910834   10.77749706187089   11.03620007004299
B   13.25190331005956   14.13902098544271   11.33195265721290
B   8.36028230810573   10.24240254701644   11.37067070459670
B   8.33969239297570   11.64236422189407   10.27835563460417
B   9.75606358529931   9.31589741094590   11.78080170493302
B   9.75404075807960   12.26205550782640   9.43317657367823
N   11.17704649347426   12.23829686924741   16.39651712821823
H   11.84377154823100   12.85923604010368   16.88913181867811
H   10.22898109916838   12.74343233576679   16.30317410031614
H   11.06356226672600   11.39080582672253   17.02009236645018
31
F:    ...  E:  0.858671450000031
W   13.93608964951385   9.28597041226152   12.24318758345364
W   12.87785266799464   11.73433549737965   11.84618377985809
W   15.55293774867251   11.14042114074248   13.14114371739076
W   15.23601520884084   13.00792882368057   11.31515437074905
W   11.53381181459763   9.74409127457271   13.26332896436829
W   13.72824847610405   10.99453952418661   14.53962324589220
W   11.35294287465590   12.09091979908000   14.29864250429512
W   13.89345589114666   13.38883636258844   13.41809877074741
W   11.42547802052746   14.10428024611954   12.68381916432221
W   11.28519699341153   13.86605429023035   10.19670674743059
W   9.11289805696592   13.17723140730206   13.85759394396519
W   8.83721946343914   13.71988009556832   11.12227305142740
W   10.23464974500745   11.71081298033643   11.70093469303903
W   11.84292472816014   11.42002340143628   9.37819909033698
W   11.72661370061591   9.14663099371795   10.75145673001038
W   8.97598646617507   10.46641441654307   13.60082539790750
W   7.42053806495605   11.99392905027621   12.33789867393218
W   9.62814313797704   9.99068801848858   9.61976722932761
B   14.15418259478618   11.69736300852918   9.79891032910360
B   13.35767023191699   13.16613741335787   9.90133547890381
B   13.61856714624614   10.14080856788195   10.16842072878025
B   14.96610281564771   10.82289850845242   11.00782595188436
B   13.25953586169710   14.12453264229779   11.33146536264948
B   8.34992143324227   10.22622593163728   11.41524977085018
B   8.31603012277771   11.65278203917855   10.32007977834612
B   9.76677820663625   9.33904811348402   11.83136913712517
B   9.70463736647605   12.28724053034591   9.48933854593091
N   11.14360067880841   12.23681832059361   16.53842177317309
H   11.56611245439591   13.00966753727194   17.08082695517082
H   10.22278177359646   12.53786378675244   15.99356845003392
H   10.91729870156212   11.44342838019595   17.13482996248523
31
F:    ...  E:  0.550842570000043
W   13.91775557453541   9.30250189250267   12.28283604602914
W   12.88436152571989   11.70212267795239   11.86226877919908
W   15.59238755496379   11.18431684569640   13.14292170693923
W   15.21644091388799   13.01304103189126   11.32739743985648
W   11.48986609838860   9.72543852440348   13.29150252110717
W   13.76547424600700   10.99871559172622   14.55616890067517
W   11.37314392829154   12.08485081490969   14.47366718514274
W   13.86468449776025   13.33937038627367   13.43548145714218
W   11.42802755416397   14.06257758745530   12.64365262525308
W   11.27748912429505   13.87056829715479   10.17224915473692
W   9.09233972879669   13.14612488911190   13.86303783627515
W   8.80871372462992   13.72633243249165   11.00934106811882
W   10.28837052299994   11.71399768112130   11.70077913112450
W   11.86581390732633   11.41658031634502   9.38079166224448
W   11.76764251618953   9.14712084423911   10.76827409255558
W   8.97492813248637   10.44477622246366   13.56615884262900
W   7.43195284141410   12.01749439926628   12.32222583969797
W   9.66365045956545   9.99145916557629   9.60200977438277
B   14.19000619922617   11.69719327058970   9.82851038512667
B   13.37277615703210   13.16303698612443   9.89926947248393
B   13.65482871235997   10.12525483501514   10.15141271926537
B   14.98716359360183   10.80615012768030   11.03911125649813
B   13.25767312307186   14.12425447986786   11.32918519255665
B   8.36955629444832   10.23882145150939   11.40522000676815
B   8.32379210521152   11.64978214912001   10.32305970223937
B   9.78256699828988   9.34639339796884   11.80309275224373
B   9.71853698548993   12.29092401448055   9.49431309448244
N   11.42102845666012   12.10388948759586   16.58716148557414
H   11.69907126536150   12.96834188269997   17.12490427191426
H   9.95693179958149   12.76306469802002   15.49375921716716
H   10.98123289186325   11.44165043253699   17.17346897707029
31
F:    ...  E:  -0.090026049999949
W   13.94238516722846   9.26787731789577   12.21828677603113
W   12.90527147351487   11.68301342718071   11.84474414239802
W   15.50516726936320   11.13165545942029   13.11363174452115
W   15.20333933829107   12.99167079115470   11.41526450829702
W   11.57789150726371   9.68604183009693   13.30211800357589
W   13.55389441682668   11.08067294344157   14.57939166850718
W   11.04759113820244   12.10061416081946   14.53362028990665
W   13.82454683041888   13.39741870254663   13.43390231354668
W   11.35992459044038   13.94170002223991   12.71376291873510
W   11.26335054220577   13.86188887891306   10.18748367670148
W   9.06135677534843   13.29791195055042   13.78659279259323
W   8.80005095793964   13.77492676110830   11.03316556534027
W   10.24917388915998   11.70777249896310   11.76340142404234
W   11.84643753695156   11.44886713214322   9.37101220153136
W   11.74719891055112   9.16633567992375   10.76293857406501
W   9.08822718756704   10.45271009535877   13.63761374065839
W   7.46496918914410   12.03183302185046   12.39286113307340
W   9.65314836932053   10.02714429616611   9.64251916401721
B   14.16436390510922   11.70105815480747   9.79922544666527
B   13.36954356487536   13.17694200747798   9.91683865764929
B   13.64600295315105   10.12649176742552   10.13710810221414
B   14.99616117315005   10.80134102180272   10.97061236435345
B   13.19977479956791   14.09836212465727   11.35137728360837
B   8.35303699896079   10.25915650059428   11.46442460030042
B   8.29750324894923   11.68289130735633   10.36453838352227
B   9.78582129140131   9.31818013626587   11.84472359252556
B   9.71550155853296   12.31625047122567   9.53566672677195
N   11.65922287104046   12.04603180915358   16.54995678259922
H   11.68144338297528   12.91985844554263   17.04657852034505
H   9.66132275972661   12.84148343330316   15.60927318693123
H   11.11654376215659   11.35624367102525   17.12148088920831
31
F:    ...  E:  -0.685739560000002
W   13.97180467350992   9.29948105499653   12.27304828233882
W   12.91398318327382   11.67341791686329   11.85325917372400
W   15.46919561117693   11.07763060975427   13.17009433199228
W   15.18553823989808   12.99818517708265   11.45293491031313
W   11.58484950406309   9.67608269480928   13.31564177703327
W   13.41651569719083   11.14843245011860   14.66460620497579
W   10.96351656434574   12.11875411776581   14.48028444325587
W   13.80708212695492   13.43865815395103   13.48918773263924
W   11.34220052052468   13.93073979745694   12.69883815340160
W   11.26780562674602   13.87509367994999   10.17836306596547
W   8.96821024274326   13.36923375441307   13.73712190912507
W   8.81103006601920   13.77336831925118   10.98305131506448
W   10.25958538517992   11.68540061560662   11.74539227329577
W   11.87550826062648   11.44402495989095   9.41280604926709
W   11.72270577254517   9.17744793270262   10.75869039123722
W   9.08754182742332   10.44587747035122   13.63356049024919
W   7.45261758712066   12.03714341055919   12.38679439974513
W   9.65417118080063   10.01649529240832   9.64569364271202
B   14.17534334381635   11.70157478637020   9.79820422603519
B   13.38652352821241   13.17215510700276   9.93981281285931
B   13.66223148880603   10.12427320649331   10.16575905890786
B   15.00182984535878   10.83616451113854   10.98182828632353
B   13.18524484821543   14.07158330556527   11.38343097439789
B   8.35865248883982   10.27465087515836   11.46272004836987
B   8.31406182237279   11.67546987353843   10.36068691332867
B   9.76597651103947   9.30805566770703   11.87070548367909
B   9.73070135685417   12.30256813325667   9.53924577354270
N   11.82902004823939   11.96647530379053   16.41766815958594
H   11.83954681858498   12.83396043598498   16.94573838173027
H   9.60924262514513   12.92927424553905   15.58270980960881
H   11.29981199361083   11.29031473765335   17.01714896278307
31
F:    ...  E:  -1.02649771999995
W   13.96317673747030   9.29244138747313   12.29129219267906
W   12.89237801810916   11.65291652506691   11.86529008634406
W   15.43488435294128   11.13247432544800   13.24196753503316
W   15.18337994472753   13.01464174010764   11.50285585890785
W   11.59876258245276   9.68200839666881   13.29792847917178
W   13.36290257302720   11.12446784126345   14.72333748581030
W   10.99099865543486   12.13674999795773   14.44570810994542
W   13.74287799790230   13.38821574249714   13.52347789079018
W   11.32968640734333   13.99331541591384   12.63284486648918
W   11.28219847021604   13.87017648039574   10.13694843201987
W   8.92750773028493   13.42191864485657   13.69164520047187
W   8.80090511521334   13.75921387315777   10.92738184602370
W   10.27158659735731   11.69984091041323   11.72347196780870
W   11.89333156667672   11.42257518671044   9.41682226155997
W   11.77193162633694   9.14751397938810   10.77468959235624
W   9.08442484915940   10.48666841469496   13.61258294629897
W   7.44248205592940   12.02941615777651   12.33825613312278
W   9.68318084025683   9.99526416789104   9.64225244142188
B   14.21539712189406   11.69257563849796   9.83387170618604
B   13.40329972655636   13.16380198782955   9.94956674747542
B   13.70803167689860   10.10849507922227   10.18876940150506
B   15.01163581060322   10.83344918357407   11.05781968917297
B   13.18659854181295   14.07623550476317   11.37926553226121
B   8.38582649501923   10.27227901344905   11.43644481452239
B   8.32875730915166   11.65494909165120   10.33193531017380
B   9.78023517167510   9.32194406352269   11.85873236679909
B   9.74267653090809   12.29331556260806   9.50520418884942
N   11.95376511216398   11.90573567194600   16.36697100903873
H   12.03331744059479   12.76714959567767   16.88155643792270
H   9.64501532644433   13.02267017275692   15.50126449524545
H   11.43077969952127   11.23543780001827   16.93634101733682
31
F:    ...  E:  -1.23564634999997
W   13.98705057820979   9.28637999154769   12.33205778082167
W   12.89500756187727   11.66455909092623   11.87376729548645
W   15.44234598089913   11.13837851932482   13.29460999492861
W   15.19561807567763   13.02249522958139   11.53728873070598
W   11.59077713880220   9.67419350249572   13.28126408809817
W   13.34650507577760   11.10895560836789   14.70857574462257
W   10.97386362546491   12.16216855506241   14.41553702101254
W   13.72960460120584   13.39185693865851   13.51813797091060
W   11.32081487534650   14.00455427584581   12.58427031731771
W   11.31010473731965   13.85345300011557   10.09682032578312
W   8.93277676878555   13.45083641608288   13.61590069865950
W   8.81448142617482   13.73965005350129   10.84249206728148
W   10.28130362935256   11.70296597807378   11.69525772310859
W   11.94373012827408   11.39852631174408   9.41213320608346
W   11.80944845659061   9.12651749426050   10.77400310247901
W   9.09869607686486   10.51409817652547   13.57894099900695
W   7.45856784024297   12.02686302027442   12.26106267350839
W   9.73433426392769   9.96876527331609   9.61444697895614
B   14.26091278170434   11.68475337929083   9.88333632362487
B   13.43704461488364   13.14860518159512   9.95457840099140
B   13.74726469600555   10.10437695735455   10.23102461634956
B   15.03894602776840   10.83539123983449   11.12667101552079
B   13.20709650014578   14.09250612411021   11.36459221941063
B   8.40375691070190   10.26093679100101   11.38757461809126
B   8.36086389066971   11.62857650570496   10.26368540057902
B   9.79345150130603   9.31021187860132   11.83164438286926
B   9.79133673183550   12.26279714794098   9.44936630368314
N   12.06524055526837   11.86039035260585   16.32425499377449
H   12.20861331375240   12.70816290913022   16.86002918377373
H   9.69917302516349   13.13776398934241   15.43112498320180
H   11.56258868687233   11.20337110228408   16.91897035183187
31
F:    ...  E:  -1.31450983999997
W   14.00684304077787   9.27641778555120   12.35824168066883
W   12.90809330930112   11.66824969409877   11.87636254090074
W   15.44478038300989   11.13915841827790   13.33674059685145
W   15.22056067752163   13.02150459636129   11.56376340180107
W   11.59556948130239   9.67896119352620   13.26763493749163
W   13.33536333949993   11.10803286946118   14.69043918050239
W   10.95367484552669   12.19216644499511   14.39392687264365
W   13.73400593181889   13.40820292243365   13.50878032371780
W   11.31743233391465   14.01094086742565   12.54584781497256
W   11.34274044801544   13.83210341437677   10.05905810528601
W   8.92827156195475   13.48315751983648   13.54563525406611
W   8.83165601954364   13.71574522959816   10.75628935098531
W   10.28521186056511   11.70451460072998   11.65866973355232
W   11.99580362938365   11.37307787033392   9.40867302628491
W   11.84071927523757   9.10640817778168   10.77873896438776
W   9.10966188207488   10.53252496619918   13.54583752453809
W   7.48115295221449   12.03814326112317   12.18217325726371
W   9.78878535500169   9.93702840352533   9.58353869028792
B   14.29974951470267   11.68001509306912   9.91642691594935
B   13.46990678377579   13.13365459667991   9.95916094329981
B   13.78478586343235   10.09748656588967   10.26714105087652
B   15.06392636105556   10.83556862991482   11.17165026288042
B   13.22711048076911   14.10371836525788   11.34815197424618
B   8.43117385856990   10.24580569493953   11.33158462223368
B   8.39853880627238   11.59558577955922   10.18980152120874
B   9.81139945697421   9.30571964119403   11.80573482879780
B   9.83981112081809   12.22283597089404   9.39672519733909
N   12.15376556668061   11.82944158718944   16.30973979061665
H   12.38842411244920   12.65335787434493   16.86643462404872
H   9.74019076680698   13.26106496879741   15.34944603471873
H   11.69122306581747   11.15511875346783   16.92668093286024
