31
F:    ...  E:  0
W   15.47387136776188   10.78096250604431   13.55886301658034
W   14.37255038579255   13.06850063244220   13.14754428738889
W   17.17029850499477   12.55934813486871   14.27759803287121
W   16.62848019180318   14.45860939314364   12.65562047093275
W   12.87954523873529   11.02112625976960   14.81277704172408
W   15.26808468094038   12.48806935719489   15.79085617660532
W   12.91609315947768   13.34468035018677   15.63474625094531
W   15.39343317766806   14.86614602641438   14.78034556711138
W   12.87220970666863   15.41587665954411   14.09455319895309
W   12.64945135110553   15.33593633383819   11.65117845420946
W   10.45664104241086   14.53122422832469   15.27970304631811
W   10.23247744164962   15.14262153334374   12.61547191548580
W   11.70255696570781   13.09829188005022   13.22178805569899
W   13.20340734610208   12.83854786679975   10.81776701089706
W   13.14109267404567   10.62795865476887   12.25719028091416
W   10.40229724530611   11.82058919920022   15.09433878666522
W   8.81908470775310   13.47869453101683   13.91385802306758
W   10.99680340977241   11.46129079092311   11.13341076928362
B   15.54942584297093   13.13427083616049   11.07964124749133
B   14.71618890204073   14.58115694999925   11.29276118272494
B   15.07247900917722   11.54615512688000   11.46812509760889
B   16.45117302595841   12.23915989543267   12.20713384045014
B   14.65218205761202   15.55605575900099   12.71387352672642
B   9.74385161004611   11.68019508720944   12.96330396191081
B   9.68914690946469   13.11328662735718   11.88082278611818
B   11.14050690367245   10.73459679025395   13.29207636551932
B   11.07128327357404   13.74126472204437   11.02926773801032
N   19.14230486040681   12.07796355416101   15.24179168091291
H   19.94238960643558   12.19918066730046   14.61286539982217
H   19.28662967082666   12.68079799044703   16.05815736976854
H   19.14064346505343   11.10706451655906   15.57072553916803
31
F:    ...  E:  0.116335469999967
W   15.47695022058065   10.83259790889968   13.57183297333500
W   14.35593358561004   13.09945255356722   13.13881225200275
W   17.12620970388989   12.62075310291650   14.28724678322299
W   16.58884542691822   14.51798640400173   12.65100044945934
W   12.90351204173201   11.02119604892528   14.79279568963727
W   15.23044997313175   12.55139332723976   15.82125421853470
W   12.88264671747553   13.34281248715433   15.63407941530950
W   15.33936963573140   14.91806117784851   14.77584977020040
W   12.82151682860569   15.41630552246574   14.08205113595921
W   12.60255146069423   15.34715356567337   11.62772459690983
W   10.42718713728885   14.55670684033799   15.25391247207079
W   10.21016440511076   15.13889287865128   12.57592139927745
W   11.68709858801862   13.09490324038867   13.21049030820083
W   13.19778764102325   12.85061300288557   10.80184793543844
W   13.14731276538615   10.64740144174246   12.23543309961510
W   10.40959123759606   11.80660009275573   15.07595899711947
W   8.82306797449267   13.45829258090980   13.90814407353452
W   11.00080101605811   11.44816898951233   11.11505587299292
B   15.53737319487881   13.17236296911431   11.07489911849851
B   14.67827514530097   14.60856073951770   11.28165435719627
B   15.07948210360478   11.57420146068602   11.47345590975865
B   16.44496472992575   12.29665781896589   12.20982895962953
B   14.59697501245780   15.58070383290662   12.70205804593325
B   9.75033406688661   11.66307662182349   12.94262564396781
B   9.68315965768562   13.09440158295785   11.86074802039969
B   11.15453819657037   10.72769000573104   13.27909465821810
B   11.05964109968505   13.72792865087853   11.00630230693120
N   19.13191213648439   11.94561337394786   15.08392716430230
H   19.86661410496481   12.36644208716558   14.59426526484042
H   19.21182898565725   12.19425151432335   16.11021136626476
H   19.15771040564983   10.94567042552410   15.00810373643021
31
F:    ...  E:  0.164284570000007
W   15.46880001889740   10.87399949306628   13.60463653678493
W   14.34945854149690   13.12469229178244   13.13353517172442
W   17.07254478108422   12.69546174833363   14.32695868231354
W   16.56632910571519   14.55755077869018   12.66337667185922
W   12.95389119769325   11.01156641623795   14.75754066605733
W   15.17787845812518   12.61009598199864   15.87702492425662
W   12.82313885158456   13.32973860444594   15.63481551973725
W   15.27452100611909   14.95860050599024   14.79630254202167
W   12.78111679100082   15.41597746460321   14.07218502846237
W   12.56763132581763   15.35166340868945   11.60330354315328
W   10.41842685831406   14.61721611487124   15.23005628690058
W   10.20425244433924   15.13856026351798   12.53612054935426
W   11.68723645419239   13.08857570759152   13.20049940556895
W   13.20405945787823   12.86012870861599   10.78689050344621
W   13.15771968613110   10.66210909075788   12.19403602849980
W   10.43612800470089   11.78406217782922   15.06677303057274
W   8.85557281251830   13.43351217792180   13.92902930738623
W   11.00856155984291   11.43495852063472   11.09623653284872
B   15.54488873084741   13.19979047743863   11.08455514804340
B   14.66086579885921   14.62685416230668   11.27703439927467
B   15.10297491676966   11.59302046770877   11.48069726785590
B   16.44522183027960   12.33599627044891   12.23325179707979
B   14.55521844088528   15.59051199691457   12.70027771774161
B   9.77373712352986   11.64949513272827   12.93164184286406
B   9.68795743742057   13.07440249176152   11.85468758884516
B   11.18129249520062   10.71657885979585   13.26685722745192
B   11.05594459133726   13.71222337935795   10.98686913485167
N   19.04003503165728   11.84808581215918   14.97459621706774
H   19.84180673692867   12.45993435957051   14.65599528771758
H   19.12355249603677   11.67323555253209   15.94966089167573
H   19.03951180885259   10.99449801188554   14.43190062116142
31
F:    ...  E:  0.40216719
W   15.44385690818356   10.88873984340492   13.63268923869562
W   14.35008952027585   13.13712560686542   13.12296707255501
W   17.00927339490372   12.80632241363919   14.36415564056816
W   16.56261041904625   14.58238435998286   12.66091783477809
W   12.99543702529211   10.98080291362177   14.71100277731749
W   15.11945564307222   12.62533679298483   15.92781117902460
W   12.75954119011443   13.29646137583439   15.64103268012224
W   15.21621428796561   14.96246340093693   14.84628544201006
W   12.76891312783522   15.41253820169110   14.08517743439286
W   12.55954586605355   15.34559947161067   11.60151546325474
W   10.42504863669515   14.67683269456738   15.20590126037582
W   10.20906871344430   15.14032035632040   12.51842530632872
W   11.70046085268182   13.08506432433260   13.19626704286521
W   13.21885697984073   12.87043752263963   10.77321844871775
W   13.17276122423560   10.66466299238982   12.14905395057929
W   10.46439883249010   11.77084380040183   15.06653739973783
W   8.88912710172286   13.40896450316738   13.94750016175552
W   11.02121452171146   11.43053820276855   11.08175991668675
B   15.56486821883531   13.21341527236413   11.10131626892452
B   14.66534202009899   14.63994314161184   11.27801974115572
B   15.13196174347853   11.59644453218414   11.48035836784431
B   16.46032450863045   12.33785771469176   12.25019367360161
B   14.53693206424731   15.58781458739675   12.71693147528478
B   9.80380272650341   11.64484180846289   12.92656080605063
B   9.69655706050113   13.05842519946627   11.85407816499928
B   11.20615395427214   10.70425116576016   13.24994240154229
B   11.06163888054905   13.70555167129539   10.97833742646878
N   18.98541728687289   11.90229239142796   14.87450192569751
H   19.84737643964681   12.38239533631560   14.63519884763201
H   18.96695072308469   11.30762471774046   15.70395094033853
H   18.86384836169999   11.15157022209402   14.13409042318837
31
F:    ...  E:  -0.170229740000025
W   15.63839346154146   10.80424148206301   13.57508688177550
W   14.42602792291960   13.08635417657350   13.17935879662525
W   17.34348667219985   12.60011678554996   14.31307114315250
W   16.65005395164400   14.54598043330422   12.63631591583014
W   12.94144003325652   10.97892804154105   14.75167013406943
W   15.36049771123207   12.46081783110594   15.76678157901303
W   12.97997117868886   13.25895630602079   15.65319567898510
W   15.45363591886495   14.80084016542200   14.82036726910087
W   12.85688695389626   15.34254221369339   14.09501555023184
W   12.63069218471268   15.34964317229310   11.64695383674874
W   10.46791678776531   14.55834891282156   15.21559371699510
W   10.22211890384836   15.13111681187160   12.58437490277312
W   11.74434902524388   13.06822224518523   13.21707059630780
W   13.24686152344277   12.85885267351963   10.83228872282668
W   13.19884205251265   10.62333634084554   12.23729580843567
W   10.43699651072929   11.78919854725435   15.06184632103828
W   8.85276073783719   13.43988950844249   13.90405555457364
W   11.05604204131173   11.45080551534818   11.11330217442517
B   15.56924063315856   13.18335623836026   11.09172379653846
B   14.71403536938433   14.61100394351696   11.30355196183807
B   15.12088989811127   11.57797176127490   11.49627020527758
B   16.45297532938992   12.36385393676026   12.25260646432603
B   14.64007083399789   15.54878384903557   12.74433513923443
B   9.77522227234006   11.65276648134739   12.93416733744134
B   9.72243842896797   13.08479929067405   11.85711908725315
B   11.17218036713403   10.71351441155502   13.25968694719037
B   11.10120997062462   13.74799537136201   11.02222080777528
N   19.11224028593620   12.55137738307260   15.33567912363365
H   19.84540945408642   12.10925738100790   14.85190066426200
H   19.14144680010200   12.36836872066719   16.36594798647380
H   17.36401549425837   10.81075368078974   13.50735289495205
31
F:    ...  E:  -0.115726940000002
W   15.58870669521835   10.79884243000472   13.53436889933386
W   14.41583307893379   13.09050047304672   13.16014307315280
W   17.29427270829264   12.59607209677763   14.30580906396210
W   16.63172619590627   14.55991935906060   12.64080356666335
W   12.94618751449415   10.96283834265721   14.73329172143232
W   15.30453089600350   12.44292570682105   15.77551999353430
W   12.94895041484780   13.23613956383957   15.65552607369283
W   15.39949772635695   14.80270244861774   14.82989419317408
W   12.84144855311487   15.33635762518029   14.09583574396708
W   12.61336503639818   15.36154142173427   11.64326913697448
W   10.45887553878195   14.59785566481525   15.20320186461066
W   10.21150232349433   15.13771584149302   12.57498334913155
W   11.74057997228258   13.07003424549138   13.21143974312053
W   13.23888680267721   12.87785145419882   10.81401594512922
W   13.19254328773816   10.63306657037139   12.20207604423651
W   10.44648755565908   11.78754454158526   15.05499646464366
W   8.86162719967483   13.43419551564417   13.91559966142336
W   11.04650261543484   11.45709930001313   11.10219933157576
B   15.56762506938236   13.20590770393438   11.07161423861249
B   14.70328497539678   14.62715122107868   11.29396787663772
B   15.11429691090978   11.59263763866537   11.45660763022538
B   16.43410051312481   12.37452942959872   12.23281238518577
B   14.61768311434876   15.55228995223434   12.73770550404994
B   9.78058039048043   11.65249253802418   12.93222401668946
B   9.71621279395998   13.08126544286474   11.85702387386295
B   11.18004040745272   10.71387510075030   13.24936770081818
B   11.09095957617776   13.75235922540639   11.01889256559310
N   19.05667641914781   12.40825501386053   15.29011005664240
H   19.81569145224384   12.01037604860679   14.83816240622449
H   19.06115340345224   12.22323799786571   16.32516995126897
H   17.61310152658458   11.01054918836685   13.37414392058128
31
F:    ...  E:  0.293809829999987
W   15.40352791589317   10.72470708449561   13.58382267921606
W   14.42025362648938   13.06687301019753   13.15753593750344
W   17.19545655274123   12.62440703988214   14.43156611429783
W   16.63422370162118   14.52494370493116   12.68169312788592
W   12.96879397042174   10.95590650733066   14.70743615027697
W   15.24399464856817   12.46057910091336   15.87699561970294
W   12.92359275969574   13.24812282576144   15.67291066247026
W   15.38208549540616   14.80758057758949   14.83599388462710
W   12.85180397814688   15.32021970571165   14.09938570025391
W   12.63300144845845   15.36558045316032   11.62960440581046
W   10.45241480584214   14.64186581034196   15.15982199309192
W   10.21952812108119   15.14425809641212   12.55181654467605
W   11.77268645333375   13.07951478530138   13.20199947950316
W   13.24764107270751   12.88241943734973   10.78591582787303
W   13.17138797907097   10.60932239455203   12.13844658732779
W   10.48160205316467   11.80133280188052   15.05742611093273
W   8.86741425054803   13.40653379370780   13.92271991421421
W   11.05007917573597   11.45093989712641   11.08422053535157
B   15.62348639505183   13.16632162952147   11.13678987916976
B   14.73007460381261   14.60069966228184   11.28672877985385
B   15.12546320492501   11.56796076420205   11.47789049443360
B   16.47631033025943   12.26372540670845   12.30722322293144
B   14.61563462921082   15.53430722799565   12.72710064536828
B   9.81236553760744   11.66811703948471   12.93578046692613
B   9.73685318559976   13.07592955492029   11.86327703804933
B   11.20638714983408   10.70914095992800   13.24415638742253
B   11.10289322471332   13.74638261119192   11.01557774277509
N   18.98865866978532   12.28020681806528   15.26494691934516
H   19.81537633764789   12.01505050231298   14.76204603867043
H   19.07926728758439   12.05807903796114   16.27204925723668
H   17.50387984189745   11.53306382277158   12.93867313346071
31
F:    ...  E:  0.0812368299999662
W   15.32333363607731   10.71307271193393   13.72575486337088
W   14.43879684673189   13.07363686114920   13.19033381249168
W   17.05769907041251   12.65266921179309   14.58918763681005
W   16.64809890133846   14.48875362420946   12.85806264271587
W   13.06740356598023   10.94907253337567   14.76380952357382
W   15.10392702679476   12.49941702312826   15.99953529663485
W   12.71982798388543   13.33673179413271   15.65466915167817
W   15.22970455808217   14.85723494286350   14.91133845121358
W   12.81123417506062   15.39742042297013   14.03832998496686
W   12.69984965802177   15.31816428516047   11.54477315968326
W   10.48565274632967   14.69800521628388   15.20620881568210
W   10.34636775914882   15.14000671497441   12.50071903309487
W   11.81178470348118   13.05116719433907   13.19432936500900
W   13.31985951958623   12.83232058314899   10.79763744318367
W   13.17811013637698   10.60019188793355   12.14592026380625
W   10.49980463652793   11.79966950201717   15.08703276172732
W   8.93597790027523   13.40378902488480   13.97309386843426
W   11.07218655917923   11.41442229639101   11.09355095289032
B   15.64063508549443   13.12911058032921   11.15240815037046
B   14.82213347087583   14.56392437575150   11.35587198911285
B   15.13035660888657   11.52665790589299   11.50812408482463
B   16.49168543278008   12.22112593211329   12.33462755427674
B   14.63854211153292   15.52053130810126   12.77828774692891
B   9.85955126650857   11.67798726367588   12.93801979568633
B   9.80059342121857   13.08449745736798   11.88232940821936
B   11.23913074359148   10.71159622956517   13.28979688219657
B   11.18976433301230   13.68393401879238   10.99648176741802
N   18.90505480022204   12.18924917788532   15.23837517441859
H   19.71236142415274   12.10643294017469   14.66437740734581
H   19.14259468005299   12.00837807593611   16.22573717863015
H   17.61330692154895   11.73961675010804   12.49594336969219
31
F:    ...  E:  -0.285999629999992
W   15.39473424830874   10.71462174120636   13.65150465471672
W   14.39585670484605   13.10460741303543   13.21774676408656
W   16.98118499917140   12.63108347526737   14.56355217827243
W   16.63562988006567   14.45099962086452   12.86978485059625
W   13.13996579694555   11.00202141222509   14.74232245665772
W   14.98535129172988   12.49423140259517   16.00752337885646
W   12.55675956569226   13.41483758757584   15.69942524645014
W   15.11405135641854   14.86589447598531   14.97226107724920
W   12.78238910592669   15.43428530346108   14.04621215711449
W   12.71948077900335   15.27527799775653   11.56117310663262
W   10.46225451383052   14.78678238370313   15.21826698916813
W   10.28803565216728   15.12262504087104   12.48340992799500
W   11.77698787213869   13.07954744252808   13.20785349378633
W   13.35012603716501   12.83442683844909   10.79821675546970
W   13.21419105467056   10.60209442469218   12.14367283194795
W   10.52796453314041   11.81189464620262   15.11355034308991
W   8.95077097130170   13.40464880941234   13.92781532076508
W   11.09248194688308   11.40302631323933   11.10950744631630
B   15.66199531304050   13.13806166029870   11.20993094387863
B   14.83235043271571   14.58513099593991   11.36544653205390
B   15.15534270960559   11.55448108880458   11.55099488399252
B   16.66199269185617   12.17117919318049   12.26522462183988
B   14.64448185164729   15.51297825634146   12.80104618046748
B   9.85666227342712   11.65799332470583   12.94624759361260
B   9.77847561483904   13.04835100833762   11.86011643294460
B   11.26472772683810   10.73074791396103   13.30863159001534
B   11.17116743435592   13.67453141439169   11.00053326440696
N   18.80222237664316   12.11058989060779   15.18041589522850
H   19.64726510192003   12.22119581508620   14.65103153939381
H   19.01261417726191   11.75653390303223   16.12323792408046
H   17.75473100185811   11.70539147727939   12.01392239989423
31
F:    ...  E:  -0.372785950000036
W   15.44811660408705   10.69760804787924   13.48152445933239
W   14.34387007568493   13.13279211416466   13.20489046128512
W   17.03932837255458   12.55506158180716   14.46350384673697
W   16.60359577954874   14.40716551553790   12.81432627582007
W   13.18370584937452   11.03414585056525   14.66106128871040
W   14.98686623099272   12.44049904595347   15.91009294790465
W   12.51167160017025   13.42889254726327   15.70655061243097
W   15.05891298066839   14.84798027736701   14.97118219959624
W   12.74684802737687   15.44115760993560   14.04482354591828
W   12.64990847269681   15.31429797699571   11.57371966502252
W   10.43132143924744   14.80813617049190   15.20131720605265
W   10.20380357586678   15.12774102346281   12.49901809667168
W   11.71464415373434   13.09771091237088   13.19098321727864
W   13.28058550578699   12.88526119865636   10.78367170067064
W   13.21198901416162   10.62359683231967   12.08593294946344
W   10.54547029116818   11.80931782070204   15.11622001717126
W   8.91756778220166   13.38114291081441   13.92646278389929
W   11.05439355845542   11.41953393237527   11.09941622374151
B   15.60560965093537   13.19183991275331   11.17106415634660
B   14.76500085168743   14.62461162662564   11.34842188678632
B   15.11342864146897   11.60209545368844   11.47512046304026
B   16.70627503859683   12.14735326115531   12.03793128484748
B   14.62343165910769   15.52638439863591   12.79850370595872
B   9.82892235860601   11.64350314567918   12.95037836474566
B   9.72377213718049   13.03653478969373   11.85877871778972
B   11.25862790174306   10.74020303693194   13.29383782620873
B   11.10643411171787   13.70128120214133   10.99884893727448
N   18.79466922477564   11.99776924991450   15.19732966292199
H   19.71175109925991   12.30343780781280   14.86588815864834
H   18.91871190080422   11.41832012789511   16.03064181095467
H   17.74980381861501   11.70238247789827   11.59488534665813
