31
F:    ...  E:  0
W   13.87368083448517   9.10036387291361   11.98182233320729
W   12.87148941849477   11.57216821445317   11.64515780256744
W   15.43853095201466   10.95189750847483   12.87086699789457
W   15.12301308999173   12.86134735924095   11.24420642244976
W   11.60964001199031   9.50266186206282   13.15605702537656
W   13.52033745302880   10.96077062186197   14.33550320042515
W   11.14104093717547   11.97756899691734   14.07746337116418
W   13.74575964408820   13.40179488849090   13.32872197295100
W   11.38096776465376   14.03038046614515   12.55530624398735
W   11.17245196812214   13.70272482180354   10.09154287859494
W   8.99188271609789   13.38112439283014   13.56344825438369
W   8.72135589255323   13.61815569976015   11.00307080786505
W   10.17960248111766   11.58536179939580   11.66978172522956
W   11.70973566292340   11.28939910017799   9.19503710334297
W   11.58974202516405   9.09781046851375   10.60707253067606
W   9.01137997356549   10.39271583478929   13.63025230677011
W   7.36455873006877   11.87481447592929   12.46663168970549
W   9.44504610574940   9.87786143759227   9.63629632903707
B   14.08022168654823   11.58469487470662   9.60434897448158
B   13.25882242947026   13.03203864145005   9.77282079090683
B   13.55022414888106   10.01064025960587   9.94210672336680
B   14.91101821577658   10.66503937716309   10.73487880292257
B   13.16189114448411   13.98432677681625   11.19504915415877
B   8.25602902792548   10.13835156060915   11.47977919424944
B   8.16424329743662   11.53964904252741   10.40064391420099
B   9.68159999698833   9.22575316605115   11.83940306500500
B   9.54330087460432   12.13836560216187   9.47077546955009
N   12.18756369947458   11.18617432967966   6.98313629212447
H   12.97908021295640   11.78815709473107   6.74256620757438
H   12.43782802933226   10.22321463955863   6.74368587370042
H   11.38071599508337   11.45380161923337   6.41495194747013
31
F:    ...  E:  0.0389722900000038
W   13.87558048593557   9.10309872712789   12.00096895010742
W   12.87376787600365   11.57410652809348   11.66796095505536
W   15.44490828771268   10.95776187916153   12.88133793559682
W   15.12211651811053   12.86388562042814   11.24987116338059
W   11.60716524554564   9.50106974007855   13.16996004330320
W   13.52495334985730   10.96644890620090   14.34568320289731
W   11.15454809141693   11.97806622844151   14.08307371102267
W   13.75539937361072   13.41073337204657   13.33280635038878
W   11.38208165564981   14.03347399791084   12.56943055029368
W   11.16780164632852   13.70002390968360   10.10741656731548
W   8.99064502552228   13.37550538113105   13.55999837520734
W   8.71739769623350   13.61219103497471   11.00691647099597
W   10.17967281047699   11.58052202094508   11.67577842712748
W   11.70432260465743   11.28336084880254   9.22278797048556
W   11.59113301408339   9.08767856411981   10.62593952072723
W   9.00850654258999   10.39469737249677   13.63804740411518
W   7.35766912953115   11.86708567007080   12.47637327742073
W   9.44218973041028   9.86697528515930   9.64902183078010
B   14.07141282669775   11.58230788012876   9.61623417017400
B   13.25251053210973   13.02905214800919   9.78538993681121
B   13.54760230911899   10.00831858651082   9.96150618385772
B   14.90845906693539   10.66643506676045   10.74816932878871
B   13.15843844016593   13.98985959827082   11.20163868654546
B   8.25564053507554   10.13247641079207   11.48750610937341
B   8.16340391394338   11.53272334613550   10.41022247787249
B   9.68116561723348   9.22154864329607   11.85058001439495
B   9.53901539163122   12.12886497928306   9.47867974006508
N   11.98897962368738   11.21935132568266   6.98774112833673
H   12.69842360574345   11.85698327711726   6.64395863154032
H   12.22111724580949   10.27526119699668   6.67859792261655
H   11.07702218879720   11.48572000590627   6.58923540888270
31
F:    ...  E:  0.123872369999958
W   13.87451726297711   9.10829667729939   12.01723344572479
W   12.87865560410506   11.57881636613180   11.69140530391129
W   15.45366801658811   10.96641050468954   12.88930789184190
W   15.12507902321426   12.86887093295080   11.25309291686160
W   11.59701096888768   9.50039380508550   13.17759178318619
W   13.53172585353601   10.97186155162411   14.35571363598895
W   11.17600463576096   11.97378615262317   14.08604044221052
W   13.77320970087516   13.41942818726186   13.33336620697797
W   11.38484027128369   14.03379536028833   12.58463658168903
W   11.16559727301395   13.70435821485859   10.12513754004496
W   8.98289920469524   13.36247112366252   13.54265240690312
W   8.71216886311664   13.61086895758095   11.00596534807548
W   10.18116267381660   11.57854037704240   11.67580399803434
W   11.70890251665583   11.28512904558398   9.25023168961368
W   11.59398391047442   9.07882465814302   10.63888982645518
W   9.00026780421426   10.39736556782583   13.63781324927190
W   7.34392442117399   11.85535972724828   12.47856163349864
W   9.44044771426724   9.85907116223380   9.65612253480652
B   14.06658102639487   11.58309500408479   9.62815804120476
B   13.25157222709772   13.03036679938943   9.79710386167055
B   13.54847036246832   10.00878031347460   9.97768946037609
B   14.90757066173939   10.66872071846097   10.76162762861019
B   13.15609662630902   13.99940571528513   11.20663799562475
B   8.25777593515587   10.13038892343564   11.48770213486298
B   8.16693611869167   11.53136679767678   10.41309926261868
B   9.68132350761684   9.21900266079608   11.85406241229179
B   9.53894112118564   12.12307506144965   9.47933379442785
N   11.78194316783150   11.24959123340598   6.99644157214975
H   12.38095827138826   11.92496561166573   6.54391401810494
H   12.00338318722426   10.31684198915858   6.63523598924028
H   10.80725084830978   11.47884634816471   6.83342930678335
31
F:    ...  E:  0.380470629999991
W   13.86151631435344   9.11626269163583   12.01713520686359
W   12.87994956828810   11.58819146683544   11.70013882636755
W   15.45409371127884   10.97755032132766   12.88579598336287
W   15.12666417727597   12.87521985259183   11.24364102221565
W   11.57749557470242   9.49982871966642   13.16792627941935
W   13.53555607628996   10.97635218450875   14.35510014444431
W   11.19347227826644   11.96556814953134   14.08213485868388
W   13.78552701332441   13.42839812231749   13.32398575026189
W   11.38558041732359   14.03109495063339   12.59792990747142
W   11.16405464526737   13.71282670195077   10.13726962713842
W   8.96594459058054   13.34737273076840   13.51493241113300
W   8.70521087693188   13.61735622952990   10.99612853661192
W   10.17914976528225   11.58157029150856   11.66253586592044
W   11.73260399442423   11.29981576046411   9.27587042398393
W   11.59050607751686   9.08393660801173   10.62989324933455
W   8.98492540356893   10.40164134221892   13.62839112743332
W   7.32288042344946   11.84434244149680   12.47067662917189
W   9.43600082516164   9.86283604988504   9.65226436812585
B   14.06525415345707   11.58906142687712   9.62688081931487
B   13.25419635546243   13.03866008188401   9.79762421197905
B   13.54788049056714   10.01243607101665   9.97387156242654
B   14.90185724982966   10.67184301450911   10.76330764377648
B   13.15497252586188   14.01101707896064   11.20393799318597
B   8.25584761171228   10.13601965423580   11.47744084705665
B   8.17306660487406   11.54128297842250   10.40446242651647
B   9.67604548263490   9.21961070600433   11.84614361362234
B   9.54826304013969   12.12176602321540   9.46572618877236
N   11.67051337654107   11.24924662324355   7.04733247634958
H   12.06454327485648   11.97213778905562   6.44378443167502
H   11.82020337168659   10.33105392927805   6.62229206255690
H   10.66047438393971   11.42066829674992   7.25041742970683
31
F:    ...  E:  1.54099823999996
W   13.84615663592284   9.11388071854864   11.99407414397380
W   12.87072976661271   11.58527842746673   11.66980412074120
W   15.43906875890613   10.98203874254712   12.86884352037331
W   15.11897853656332   12.87520194875339   11.22351505139098
W   11.57529201541741   9.49999709673684   13.14553776258120
W   13.52372021063068   10.96876520411510   14.33377829273859
W   11.15273062602504   11.96183804101505   14.05895264999945
W   13.76194225249064   13.42290035568530   13.31715400292967
W   11.37836492979296   14.02824733624924   12.58345532405845
W   11.17440472386075   13.70120308916197   10.11762367450651
W   8.96176023680695   13.36016212946762   13.52241300172021
W   8.71268811577238   13.62452146285153   10.98008593391534
W   10.18041563653891   11.58177919840577   11.63656214136878
W   11.77178038918854   11.30344204392416   9.13669289960635
W   11.58815373285334   9.11580546647490   10.59805986252308
W   8.98420871269594   10.39300228847017   13.61459125241258
W   7.33768188222866   11.85947477626357   12.45413255818661
W   9.44466067199650   9.89088115343655   9.63545358556082
B   14.07706109010730   11.58812008409763   9.60986994439845
B   13.25422230369611   13.03237544994313   9.77688484242646
B   13.55228758629434   10.01042733441416   9.93981084899110
B   14.89692616543712   10.66737595066854   10.74452646636452
B   13.15558021824062   13.99764107271626   11.19132254577713
B   8.25067993809087   10.14429738442134   11.46144195820004
B   8.17508961728873   11.56087953952307   10.37852231706509
B   9.66765027684385   9.21679460159204   11.83342886967016
B   9.57981398000235   12.13920513215176   9.43682454459207
N   11.96405202435859   11.21497879807394   7.03605443849004
H   12.39305848319595   11.91795820590741   6.43589704764280
H   12.05158058207481   10.29417890988970   6.61000131065239
H   10.59096917916821   11.37095164880087   7.68162157704899
31
F:    ...  E:  1.13544987
W   13.83752805396221   9.11948947460995   11.99450220548708
W   12.86008164447226   11.58058723412059   11.65605358133092
W   15.42475876650465   10.99092718115068   12.86702195510894
W   15.10796547805507   12.87247251096092   11.19629838080578
W   11.57909038559126   9.50488751574712   13.13626053509044
W   13.51445543687290   10.96783917233769   14.32778734084397
W   11.11989602831872   11.97160468221930   14.07251090526802
W   13.74870979417473   13.40111903828908   13.31230078718201
W   11.37116072569735   14.01887222793153   12.56762593778932
W   11.17331216851629   13.69031046009485   10.10381915280019
W   8.96628275173881   13.36810968648347   13.56590078002676
W   8.70818974485781   13.60768904322939   10.99412620406222
W   10.17780992153561   11.58158199351671   11.62843179744566
W   11.82032244371886   11.29962345637711   9.01735275640084
W   11.57807011229514   9.15353950249493   10.55999111667938
W   8.99672328276496   10.38818402103914   13.62305000920626
W   7.34705161583155   11.86628316737142   12.46379173243047
W   9.41346243395412   9.87453395178500   9.65337006586569
B   14.07049719049094   11.57874188450883   9.60364076859559
B   13.23391018343228   13.02193816847771   9.75397676881948
B   13.56082697115652   9.99656728480480   9.92584937615880
B   14.89403191982807   10.66110073131039   10.73573919066774
B   13.15207928787588   13.97626638197294   11.17965834853685
B   8.24306492538785   10.14659897081902   11.47716792779065
B   8.16938812446493   11.56213864278353   10.37979953318828
B   9.67328759643615   9.21779945845834   11.82682519957102
B   9.61255065831439   12.13225920747268   9.40628998835654
N   12.20138586728822   11.12207456639859   7.03110830523232
H   12.41267822053484   11.86853604816811   6.35228249792663
H   12.30049334732064   10.21473454552358   6.57702707726555
H   10.36944898228223   11.63951836925624   7.97238683711082
31
F:    ...  E:  0.422567709999953
W   13.83009409954881   9.11714438744086   12.00100238561256
W   12.86762604061897   11.58770823710197   11.66773755355490
W   15.43997721242793   11.00787448175442   12.87387831253405
W   15.13262762030006   12.87579236010844   11.22403790265909
W   11.57316163161768   9.50008687055691   13.12821082074433
W   13.50670385142950   10.97456115118895   14.33276057845252
W   11.16041798646825   11.96419036087717   14.04389399464781
W   13.76632361101631   13.40489866871654   13.31918012549598
W   11.38644508431987   14.03491858128160   12.56220500648337
W   11.20824182771991   13.68539217758618   10.11480918512552
W   8.95127071693729   13.33813431662647   13.45940361875789
W   8.73595655579482   13.62649304127109   10.94063625009607
W   10.19506957568918   11.57619661306516   11.57829714189266
W   11.84983010915464   11.27656148719859   9.00521682590622
W   11.59143831246805   9.14565870497533   10.55651422901852
W   8.98139967434658   10.40733609466925   13.58710449226810
W   7.31741995865009   11.85386798608671   12.42431292592396
W   9.41233366489732   9.81516419185048   9.65079371911521
B   14.08770188896123   11.58232723080543   9.61878197486598
B   13.26450517171064   13.02419293684752   9.76096960131180
B   13.56841842169880   10.00150792869345   9.93053565164212
B   14.89410306356012   10.65953042304750   10.76395974255509
B   13.16818817467421   13.98230434129345   11.18697719031840
B   8.26121780389893   10.16187032893504   11.44817756003801
B   8.16423939757112   11.55610784739180   10.35305690507175
B   9.68573816503814   9.22420334468651   11.81449815061190
B   9.57979158298121   12.10363557058628   9.39301435948030
N   12.17901860749949   11.03509031591041   7.05212367998402
H   12.29621890555464   11.80483678090350   6.37974175830314
H   12.43106945820513   10.15417358152507   6.59126750262249
H   10.04682935365895   11.92823780909305   8.23188759439127
31
F:    ...  E:  0.343341129999999
W   13.82077916810577   9.14021592644196   12.03037524442879
W   12.85671210194966   11.59463642546026   11.69233437227657
W   15.50463102531429   11.05748237837320   12.89892243935078
W   15.15597471210791   12.87035252892373   11.23345144099027
W   11.54115118353045   9.53134462740713   13.13103373723326
W   13.55988960926561   10.99478251867690   14.33796621952730
W   11.21238884251383   11.97371659024230   14.05659729680006
W   13.84035616148438   13.37940952996496   13.35218481311038
W   11.41689946554887   14.07013964868499   12.59446466893707
W   11.20637401362706   13.67109747676303   10.14125280359036
W   8.99456590695627   13.29515496908273   13.40423781475916
W   8.74272767646058   13.61945927151547   10.94298845021812
W   10.18861650639367   11.57919756619119   11.52657557995691
W   11.87790285010693   11.25178874527590   9.03066565914623
W   11.59301178374088   9.12709477247627   10.56828015366924
W   8.94630468345343   10.40196878839651   13.55719226036509
W   7.25042253406434   11.81798339535016   12.41546337902384
W   9.41085624741292   9.81893247211744   9.63786899165101
B   14.08827425267909   11.58594633066790   9.64147937229241
B   13.26750097806964   13.02084061012803   9.78743005473744
B   13.56416308057874   10.01276959871170   9.96378737804720
B   14.89584276376898   10.66688658617426   10.80866712145500
B   13.18261030825912   13.97526333766196   11.21248916692048
B   8.25787026007526   10.14248199127924   11.44998866611279
B   8.15529154595067   11.54849466918855   10.37278609221284
B   9.68858190316137   9.22331720109580   11.80276295980749
B   9.48907815325780   12.10169160531441   9.39038480465059
N   12.04847190837461   11.02357623859459   7.07328477344250
H   12.01990328594217   11.79593563371877   6.40564985515853
H   12.31071161038821   10.16083701994838   6.58667653665619
H   9.74146752635499   12.05141641173551   8.16899440864740
31
F:    ...  E:  0.265901109999959
W   13.83115277610121   9.14136505998255   12.03639610669367
W   12.85809719462224   11.59511286273087   11.70324336685680
W   15.51228677316310   11.06306421594753   12.90820667183730
W   15.15780898307270   12.87179182414635   11.23986076538452
W   11.54983752927145   9.53268243451330   13.13336001119586
W   13.57402448735273   10.99483212109779   14.34179210619227
W   11.21123990955002   11.97992124281425   14.04454162226694
W   13.84691595275775   13.38130156932826   13.35908240522016
W   11.42677849575458   14.07886882566102   12.60801209663148
W   11.20185208101772   13.66093622014420   10.15569751148159
W   9.00225511837564   13.27935966646013   13.43219140345336
W   8.72819644766379   13.62341451306055   10.97664043346254
W   10.18806477302197   11.58019862177869   11.52074987755418
W   11.87865461812611   11.25913967652888   9.05420798411585
W   11.59703855611790   9.12399848933853   10.58290249957526
W   8.95270066387937   10.38925854360901   13.56546541764603
W   7.25131082401569   11.80177519626029   12.44524962110885
W   9.40842943915130   9.82564776186576   9.64552007599281
B   14.09206321570620   11.59036697411551   9.64694205209244
B   13.26831286699278   13.02236307540670   9.80064258504112
B   13.56832998857825   10.01545498272354   9.97611546638250
B   14.90153431194235   10.67071572937712   10.81854022288003
B   13.18274007822907   13.97585531734955   11.22177347727077
B   8.25389988336413   10.13505113060022   11.46281195763734
B   8.12777887142667   11.53658278237801   10.40587726095309
B   9.69483897902414   9.22728776086573   11.80956534860076
B   9.40234221806270   12.12250087522409   9.35669288776189
N   11.89744990741837   11.02238025518140   7.09274087493826
H   11.69247701825704   11.76496544933986   6.42654267631405
H   12.18617641056826   10.17808183718424   6.59470472160138
H   9.45349142445450   12.18456180914620   8.14281763519355
31
F:    ...  E:  0.233944839999992
W   13.83958169563484   9.13662515138383   12.02704566201542
W   12.85621165082892   11.59176551743667   11.70466728840352
W   15.51031193272122   11.06569800801624   12.90666938942261
W   15.15023894583814   12.87467259615103   11.23759371912161
W   11.56968484871842   9.52063078969292   13.13342998718304
W   13.58051297434998   10.99149944380506   14.34105474499738
W   11.20950946128759   11.98748105712366   14.03426847050066
W   13.84520976771797   13.38200746976420   13.36092332147355
W   11.42865978688068   14.09198357038948   12.61956907617472
W   11.18289557117341   13.65490477963266   10.17047382473735
W   9.01264894289442   13.27242908032238   13.47202525913089
W   8.71881102331738   13.62188744416184   11.02153176952045
W   10.17889643754875   11.58572916456674   11.51582155897088
W   11.85652165983937   11.27277374482201   9.07249136406283
W   11.59670517335837   9.11993294123977   10.59250428852912
W   8.97046624575943   10.37024540303456   13.58368344468505
W   7.25739513185285   11.78713148698991   12.49136900590839
W   9.40380590081930   9.83760441752126   9.65438471519937
B   14.08250000444385   11.59507859789565   9.64260553160947
B   13.25895560815569   13.02529870962654   9.80890823819368
B   13.56273357118940   10.02008679614788   9.97364627561051
B   14.89719232185396   10.67607687108392   10.81441798904012
B   13.17317334522839   13.97647322214297   11.22926496581522
B   8.25266236442390   10.12513035382765   11.47868976964645
B   8.09827829333409   11.52919559899152   10.45009334419536
B   9.69781399236961   9.23473959981893   11.81837480461135
B   9.30646456327564   12.15075939922612   9.34233340605642
N   11.75486008064568   11.01759830920582   7.11192412542232
H   11.37805502285736   11.70503113219828   6.45620028091486
H   12.09735948074665   10.20302703514478   6.60435461236382
H   9.18652295621126   12.33694509513514   8.14761812344275
