31
F:    ...  E:  0
W   13.06088512220742   8.76053681873589   12.12964631416252
W   12.03738907815218   11.24729119131358   11.79787463175684
W   14.60940303320584   10.63457008247859   13.09674996438024
W   14.44591013151136   12.49537204574749   11.40475842716851
W   10.79169951767694   9.19589976686199   13.18312842398091
W   12.64494990452254   10.56959996897920   14.53098113271442
W   10.27327148126179   11.65369913774748   14.18205844407678
W   12.94972743871442   12.93431989705276   13.49794456634189
W   10.61752001453212   13.73096856649574   12.71573287550942
W   10.46480163651385   13.48021618304300   10.23578541657592
W   8.16232524552550   13.05543380947929   13.60340077061189
W   7.98521170344030   13.38001366902511   11.05170529544155
W   9.40685730203661   11.34190626015121   11.72094870658371
W   11.02657562971130   11.06219672342699   9.37702830758641
W   10.85830483025509   8.74883559423814   10.64879082826972
W   8.12905717099019   10.08810835772792   13.61007835510485
W   6.54915477263286   11.56550850591219   12.42310139681160
W   8.74753891351632   9.63940990163183   9.63622947097077
B   13.36290065893264   11.28645812227131   9.79058688672108
B   12.56797419325291   12.74830486799654   9.96411069361874
B   12.80416577367132   9.70792919643380   10.09351686308186
B   14.14937542880121   10.34319032108039   10.95835827226370
B   12.44384785831769   13.66865623161215   11.39999464531235
B   7.49525618579561   9.88934647489635   11.42223589064468
B   7.44742700857694   11.31269035408980   10.37997976046416
B   8.91174022159267   8.97742354591317   11.81502688418839
B   8.86628732547777   11.91453041853589   9.51733838441520
N   16.45389996736832   13.44918588047972   10.90627890957639
H   16.88917781896452   13.73212922206228   11.78984298985989
H   17.07409114364700   12.76054303644108   10.46806866902343
H   16.41894303213115   14.27139539107516   10.29438736571823
31
F:    ...  E:  0.0339406700000495
W   13.06819242844720   8.76548408372112   12.15773470575813
W   12.04696776417340   11.25417777059136   11.82974503236895
W   14.61512236662663   10.63570905696148   13.13002489456098
W   14.43368262880733   12.50256941571164   11.45171898401298
W   10.79907024803631   9.20853881157272   13.21023888494500
W   12.65408084468864   10.57055632113979   14.56059350281117
W   10.28570991949375   11.67215669120534   14.20533125321733
W   12.94282009708058   12.94720099163689   13.53644612988269
W   10.62807116921188   13.75634257472757   12.73322718920256
W   10.48060506396754   13.49668768837432   10.25364669249278
W   8.18993202206475   13.08592733676440   13.63496019492045
W   8.00764953998468   13.40119716382235   11.07344689611637
W   9.42031670942231   11.36106474449653   11.74346113866169
W   11.03887576276030   11.06982345022661   9.40406496294782
W   10.86222455047376   8.75891567417964   10.67698096342173
W   8.14602491598702   10.11471540296608   13.63812501028981
W   6.57098019304606   11.59863712866294   12.45085671961745
W   8.75302303789723   9.65500467069400   9.66579866058216
B   13.37632270371023   11.29352939976907   9.82166508986221
B   12.57723199270572   12.75501106883473   9.99364230129012
B   12.81287290929672   9.71486708857076   10.12397925591385
B   14.16003053408632   10.34767390256567   10.99166907039887
B   12.45295169513618   13.68220745095621   11.42707642694097
B   7.50215550783372   9.91467613037508   11.45045134205725
B   7.46142602180942   11.33677583869879   10.40469113703724
B   8.91612288650636   8.99663402415808   11.84279309204774
B   8.88375330827501   11.92905119822055   9.53862988059647
N   16.39153032999987   13.38679259396156   10.76621403254295
H   17.04813403488528   13.44905986346525   11.54360025314147
H   16.75668196186211   12.68850895617069   10.09036038111864
H   16.36310639466016   14.29617304973540   10.29449546417851
31
F:    ...  E:  0.206309990000022
W   13.07897006979039   8.76878337546256   12.17489253571721
W   12.06571221374587   11.25527530108401   11.83928907053365
W   14.63152798311623   10.62922354291686   13.13582475678458
W   14.43581390533008   12.50145267519406   11.49203232240221
W   10.81205613755893   9.22606546270358   13.24156644245162
W   12.67115210692345   10.58765925463804   14.58214588326163
W   10.31615723727288   11.68880959162404   14.23102986777308
W   12.94499283770008   12.95796401133432   13.56771490909341
W   10.65203837590348   13.76598926109305   12.74582670319290
W   10.50536958544332   13.50897740864584   10.26295226972595
W   8.21531958785140   13.11597549489170   13.65114642732754
W   8.03807580367225   13.42843219288262   11.09128756580733
W   9.44274314754349   11.37869465006824   11.76824537235098
W   11.05161227710634   11.07192093950272   9.41789581506135
W   10.87132454997825   8.76815583541896   10.70544280495607
W   8.16794223593391   10.14380630362028   13.66786692194974
W   6.59407183158915   11.63075695300563   12.48175852181705
W   8.76356120766376   9.67230203412264   9.69743589178058
B   13.39333433879166   11.28696321347443   9.82842956122638
B   12.59460256058652   12.75091917629181   10.00249922443025
B   12.82466037062645   9.70775513292533   10.13339120817415
B   14.17678357627093   10.33822826706784   10.99781723998517
B   12.47068303700619   13.68346438285516   11.43420489632732
B   7.52193752384724   9.94430079770481   11.48460521381604
B   7.48480897750204   11.36490097632594   10.43335630159220
B   8.92961840722914   9.01590676814817   11.87494149677805
B   8.90860097901701   11.94623915843901   9.56130489082191
N   16.31319662522765   13.36273021816913   10.68258209928010
H   17.14837261308221   13.19925373352375   11.24848221248260
H   16.24877278173081   12.64640589108739   9.94402454597782
H   16.37185665789575   14.29835753871352   10.26567657005818
31
F:    ...  E:  1.33740249000004
W   13.08618356929752   8.77982126806187   12.14096067004784
W   12.09792983019870   11.26547818681060   11.80273638662894
W   14.65102510869735   10.63585305297179   13.05921799358208
W   14.56942669823168   12.50926515753036   11.28999842495061
W   10.80908729488881   9.20550866431739   13.23959039953098
W   12.66410311564118   10.60223613635832   14.54165626471904
W   10.31879972084917   11.67160859243189   14.20619334915022
W   12.95383190135786   12.94007495290588   13.52846279613631
W   10.67429354526408   13.73606501284402   12.74952377262301
W   10.50637766952206   13.48346130242112   10.24187321610951
W   8.18278318190124   13.09970973371786   13.59637664129186
W   8.02638383229339   13.44018302122422   11.05944581079106
W   9.44580475532830   11.36958441532238   11.76351872417338
W   11.04771434155992   11.06337711712758   9.38669587870637
W   10.88053077700062   8.76913486367616   10.69669328675941
W   8.17496338908028   10.13379750768270   13.67503937582657
W   6.58291926641939   11.61683297801151   12.47525595290596
W   8.77606089490065   9.67848384807634   9.69109280538902
B   13.38068944385986   11.26543561912862   9.78756845054538
B   12.60540952917776   12.73845167000846   9.96393572901614
B   12.83289516719644   9.68344275451102   10.08219279898902
B   14.16403451492384   10.33235119102726   10.95293911948784
B   12.48145308360035   13.63812972541534   11.40281675262871
B   7.54018194305197   9.94642668272638   11.48260282890132
B   7.49126772708316   11.36721353642412   10.42944724408118
B   8.93538393890750   9.00367269699211   11.87476590378166
B   8.91149680754222   11.94950222023228   9.55396729287916
N   16.24713617763511   13.74323890957763   11.06841800543735
H   17.14334267836869   13.36326854650702   11.38314857524531
H   16.03399459654353   12.27283323667743   10.25879623793007
H   16.43016504261363   14.34122694221644   10.26073885469120
31
F:    ...  E:  0.612357990000021
W   13.11599037563755   8.86725403101457   12.18588579054533
W   12.11749127502151   11.26342342651738   11.74564481359378
W   14.63301569344947   10.71262737293251   13.04331261266820
W   14.64973553514337   12.52261540010321   11.12674504488753
W   10.78511157821034   9.20294240035860   13.26763114177590
W   12.65605978538284   10.63501544276884   14.57228093915454
W   10.28751292683256   11.64780836208910   14.22235298529132
W   13.00076172024904   12.90306240539691   13.55996901755911
W   10.71759949167735   13.65388329429307   12.70104453962719
W   10.55990012102428   13.48256795838250   10.22208415032435
W   8.17691240986897   13.10111658638345   13.64680464926366
W   8.05518202265308   13.43353793008714   11.07006390171821
W   9.45905651702828   11.36190870271047   11.77279838242849
W   11.04657796430100   11.05618004520787   9.36770697839110
W   10.86810921038745   8.78648184398675   10.72735437945189
W   8.20582005737125   10.11883353847583   13.69493617326041
W   6.61404848510223   11.68382472244719   12.45684626007043
W   8.77921945435066   9.67951765320127   9.69474963793491
B   13.36678477934290   11.22137217482639   9.70086867545759
B   12.65339145511137   12.72249724419321   9.91673991851614
B   12.82570006838293   9.65893035044450   10.06803401685430
B   14.16927616749421   10.35334979308961   10.91438978560602
B   12.58044247317418   13.58078088712192   11.38880626285941
B   7.55184540861530   9.96890352237978   11.50032299910289
B   7.49488096758557   11.36078975980981   10.41644275698230
B   8.91626113766692   8.99176704567583   11.89345608267019
B   8.91478276601808   11.96804831796182   9.56641961172629
N   16.20015890914623   13.83433095246593   11.28753444712962
H   17.10902905759872   13.50574029063030   11.63288739954018
H   15.72391645121938   12.01035383997033   9.85535244288939
H   16.41109527788948   14.35620424800997   10.42620374565588
31
F:    ...  E:  0.537342360000025
W   13.12983220804281   8.88187671905223   12.22350134363260
W   12.12050570011812   11.25877213156737   11.75595060127184
W   14.63985934402309   10.72291821987467   13.08180148529582
W   14.65283827432914   12.53634617988656   11.11669475860872
W   10.78501159563119   9.22380737715610   13.28404068213555
W   12.66212791775997   10.63937018839547   14.59116092677527
W   10.29570175902133   11.66300458818084   14.24978484490763
W   13.03375646827090   12.90484820358440   13.55496459793536
W   10.75304240819329   13.66551573616178   12.71921498910326
W   10.58412810765028   13.47766577821431   10.24264982338010
W   8.21726599598708   13.11976568493311   13.66626325723611
W   8.08887747067752   13.44828162341709   11.09559192361735
W   9.47103146338912   11.37452761508645   11.78913610901073
W   11.06773216742420   11.05179068044621   9.38105348554209
W   10.87732419843809   8.80259574641768   10.74661027428683
W   8.21666222999494   10.12655064423726   13.70903187410458
W   6.64195494005234   11.71347443127696   12.46268856308964
W   8.78473406911058   9.68275360046955   9.70698231095849
B   13.36802595751514   11.21592043491353   9.71408352351070
B   12.65619712251054   12.72817932939213   9.92614548111119
B   12.85948156405018   9.64951126968504   10.08897244975227
B   14.16894943207134   10.34897704165392   10.96215515522949
B   12.61550858749563   13.60298179919683   11.40500881315636
B   7.55588939109409   9.98228266393504   11.51298777954164
B   7.51139290077304   11.37454634401621   10.42664002362151
B   8.92142949734582   9.00881366025583   11.90594777613388
B   8.92734020824250   11.97263585906284   9.57700453733374
N   16.27674478271067   13.70303506348422   11.18219457497720
H   17.20566800455118   13.41684747425098   11.51570035919559
H   15.13876715467806   11.91725112864213   9.57880188183791
H   16.41788862178486   14.43082232608920   10.47290533664335
31
F:    ...  E:  0.274004160000004
W   13.09479597473930   8.79870704962977   12.20552229022540
W   12.17497072960042   11.30984817496040   11.79388119794327
W   14.68284844168648   10.68924119698405   13.14303345321927
W   14.62800300536361   12.54409706964792   11.39320626462619
W   10.80777829687561   9.20717685737900   13.24177375536484
W   12.68243131668169   10.63861582336305   14.54631029575646
W   10.35538813388450   11.67808018560504   14.18791954729751
W   13.02501487628235   13.00587625578601   13.56667315773601
W   10.75860003647569   13.77558694374550   12.77295261312395
W   10.54114230562259   13.48221913078089   10.30288967624112
W   8.23275148513705   13.08626917343481   13.62346252657007
W   8.04588569842053   13.40714477452777   11.09428611904723
W   9.50930301000610   11.38816296479527   11.73321360850631
W   11.12212560673126   11.07879465188779   9.37765578212220
W   10.94204784633291   8.85184898999022   10.68406815186541
W   8.20731836568504   10.14539307605335   13.64428848921649
W   6.63136614956347   11.66261394124808   12.43546664991296
W   8.80382440799859   9.67593138273475   9.66910530237899
B   13.48451963870812   11.30066423053101   9.76992843363242
B   12.60199440799253   12.78793692878703   9.99070639705928
B   12.95185128922468   9.67080715616158   10.08567943676558
B   14.20258972529991   10.29414326908866   11.06847365134182
B   12.58234466631105   13.67005742124498   11.43734072194254
B   7.57939778979530   9.95306646602256   11.46992135712030
B   7.52921760640650   11.36400148622626   10.38633037877773
B   8.98434567168736   9.02368811130316   11.84460016382841
B   8.95243606731785   11.94773684199435   9.53620941297147
N   16.26829589861300   13.64554930213443   11.12833788524937
H   17.17254227287446   13.48040542899849   11.57535601998504
H   14.68752468994284   11.73379519456668   9.54200161253952
H   16.40301413167624   14.34821006332289   10.39507519056972
31
F:    ...  E:  -0.106859119999967
W   13.10487495299702   8.80958508300156   12.19308183996231
W   12.08410371598296   11.35887605339417   11.94710560250311
W   14.65604882187121   10.68509530277277   13.19609807804924
W   14.58486847740507   12.58978279429866   11.45657647482203
W   10.81574517680703   9.20315545126466   13.19118732875674
W   12.67964807126687   10.62868893860528   14.55325321822004
W   10.33790294711939   11.74459093014127   14.21419753635172
W   13.07976866761117   13.05528518008469   13.61276952378927
W   10.82400729368090   13.82526749228532   12.85954422011620
W   10.60014599469455   13.45046997641627   10.37663191920356
W   8.21772071203426   13.05103289897214   13.59662740494324
W   8.01672322436630   13.42353839077995   11.07213330114506
W   9.47620728406936   11.35815823615143   11.69661919728414
W   11.16885728186571   11.10890671612511   9.40354052874182
W   10.92181702997442   8.83981049949505   10.65701893128997
W   8.23270500052004   10.15607603483070   13.63897676485882
W   6.58918378280538   11.60851615869844   12.42144735973181
W   8.78562984150963   9.66806086915898   9.66189567685445
B   13.64111363068163   11.34090692919577   9.71569393738469
B   12.68182693680818   12.74924052337271   10.08929231340991
B   12.89127098732205   9.77322514625618   10.16431182651709
B   14.16912525130179   10.39212286236267   11.12740447830483
B   12.59025301034992   13.69321852142877   11.46819363159221
B   7.56378889519220   9.92955398840668   11.46068300886192
B   7.51752965495154   11.34406788759099   10.38550395820175
B   8.96899571068080   8.99651252328650   11.82762110354581
B   8.96058236997808   11.92244849309816   9.51094664240666
N   16.26493636719450   13.58590573401982   11.07349000195933
H   17.15482296029501   13.45104957444321   11.55523072341961
H   14.70294338088827   11.54982426933908   9.12118534143050
H   16.36252211071126   14.35269608365899   10.39740766927921
31
F:    ...  E:  -0.429847449999954
W   13.09669430367964   8.84945114576515   12.22203794438362
W   12.07696242003159   11.39093238893585   12.00317724111741
W   14.67112190960831   10.69431493279436   13.18535615353030
W   14.59399994011454   12.58323227736525   11.40112898441409
W   10.80455668900876   9.21790438256993   13.22011962419374
W   12.72176566368338   10.66636194777542   14.57106410871227
W   10.38586046410879   11.77540818283736   14.24505541355103
W   13.14451517215466   13.09860484167147   13.61339457650036
W   10.86398055518583   13.83770738609929   12.89645847538424
W   10.62411729917102   13.43694576334681   10.40845819648244
W   8.26210074730918   13.05921148984448   13.61791189444887
W   8.06306818956286   13.43048749534825   11.11475891165831
W   9.47242691690469   11.34308423245807   11.71922849808256
W   11.15155443063728   11.10547469840381   9.43051333626997
W   10.88449293490033   8.83804038671877   10.69688710853929
W   8.21934276251096   10.18552099516906   13.66502131055029
W   6.59121502653031   11.63722947260026   12.45355114988357
W   8.75405034433161   9.67160765905472   9.68891353370010
B   13.65427182191985   11.31062839407223   9.62625044718568
B   12.71769918381578   12.71527221090608   10.09267857676235
B   12.84016675565409   9.79591079049073   10.21383085169028
B   14.14829335814257   10.42868995160441   11.10284892705027
B   12.62046253725879   13.68713869751532   11.46846498239169
B   7.54357156425793   9.94305734073962   11.49419840451473
B   7.51818689685171   11.36739145504225   10.42214917599511
B   8.93945979460478   8.99838580164726   11.86352313091512
B   8.95815160773258   11.93236043706854   9.54263059390636
N   16.27786639112881   13.56339906580001   11.02296852502552
H   17.20142933518656   13.30843159673978   11.37231351057657
H   14.50104361128862   11.32990929553330   8.76741951788197
H   16.34324091566238   14.44357482701745   10.50335643763950
31
F:    ...  E:  -0.507222239999976
W   13.09643207623068   8.87213535408558   12.24849164057041
W   12.09611280013182   11.39893719840446   12.00146192216278
W   14.70313692699845   10.69764347116861   13.14804326179945
W   14.60906346657658   12.56034966430770   11.31434543323321
W   10.79948589135825   9.24392650007540   13.26333728424240
W   12.78400442532167   10.70427581748718   14.56551241664189
W   10.45110014324925   11.80142113875271   14.26208817561691
W   13.22026937865875   13.11830720901520   13.57062992992652
W   10.91892320624049   13.84964464657347   12.90481213301181
W   10.63113067453485   13.43929974232878   10.41965306252734
W   8.31845113157978   13.08097034887915   13.65522834008605
W   8.08850969604780   13.45184764502829   11.15694036700765
W   9.48199096884305   11.35279806130461   11.75370080419078
W   11.11645015126867   11.09066915196623   9.45302511500490
W   10.85068995937804   8.82914942733831   10.75198849301440
W   8.21722180992890   10.22571370433621   13.70852908929989
W   6.60589624314199   11.68389736899066   12.50008346060836
W   8.72974045635202   9.68064099445007   9.73472040754868
B   13.57049463560512   11.25953350165068   9.56819681283909
B   12.71373209339869   12.69428921322564   10.06105001976511
B   12.79621572974951   9.77191796407162   10.24001562738230
B   14.13663636289946   10.42486512216322   11.05474422308945
B   12.65193556963292   13.68188595797291   11.44066554843089
B   7.53208831767627   9.97145745486833   11.54423797497212
B   7.51726757784388   11.39381231849974   10.46686750675442
B   8.91938538291357   9.01889927877770   11.91917829339125
B   8.94572126126893   11.94674435236436   9.57979535545203
N   16.30504036199932   13.53960655400323   10.98339518476271
H   17.24492482830058   13.19437959050990   11.18125578942123
H   14.22727836494000   11.16560253834730   8.54792553439706
H   16.36633965086696   14.50104825198879   10.64575033578548
