31
F:    ...  E:  0
W   13.06088512220742   8.76053681873589   12.12964631416252
W   12.03738907815218   11.24729119131358   11.79787463175684
W   14.60940303320584   10.63457008247859   13.09674996438024
W   14.44591013151136   12.49537204574749   11.40475842716851
W   10.79169951767694   9.19589976686199   13.18312842398091
W   12.64494990452254   10.56959996897920   14.53098113271442
W   10.27327148126179   11.65369913774748   14.18205844407678
W   12.94972743871442   12.93431989705276   13.49794456634189
W   10.61752001453212   13.73096856649574   12.71573287550942
W   10.46480163651385   13.48021618304300   10.23578541657592
W   8.16232524552550   13.05543380947929   13.60340077061189
W   7.98521170344030   13.38001366902511   11.05170529544155
W   9.40685730203661   11.34190626015121   11.72094870658371
W   11.02657562971130   11.06219672342699   9.37702830758641
W   10.85830483025509   8.74883559423814   10.64879082826972
W   8.12905717099019   10.08810835772792   13.61007835510485
W   6.54915477263286   11.56550850591219   12.42310139681160
W   8.74753891351632   9.63940990163183   9.63622947097077
B   13.36290065893264   11.28645812227131   9.79058688672108
B   12.56797419325291   12.74830486799654   9.96411069361874
B   12.80416577367132   9.70792919643380   10.09351686308186
B   14.14937542880121   10.34319032108039   10.95835827226370
B   12.44384785831769   13.66865623161215   11.39999464531235
B   7.49525618579561   9.88934647489635   11.42223589064468
B   7.44742700857694   11.31269035408980   10.37997976046416
B   8.91174022159267   8.97742354591317   11.81502688418839
B   8.86628732547777   11.91453041853589   9.51733838441520
N   16.45389996736832   13.44918588047972   10.90627890957639
H   16.88917781896452   13.73212922206228   11.78984298985989
H   17.07409114364700   12.76054303644108   10.46806866902343
H   16.41894303213115   14.27139539107516   10.29438736571823
31
F:    ...  E:  0.0928690700000061
W   13.06589675277354   8.78902204607038   12.13717884188259
W   12.03716736125862   11.27432583610369   11.80934814967150
W   14.60381710197522   10.65759455174700   13.10573552453335
W   14.41309780921305   12.53069117340721   11.43518929753952
W   10.80353708085855   9.23931437765546   13.21090365334394
W   12.64609087129797   10.60792414823482   14.54730532748459
W   10.27422134896625   11.70545933535297   14.20030573551538
W   12.91781726721802   12.98132898768787   13.51907527762791
W   10.60890658559055   13.77592133571311   12.69904513418031
W   10.46644457922704   13.52122939984789   10.22089933174779
W   8.17473174483345   13.12487972664439   13.62496092618437
W   7.99953449055063   13.43071964758176   11.05487739636026
W   9.41719969221334   11.38826302570382   11.73949048038065
W   11.02743116287995   11.08975876615403   9.38786809745709
W   10.85923347283616   8.78253084792641   10.67220885517751
W   8.15526150410115   10.15001138419294   13.64832095125791
W   6.57047990128730   11.63251443770355   12.45558256355276
W   8.74647816573284   9.67674656225227   9.67048217630237
B   13.36517900844838   11.31726938668260   9.79860811021583
B   12.56434408640054   12.77737927223392   9.96929464849486
B   12.80487790691584   9.73856235509916   10.10195603392136
B   14.15282640815873   10.37117676605773   10.96370525544817
B   12.43752218166376   13.70014593335725   11.40470619705026
B   7.50716684704053   9.94574194495550   11.46373726137076
B   7.45537759890194   11.36063090721475   10.40736054492950
B   8.91963058099223   9.02521937552764   11.85301626850867
B   8.87365085960888   11.95277778993069   9.53339995394662
N   16.44071947002213   13.24292670797700   10.83220931387814
H   17.06357592001539   13.43260976293017   11.62796437045577
H   16.76515632973630   12.37537849804625   10.36113737251399
H   16.50829545221709   14.04761525294418   10.18979649200161
31
F:    ...  E:  0.682862580000005
W   13.05540848958567   8.77920375822555   12.11996685888653
W   12.05464523947049   11.26617674449353   11.78009236505534
W   14.63260449217001   10.63258522762960   13.04236989840106
W   14.39314858184358   12.52285628364039   11.41942990949702
W   10.81365172450745   9.27999805704639   13.23378617264060
W   12.69044845790776   10.65341664929521   14.53744505339816
W   10.32287310522016   11.71356400564064   14.23191569845286
W   12.93110885328211   12.99333872257144   13.51049149980478
W   10.62657388132759   13.73479359825436   12.67526925573748
W   10.48558950580468   13.54409041511589   10.18695091229535
W   8.17723041388967   13.15654108122500   13.60357166559467
W   8.03166102245564   13.48320163420300   11.04577884075942
W   9.44910102848175   11.40562232121478   11.75514799420524
W   11.02321333227636   11.09688405549288   9.36799240829531
W   10.85228482690539   8.78764522536486   10.68348776072098
W   8.18631491483709   10.18675990943403   13.68131839369902
W   6.58851864372841   11.66630412970754   12.48673949825079
W   8.75287859142983   9.70966527837618   9.69060115875817
B   13.36051314051668   11.28286990178151   9.76345068958566
B   12.58089679776613   12.75925560319072   9.93062818168788
B   12.79086342830415   9.70600454797405   10.07261855425400
B   14.15528219844899   10.33085018267464   10.91336652658187
B   12.44578675410319   13.67643782818602   11.36520832660395
B   7.54362033577228   9.99145483677901   11.50250963302840
B   7.48465592996139   11.40927842512742   10.43488017974270
B   8.93458124932344   9.04145727931486   11.89044110101777
B   8.90009325243768   11.98996797489082   9.54722223316970
N   16.35500891889038   13.30307272031733   10.92546272147798
H   17.22477655120674   13.32308218174667   11.51622880967951
H   16.27588424161627   12.28421130940556   10.61332922172092
H   16.52645163946457   13.93507965461789   10.11796801993060
31
F:    ...  E:  1.27212510000004
W   13.06419236791482   8.78492693802372   12.11771970698686
W   12.08008791856535   11.27331279121831   11.77505224739974
W   14.66249234772258   10.63658266129713   13.01004850440138
W   14.54405446156705   12.51306552180768   11.31102020728778
W   10.79787872567946   9.24467291685245   13.22938946329809
W   12.70176541854671   10.63934455700198   14.51102695326550
W   10.32218758777470   11.68275595487452   14.21200918425303
W   12.96218107867795   12.96770627183871   13.49566807108340
W   10.63558801644921   13.70849928365544   12.68898835457334
W   10.49147268600846   13.51377400402116   10.19219706166271
W   8.16967952224748   13.12327511010747   13.57895205078173
W   8.01870880560442   13.46123971300518   11.03323162129697
W   9.44391862832095   11.37749971989623   11.74609896216518
W   11.03641949761567   11.07857576527271   9.36461635264301
W   10.85745080591007   8.78298052106428   10.67811017263395
W   8.18214906778126   10.15328959158323   13.66732583844313
W   6.58440542172813   11.63979974988610   12.46550592039335
W   8.76415362696525   9.69540183481077   9.67368757692709
B   13.36473010768266   11.27552272146685   9.75989080276543
B   12.59581556850692   12.74992183657502   9.93673398642849
B   12.81027273198485   9.69261706288874   10.06665456081780
B   14.15442501935892   10.33110698319524   10.90762818730919
B   12.44671601025521   13.65229069638418   11.37116262769770
B   7.54082076715715   9.96631487101749   11.47727763305961
B   7.48613076477627   11.38519805885818   10.41955972310221
B   8.92396505647466   9.00664492869677   11.87094752487996
B   8.90305832103884   11.97165943791235   9.54421308144657
N   16.25716479732384   13.70084117991493   11.08157121861661
H   17.15008661670901   13.46258989297618   11.54070204548342
H   16.18334289810427   12.06397521252008   10.74402666210025
H   16.51035489848352   14.11028375431378   10.17465323973124
31
F:    ...  E:  0.465974210000013
W   13.00863781860886   8.78744244100895   12.12467936240026
W   12.09394311137511   11.28229637926759   11.76316363583777
W   14.66496803556459   10.65500809687202   12.97919075976366
W   14.66037324912817   12.46849681073925   11.20637560612865
W   10.76457191753082   9.23144483051016   13.22275556287077
W   12.74445557893815   10.63853958800883   14.49440270185878
W   10.33030525393479   11.68334124969946   14.20752180708711
W   13.07203227628929   12.96432563458333   13.43596058270406
W   10.70579095253622   13.68201587030376   12.69651633515275
W   10.52949878070367   13.49813762119844   10.21611277091854
W   8.19243708802584   13.13279787221281   13.55147276875476
W   8.02500482829276   13.45765692757719   11.04100225160713
W   9.45964604647231   11.36585181599564   11.73812007835867
W   11.04588101393390   11.08424328516957   9.34724690894837
W   10.83095744007106   8.76033599131624   10.66327200315487
W   8.20284900242381   10.15458129320696   13.67014389892277
W   6.58823937680717   11.63372161291124   12.45754659324913
W   8.75279801435259   9.69417671086872   9.66599979457666
B   13.36117878511422   11.24119354856196   9.73354783530934
B   12.64666928466079   12.73659290569709   9.92446226452939
B   12.77751704363711   9.67233035183541   10.07282991456039
B   14.12531396990992   10.30386564132952   10.90647174387602
B   12.49963843629136   13.65355287849485   11.34585613554534
B   7.54528822450464   9.96702773220480   11.47406257128514
B   7.49388092779237   11.37975506200118   10.42020654979299
B   8.91588734235108   8.99356689495564   11.86473914719387
B   8.90817191167728   11.97175902706943   9.55134503231367
N   16.13638044526054   13.85658100014814   11.13773655615461
H   17.05283716835740   13.57560922967177   11.50456989568690
H   16.18075010360457   11.64237003161180   10.87938444500069
H   16.32976611478495   14.47705120790463   10.34897402939161
31
F:    ...  E:  0.352665510000008
W   13.07557698177332   8.83065064332690   12.12963549696857
W   12.11006511511591   11.28405403771210   11.74039368275941
W   14.65431478947205   10.68586903497211   13.02267193991579
W   14.58897018081758   12.57089642245375   11.21276226929727
W   10.79562095659559   9.24281085381674   13.23704510047556
W   12.69732292154937   10.62512024825771   14.50700541898282
W   10.32451739859329   11.69150687229914   14.20913197794549
W   13.06853834790303   12.96622380607780   13.43030113269057
W   10.71812649718889   13.71513731741802   12.67321429152651
W   10.53262953288497   13.52585627991371   10.17884294147417
W   8.22631704140574   13.12123228853538   13.57999204726194
W   8.05118222371245   13.46945181592232   11.05729512559976
W   9.49460830146533   11.38775529677519   11.74469697536898
W   11.05131646831537   11.10156289268050   9.34147696506903
W   10.85332311641776   8.80004053607398   10.67848226440889
W   8.20826083908688   10.15837683267638   13.67930660858099
W   6.60309145394280   11.65615857905301   12.47375222621121
W   8.77358777196916   9.71371853973172   9.68440745216819
B   13.36150719718380   11.25685407253898   9.69596907017534
B   12.65138624426104   12.75675338059791   9.88721193058928
B   12.80989325075738   9.68618383162340   10.04310470658426
B   14.12430925472293   10.37119132860686   10.90222350351139
B   12.48626544482639   13.64355816822056   11.32884627893846
B   7.57062977399859   9.99031142845810   11.50113976855813
B   7.50899945964156   11.40023143273557   10.43474298324217
B   8.93530509645959   9.01470081796444   11.88669063809801
B   8.91894881910283   11.99393804486769   9.55293544577048
N   16.20552047060522   13.75214237500214   11.07917173175738
H   17.14045098101420   13.45654540905410   11.38937698204667
H   15.77347788579423   11.23146956277862   10.91663746806866
H   16.33160572635815   14.54536739279168   10.44720511888941
31
F:    ...  E:  0.0438350500000411
W   13.19401875774234   8.88754199722926   12.13526936380237
W   12.15807755628670   11.28942115224668   11.76042081436913
W   14.63657026199635   10.69743567688322   13.12853112958641
W   14.52049944805136   12.67187712834063   11.28908062653325
W   10.87245496467902   9.25994610636538   13.20179670757727
W   12.69180346179670   10.61269921841369   14.53527558821738
W   10.27850357463267   11.69382743494836   14.20497120774781
W   12.96120517817437   13.01503728778373   13.46415280980762
W   10.66537858692420   13.74435897358154   12.65737044694828
W   10.49076272075745   13.52728371327725   10.17559122939101
W   8.22627534914376   13.09431400609300   13.62367726871771
W   8.05186835390182   13.43947990985792   11.04535472115696
W   9.50398554811177   11.37750903895645   11.73816467516910
W   11.07896187811832   11.11765427515096   9.35280352925394
W   10.91360583461102   8.84780861891596   10.64906801790918
W   8.22531276589720   10.11231689152316   13.64911718508101
W   6.62787997186759   11.62531684565083   12.46782864841030
W   8.80282645473941   9.68477399254282   9.66337200183681
B   13.34874758378241   11.34920282711226   9.71211642417612
B   12.62199035873400   12.82932709439480   9.90541425811277
B   12.89714129929119   9.74065748534187   10.03068240973890
B   14.25831215984407   10.45370602603419   10.86561890288855
B   12.49292796575435   13.70121201348730   11.35877514187572
B   7.57352638543350   9.94916420020485   11.47829918706667
B   7.51197720785539   11.36038744308415   10.42805130906257
B   8.96979059374798   9.00695756296361   11.85041375101398
B   8.91408173325087   11.96236979588807   9.54374382641307
N   16.19491474443252   13.73101452111100   11.08488062195398
H   17.11059940485603   13.46724075260363   11.47697299866788
H   15.49047993297565   10.90179359815905   10.75307764128043
H   16.36118950554558   14.49403395479166   10.41577709916911
31
F:    ...  E:  -0.304745579999974
W   13.22868401220700   8.93984359022378   12.12393929330921
W   12.10878830940853   11.32339135286767   11.77970486668998
W   14.62617061528342   10.73235763750908   13.07399384665428
W   14.47088403886690   12.70825870266533   11.35180877673253
W   10.88314887730983   9.27426268507392   13.20573193698887
W   12.68850141716653   10.65302439426502   14.53571536913062
W   10.24623272883613   11.70635483421622   14.21334830646924
W   12.88729519727216   13.04948254429372   13.52583103222521
W   10.61356776083748   13.77060496286797   12.65511509315490
W   10.47280731422994   13.54019303495012   10.19215157701139
W   8.20475269470159   13.11928214415471   13.65093463688793
W   8.02790529390749   13.43121242701105   11.03133431859966
W   9.47751086529498   11.38549202011403   11.74673260576171
W   11.09176796078790   11.12165468058700   9.37351905318581
W   10.93707314442034   8.86523354136474   10.65952837377702
W   8.23300240135015   10.11266133359783   13.65582534422153
W   6.63517007060555   11.63993561209683   12.46536047632690
W   8.81339672794674   9.68387984815691   9.66384426475357
B   13.37395070735424   11.40793072055217   9.76703805799615
B   12.60257465290199   12.85365725462681   9.94407706767173
B   12.92382702217409   9.79903426869576   10.07551460844302
B   14.43197816302292   10.47581883568869   10.76167979391768
B   12.45992180589769   13.72902789476733   11.39743718205135
B   7.56661548136283   9.94045666680030   11.47558882514663
B   7.49550586773199   11.34525691872715   10.41886086819140
B   8.97557705226441   9.01641571547471   11.85088089294112
B   8.89684990394397   11.95798160775806   9.54619050813934
N   16.19281886102045   13.66192568430879   11.08429355774866
H   17.08463929356128   13.44050529238185   11.54151840319678
H   15.62858194119435   10.55953669389069   10.49007667486472
H   16.36616936007246   14.40099664324823   10.38809393074686
31
F:    ...  E:  -0.554371879999962
W   13.20922614995709   8.95265317505011   12.13552163856720
W   12.09124306116411   11.35233239644082   11.78627586669665
W   14.63222629078870   10.74433454893618   13.01886003792189
W   14.48752382923318   12.67080631720004   11.34300979478468
W   10.87307041690560   9.32230159426099   13.23595359780427
W   12.68876922674163   10.71483725606109   14.53137716818746
W   10.24691514565421   11.75394738958149   14.23415004378885
W   12.89688274233261   13.08259195007502   13.53952154389307
W   10.62446811913700   13.79609343150666   12.65113695935639
W   10.49242162221350   13.55129191691199   10.19170720315210
W   8.21587539263673   13.19084365594613   13.66193353281035
W   8.03715486758946   13.46642412559029   11.03634748461607
W   9.46081673698712   11.42007274425071   11.76753020793600
W   11.08520010216052   11.12279168174944   9.38376210152657
W   10.91518928370344   8.88896501893728   10.69500592090046
W   8.22433065572691   10.17595387475376   13.68995759473840
W   6.64055281734070   11.70666232131569   12.48244142560493
W   8.79145264978289   9.70868066880526   9.69240056289844
B   13.38536861606534   11.39199546064634   9.77293649829961
B   12.61002169141862   12.84901211296479   9.94920462144898
B   12.89200941538969   9.80865225779730   10.09993317817648
B   14.48183306759332   10.40907439398489   10.69046057250803
B   12.47590853752007   13.72419726754373   11.39609146454706
B   7.55085877535813   9.98026289845473   11.50589828118552
B   7.48458900516399   11.37914373248313   10.43291266602913
B   8.95653010160283   9.05480766074714   11.89215554718507
B   8.89437117138321   11.97976760468308   9.55966810797844
N   16.22212336098830   13.58549882041481   11.06510243519069
H   17.12863601109570   13.32650474214600   11.46296451676673
H   15.59486792583364   10.15650099651570   10.31600973977195
H   16.35523275346581   14.37866752718273   10.42543922866162
31
F:    ...  E:  -0.619438159999959
W   13.16794958012476   8.95427688120704   12.15363488707141
W   12.09801967234374   11.36955044709717   11.78995869093580
W   14.63318774962545   10.73525001025248   12.99416202447651
W   14.51312220708518   12.61863484547798   11.30456913498740
W   10.85763595885799   9.37563661231409   13.27462389844667
W   12.69208642903854   10.76460333042696   14.53885424019288
W   10.25222967311707   11.80409239423777   14.26236549129808
W   12.93396385463188   13.10431657926125   13.53009017552436
W   10.65611857693468   13.80356861189715   12.63696153453505
W   10.52390558701758   13.56629017927803   10.18004717999333
W   8.23710323346937   13.25958064413995   13.67187238403957
W   8.06628341302851   13.51131824446244   11.04381502805950
W   9.46735910452705   11.45066828152793   11.79005665764107
W   11.07351633868877   11.13038388370621   9.38672593140947
W   10.87487234239797   8.90493813714515   10.73238921350733
W   8.21718478748397   10.24623980390528   13.72678071508600
W   6.65148385943174   11.78071615407883   12.50180495467765
W   8.76553680403521   9.74181171629033   9.72147852234131
B   13.38159849353978   11.35185847963475   9.76564345253581
B   12.63602660805844   12.82839869273928   9.93257687997401
B   12.83942727915380   9.79589702914330   10.11451296261957
B   14.44665087543123   10.32891748159290   10.66947460932352
B   12.51847081355147   13.71758689244401   11.38271159710284
B   7.54084555571941   10.03347242772846   11.54109741224867
B   7.49200443998359   11.42866099424136   10.45409879059057
B   8.93314795148089   9.09464748071640   11.93874094874479
B   8.90596615414368   12.00874920508323   9.57530289314572
N   16.25450117939132   13.52537971945772   11.01270617831050
H   17.17575444619918   13.18420810459914   11.28533748013660
H   15.47593649015746   9.83272203448446   10.24276740946842
H   16.36378008428617   14.39329424436504   10.49050826451100
