31
F:    ...  E:  0
W   14.52016745487230   8.74608121512994   12.18909589139758
W   13.48376087831930   11.06507188403908   11.81415059024955
W   16.13185488026034   10.59930632391849   13.00885012687854
W   15.68556213112747   12.46733545515144   11.41896467387643
W   12.12498003062204   8.93809737923207   13.34522167499907
W   14.23202934370139   10.48391647574196   14.53545779994520
W   11.85366749670798   11.27497694020443   14.30681035173985
W   14.33712419162388   12.87915764871817   13.55028459253555
W   11.86686529683707   13.38331693009646   12.76894540270258
W   11.64346147173184   13.35151747215417   10.32256580870625
W   9.50161535137111   12.73905019256107   13.80339833714145
W   9.24272114188891   13.18411987467026   11.21523702959290
W   10.83931513489876   11.04076696028393   11.87559190724651
W   12.30944687031206   10.88017075575680   9.45864954470167
W   12.25243580528469   8.63096460843494   10.77925680621138
W   9.57750787613935   9.80421912905926   13.75423677884546
W   7.95292267982920   11.34896397814129   12.66385527809186
W   10.10327829669059   9.45655557871094   9.75635013110044
B   14.65661357661449   11.19273557445162   9.76947488873403
B   13.77859601636562   12.61003696847565   10.00908735851573
B   14.20177521001290   9.58038180705401   10.08896364464163
B   15.54977869428596   10.25909548188048   10.88046825886935
B   13.66710730342059   13.53199253790779   11.44860510469666
B   8.90162561646097   9.64860446260353   11.61492224441118
B   8.80053339131337   11.08453150353808   10.58248825952956
B   10.29417633277242   8.68726474737350   11.93223929220260
B   10.16967665100402   11.73914557365044   9.70562599289913
N   7.68861635877652   14.59732945710478   10.36307833520442
H   8.10216982340810   15.39178778058501   9.86810154213954
H   7.08953143098022   14.08711458523462   9.70680235289541
H   7.08675280530310   14.96206026107216   11.10888954223455
31
F:    ...  E:  0.0590179299999818
W   14.54520403761303   8.83107749387001   12.20251796200724
W   13.48864444586205   11.12449472340957   11.80468317495436
W   16.15565705941705   10.70993149482205   12.98903337090189
W   15.67642715959025   12.55080345942390   11.38587209538751
W   12.14259899930436   8.97178277113082   13.36352159225236
W   14.26960960118825   10.56002847691430   14.52424894591969
W   11.88153290121266   11.29945187466720   14.31509943756552
W   14.33736484367655   12.95228434151129   13.52978129964923
W   11.86911125181239   13.41537922037291   12.77881422360834
W   11.62909748864852   13.37670977041775   10.33383295385681
W   9.51961948390403   12.69317528875469   13.86727794659670
W   9.26754476241723   13.17637957228210   11.26512931035283
W   10.84664658613176   11.04701623867012   11.89151994908401
W   12.30696191860113   10.91206444761913   9.45890470574983
W   12.27676672728951   8.67138509552663   10.79365627334687
W   9.59120663506239   9.77766637433770   13.76591768284973
W   7.96497445969900   11.33713144365214   12.69714154606269
W   10.11449102848759   9.47046747349642   9.76908492414909
B   14.65633924053453   11.25058881479057   9.75240017206504
B   13.76625298617983   12.66353811264761   9.99269700346536
B   14.21830759389418   9.63667833249397   10.09061091992860
B   15.56251731749421   10.33262240635966   10.87039905755985
B   13.65337471232576   13.59713924840837   11.43000964469766
B   8.91266853151653   9.64281619672286   11.63046490120827
B   8.80419201448501   11.08683997357169   10.60614913823955
B   10.31550783262815   8.69280350419038   11.93939939018450
B   10.16189829500026   11.74807416953725   9.72219032888933
N   7.64382529671261   14.39508443572204   10.32121211975044
H   7.97414633591719   15.10815318299652   9.66918849010433
H   7.05156243972450   13.72434074165088   9.84480213916988
H   7.04161755660585   14.88976086296758   11.04010884337963
31
F:    ...  E:  0.301573870000027
W   14.57124990230686   8.85497971427838   12.18027619945995
W   13.48588689537036   11.16334565956383   11.81768553856941
W   16.18989255288342   10.77401264908396   12.98534658229324
W   15.64482361766376   12.63016054718726   11.36655895478615
W   12.13153972825607   9.01205126521474   13.39697429812173
W   14.32602856279399   10.59027825686547   14.50046350134923
W   11.93459372025486   11.31647192325752   14.30481320340242
W   14.35909762661962   12.99701190215838   13.50639342330187
W   11.84390546644266   13.42132040608662   12.77288586350850
W   11.63785910818785   13.37186400738342   10.32585844315773
W   9.46784191538700   12.62871422554774   13.84322914418224
W   9.28021836507052   13.17770470880524   11.28199770975600
W   10.84371959289288   11.04006994871476   11.87687867415754
W   12.31308167994055   10.90510310037265   9.45941355945887
W   12.31047244120327   8.66123622348505   10.83297671573480
W   9.54165830060940   9.82236856517700   13.74540037994333
W   7.91200212704326   11.33118851598013   12.61789342220245
W   10.14304201864280   9.45714447106459   9.77851657409276
B   14.64710325220523   11.28594491338904   9.75380543733542
B   13.74834445245527   12.69052963630604   9.98291867394432
B   14.22014215448519   9.68074972015376   10.10939318339965
B   15.55915596200968   10.40071030032535   10.88066776250022
B   13.62752928688214   13.65101385579702   11.41125541694225
B   8.91260594908859   9.62499100519609   11.61252335312895
B   8.81012291392357   11.08546252966391   10.56537379828146
B   10.33090333118341   8.69893962148115   11.96972859183507
B   10.16730666297434   11.73034580363695   9.69013944939441
N   7.62226792980197   14.39742934938223   10.39787884973850
H   7.84825070066069   14.95139928465679   9.58363018064477
H   7.28180205407159   13.44695119085221   10.14724623605585
H   6.93322127162324   14.84617624187027   10.94754642225852
31
F:    ...  E:  0.99903286
W   14.55985668971619   8.80432089026320   12.21237136248564
W   13.46154831307077   11.09902448238095   11.81419092977322
W   16.13563681435360   10.69112336454077   12.99189217063091
W   15.64585175050522   12.54128920040145   11.38938874815287
W   12.10961469474280   8.97569519319191   13.38236436846177
W   14.25149043095542   10.56691025191512   14.52851881779191
W   11.88678740630279   11.29578077234658   14.28660257163713
W   14.29005546258256   12.95895162330610   13.52609364548262
W   11.81902447015782   13.37127127762926   12.74920023986849
W   11.62152128537906   13.30228338664525   10.28442225081963
W   9.47038829873012   12.61784331641930   13.84677998434637
W   9.17930442459505   13.17177665690905   11.16709120349632
W   10.81281045102702   11.03274733912351   11.84413750979042
W   12.29525122974696   10.86389996690345   9.45033035648058
W   12.28503434078984   8.62993138794128   10.81927635653408
W   9.56996286606611   9.77304191843842   13.72341056115525
W   7.94636307432346   11.41877257261429   12.55998449837110
W   10.11562825189228   9.42000154606858   9.75247112140414
B   14.63446625229416   11.22322823767480   9.75963198945085
B   13.75489785378775   12.63615439776816   9.98507399360773
B   14.19510922652441   9.61650005783032   10.11099220184577
B   15.53842906814773   10.32084195355915   10.88488746207802
B   13.61539525420856   13.55365807741076   11.41944987793633
B   8.91039777748319   9.61942561665837   11.59906467085289
B   8.81444392425405   11.05807148443902   10.52223064563963
B   10.31711164062707   8.66179145944668   11.94195441393457
B   10.14996399343241   11.71757276575573   9.64876649737495
N   7.82662240992665   14.72949063480809   10.54305010577094
H   8.03006909120934   15.36469346186841   9.73516014688805
H   7.52820356811003   13.64309087995221   10.29946704844123
H   6.87442922799420   14.96648536872660   10.86741379243235
31
F:    ...  E:  0.588090550000004
W   14.53009300240553   8.77918769518027   12.21364660722325
W   13.45966035834287   11.09106827756339   11.81264127856599
W   16.11479131257856   10.68582339989734   13.01198864022654
W   15.65166156276404   12.52785649064107   11.38318936974246
W   12.13716394245249   8.97263921949035   13.35808517461702
W   14.25942337168388   10.56206554801492   14.55025179421876
W   11.84413120890294   11.26788107985703   14.29717746840384
W   14.27590629335807   12.93756510395441   13.51380621774380
W   11.78308457556817   13.34574732686354   12.72002844809340
W   11.61984275353513   13.33005618493386   10.26060112335870
W   9.45051127375302   12.67402801395471   13.80260748699832
W   9.04351462341593   13.30400993009170   11.09348326535425
W   10.79662563921771   11.06084247404733   11.83623396523739
W   12.27883237426133   10.89281533648581   9.44022720691748
W   12.26435550854512   8.62673838912668   10.80364003685163
W   9.58723857142536   9.79048974133665   13.75475016637118
W   7.94464294363290   11.40867081890319   12.57527731947343
W   10.13509717970764   9.43139434468701   9.74738440040475
B   14.62765767575370   11.21201628370407   9.75931127259674
B   13.75609458700385   12.62706530666673   9.97972323390434
B   14.17992651293598   9.60216458498419   10.10125223797280
B   15.52795719633918   10.30583965196334   10.88336149333031
B   13.61471744812635   13.52979010921759   11.42144808402252
B   8.91186962180301   9.66136699830493   11.60022283770838
B   8.84735262907695   11.05608294884522   10.55684733814167
B   10.30570795658214   8.68753159950723   11.95442003697393
B   10.13909292315480   11.77808368828419   9.67074720388347
N   7.99708618181264   15.03285839393979   10.67613733635378
H   8.11129848169933   15.46617181805726   9.75542214326077
H   7.47479502620121   13.10042107379183   10.34765344392032
H   6.97553680689683   14.89739771064191   10.76410291106445
31
F:    ...  E:  -0.0448381399999676
W   14.52200703901332   8.77205843907081   12.18852862666665
W   13.43491138199445   11.14521741479911   11.81994046814230
W   16.10919341275885   10.68031247826480   13.02093896892373
W   15.64153668244940   12.54970472614544   11.41965657632108
W   12.20745385791405   9.01644608244301   13.32523629680975
W   14.21162833495939   10.57572497171962   14.53537672699231
W   11.79280465777849   11.39142954609114   14.30342630153535
W   14.26005990776995   12.97200971387834   13.52319535228113
W   11.76303558066990   13.38903664315994   12.70134851868491
W   11.63339822075759   13.29685566851690   10.25430181941800
W   9.41430203255303   12.73737524523623   13.68554339996069
W   8.95842995616325   13.23219449912116   11.02360344457440
W   10.77859410975506   11.07191680433315   11.82194034185105
W   12.29453761171148   10.87826460018213   9.43791103735114
W   12.30539974878970   8.59447561124201   10.75994009846516
W   9.67410022410964   9.81298670336712   13.76589455312226
W   7.92661301494830   11.41195125612859   12.47419152275109
W   10.16752929146911   9.37043000661253   9.74997933448413
B   14.62248053431356   11.24919832255566   9.76270657026318
B   13.74683841178135   12.66202595996056   9.96732647340770
B   14.17857389237306   9.64227771072011   10.09950447256644
B   15.49430025713829   10.35162383550567   10.90988811685614
B   13.61383259713269   13.57307117929744   11.41298454508543
B   8.95366766806558   9.62131005945723   11.61207630743261
B   8.85753285267146   10.96676520601251   10.50187933419607
B   10.37625755519121   8.67066678562144   11.96279123835572
B   10.14619434829289   11.72115280590289   9.65339156411599
N   8.01726960957382   14.97652349197181   10.64558103988910
H   8.27688067189688   15.62213297519915   9.90304040326641
H   7.25650137410134   12.69624118056231   10.62114659171184
H   7.00980470483948   14.99428961985848   10.78239949745442
31
F:    ...  E:  -0.070218490000002
W   14.53506152442324   8.81370321960030   12.19956950273868
W   13.43778045399753   11.12635371520768   11.81303554552873
W   16.10335449191360   10.74772508894265   13.00042961847996
W   15.63467925221674   12.57865375642213   11.37366042546020
W   12.12739747323759   9.01688114794131   13.35869288523528
W   14.25400060488499   10.59347651492388   14.55327828572010
W   11.89382635589642   11.32654830315744   14.27588333205431
W   14.25924730495018   12.96789778868216   13.52329839244480
W   11.72702160693292   13.40630194001125   12.70584999804975
W   11.60267126991087   13.33896874411148   10.26533999255928
W   9.41638992754827   12.69705963378530   13.76729887520228
W   9.05962162654519   13.30685885042440   11.05967082204744
W   10.79663271066058   11.07679541576054   11.80678388083812
W   12.28896816905091   10.88838125126616   9.44156374743123
W   12.29800483919901   8.62695113128828   10.79905945103568
W   9.61310229452694   9.86221662190406   13.73015778323755
W   7.93567648508062   11.49254323391026   12.43111280152490
W   10.14321836097947   9.42885413432420   9.74602856765733
B   14.61303530143761   11.25714640567999   9.76535177231657
B   13.73553122468181   12.66174329621655   9.97653379049784
B   14.17767438177098   9.64301230106348   10.09438492934956
B   15.50105801900414   10.35718127911576   10.89701567386859
B   13.59107329439426   13.56323722952772   11.42820671861739
B   8.92437027792193   9.65380506728392   11.58974862775556
B   8.84709780896340   11.04053490444185   10.46373139848279
B   10.33726276933429   8.68470929143122   11.94346389334033
B   10.14435274048559   11.76190232816962   9.60619078765131
N   7.99250065616829   14.94290493975815   10.61983777215638
H   8.22363141900026   15.62536295537047   9.90107329286525
H   7.44682643621040   12.20519155509749   10.74956128268095
H   6.98460046160778   14.95276749811774   10.75985569610819
31
F:    ...  E:  -0.215512170000011
W   14.49578425785762   8.81797138667661   12.18575293894013
W   13.43412319027315   11.13547087320496   11.80891897508839
W   16.12751881966202   10.73715500426731   12.98730426066359
W   15.63081325078675   12.57143696807341   11.37513991433692
W   12.05961801038544   9.01183553863286   13.34958592325745
W   14.25022497301717   10.56653501249063   14.49628288663824
W   11.86274617448971   11.32063693680790   14.26395428022819
W   14.30929018736660   12.95937756132995   13.51403577527296
W   11.78930109810617   13.44222261171200   12.73412527145829
W   11.60517692003087   13.41970647751496   10.30010186359751
W   9.43134058983569   12.76722124380998   13.77440413040549
W   9.16487969121633   13.34467741326329   11.13563153600026
W   10.78889212569615   11.10591053632370   11.82613928920395
W   12.29274618790276   10.92821453359306   9.44726122694984
W   12.25671090842519   8.66283861470343   10.79346168318320
W   9.52187602184993   9.90768379519874   13.70708340471651
W   7.92598662247123   11.45143359907544   12.55582724507871
W   10.11348195483862   9.49137634718097   9.72337918777483
B   14.61076578612790   11.25905092013259   9.76400107135593
B   13.72776185266105   12.67034489444785   9.98714392376775
B   14.16837723934804   9.65106185045385   10.09676672174091
B   15.50664195826663   10.34284228575736   10.89213351328891
B   13.60322054041041   13.60556811276422   11.42929523058181
B   8.87034719059899   9.68301210705649   11.56891324424256
B   8.81309580234857   11.12240314792036   10.47132521907761
B   10.27606635922724   8.73903392552866   11.91562019033238
B   10.18583953299819   11.79689891662373   9.64324296311525
N   7.97396918682730   14.84430792268977   10.58538636861556
H   8.13958661576509   15.48902623539499   9.81664869099407
H   7.70263871689322   11.86902100219845   10.60407729147956
H   7.00684777725258   14.93139376810885   10.89272532154928
31
F:    ...  E:  -0.295914489999973
W   14.55181194655770   8.86987259594952   12.17372183329735
W   13.45749637375935   11.17400326974717   11.81168820705251
W   16.16983992424293   10.78456382464763   12.97925768825739
W   15.61837297869635   12.64210225345223   11.35314489385013
W   12.07888657917012   9.04282685721692   13.35075736730606
W   14.28566780843641   10.60078495834058   14.48309501821665
W   11.88511410551133   11.33767051489173   14.28355162711267
W   14.33511616134848   12.99232738673193   13.50737775202514
W   11.81390415792898   13.44629742640386   12.74721544736667
W   11.60294219766230   13.42193521554563   10.30120226133303
W   9.39753405802976   12.77882435051212   13.72300129156809
W   9.19217337196845   13.33745304285834   11.16666200091812
W   10.79822422626688   11.11065417311913   11.86117799742749
W   12.29400692211367   10.94272633265004   9.46018943962117
W   12.28729341781287   8.68330039649398   10.82783140702589
W   9.49855120962258   9.92632028319145   13.73151336324411
W   7.88413125906353   11.38898699986761   12.55581641954231
W   10.13240633007287   9.50929504270555   9.75761470950973
B   14.62004307973837   11.29989661326780   9.75302244302236
B   13.71871918420762   12.70667583432981   9.97391288132325
B   14.19247828066301   9.69451133370242   10.09946095966191
B   15.53518939633469   10.41239804815563   10.87939309531963
B   13.59926979522792   13.66015469173072   11.40616067021728
B   8.89371386242804   9.66711213488770   11.59773093960305
B   8.74192117968484   11.11484311701453   10.47850239924281
B   10.29000305361163   8.74584955384361   11.95365281612158
B   10.15602860621304   11.79392044254452   9.68665606622486
N   7.93864145346250   14.73320012356329   10.54469200179509
H   8.09140617970512   15.33304469200090   9.73741279145772
H   7.53297629290335   11.53538166510975   10.46969891037540
H   7.05180615048787   14.95873636846237   10.99055484389944
31
F:    ...  E:  -0.413351910000017
W   14.61993428170806   8.94238584388867   12.19021662733292
W   13.47139209161466   11.21463169262146   11.82028462884223
W   16.18524488416176   10.89725865717866   12.95382807335307
W   15.61414803014336   12.71787674105630   11.33599652361381
W   12.14119086841429   9.09613655563670   13.39356462785370
W   14.33363060323904   10.72055070373237   14.49851718170465
W   11.93455799460905   11.39090617935191   14.27589799047304
W   14.32603619812969   13.09128437189761   13.47366220424884
W   11.77549050050665   13.49249792547712   12.72924895439192
W   11.56218519860395   13.40478490053019   10.30590087371140
W   9.37024412795538   12.70348790201159   13.71150938929965
W   9.11918360215165   13.26693896067700   11.17441783037509
W   10.80245118983570   11.10445138770862   11.86377583440257
W   12.27231261125112   10.94949346810243   9.48497414714650
W   12.33697494667502   8.69804759809809   10.85514700556773
W   9.55638028395645   9.87707682448567   13.73867146418258
W   7.86184419008357   11.29452001564839   12.56354253575672
W   10.15781293518536   9.45982354723864   9.78440256669927
B   14.61016388158054   11.35155954668674   9.75150101264091
B   13.69602230936327   12.74319573081421   9.96660719451798
B   14.21871741614554   9.73738210066880   10.11262218931670
B   15.55844247710753   10.48260121198554   10.86335742328758
B   13.56092666017849   13.70838702626569   11.38603326911226
B   8.94163688072956   9.60169072377741   11.62679258678560
B   8.68944049821905   11.03113070723567   10.49419937041518
B   10.36372943168769   8.72395649168022   11.96944940680633
B   10.08650438238428   11.75474737009980   9.69970863357407
N   7.90937586987994   14.67404584789118   10.49510871745933
H   8.05452027127635   15.22371990464501   9.64842317058175
H   7.42381924696098   11.27372992265361   10.48073892489662
H   7.09135567919792   15.01736968319088   10.99756918458675
