EA38372 15.769 15.144 14.269 90.00 90.00 90.00 Sym.group:    0
1.0
   15.768794     0.000000     0.000000
    0.000000    15.143873     0.000000
    0.000000     0.000000    14.269198
   W   B
  11  16
Direct
    0.605076     0.444004     0.554351 
    0.519066     0.410812     0.356718 
    0.452649     0.327617     0.489860 
    0.298856     0.532674     0.429026 
    0.453117     0.511901     0.492590 
    0.538861     0.635999     0.410412 
    0.483354     0.651492     0.593654 
    0.633613     0.597058     0.668794 
    0.391505     0.691176     0.453866 
    0.635348     0.692091     0.528521 
    0.512374     0.498162     0.687588 
    0.334740     0.405028     0.504948 
    0.372496     0.408254     0.393076 
    0.401603     0.420262     0.607784 
    0.590348     0.322435     0.451894 
    0.569225     0.304885     0.564178 
    0.615514     0.508722     0.387814 
    0.652639     0.404704     0.407861 
    0.501972     0.362751     0.629078 
    0.401285     0.494074     0.330003 
    0.316756     0.494333     0.571768 
    0.403879     0.600530     0.347110 
    0.675448     0.594069     0.431814 
    0.706060     0.488954     0.453260 
    0.701350     0.558927     0.546260 
    0.343371     0.603352     0.561889 
    0.389495     0.535733     0.645882 
EA26057 16.533 15.372 14.528 90.00 90.00 90.00 Sym.group:    0
1.0
   16.533491     0.000000     0.000000
    0.000000    15.372290     0.000000
    0.000000     0.000000    14.528485
   W   B
  11  17
Direct
    0.445629     0.676084     0.504648 
    0.491173     0.583320     0.347248 
    0.426167     0.316303     0.521137 
    0.274271     0.503541     0.440131 
    0.429385     0.564762     0.638981 
    0.561097     0.546386     0.514647 
    0.658151     0.611104     0.410138 
    0.491928     0.422792     0.410359 
    0.652104     0.379630     0.536089 
    0.517144     0.420857     0.625574 
    0.564679     0.558931     0.716632 
    0.551012     0.690300     0.415289 
    0.335954     0.594753     0.526747 
    0.373288     0.594305     0.416114 
    0.360687     0.403923     0.420049 
    0.317283     0.499641     0.580104 
    0.318793     0.400460     0.528056 
    0.385944     0.423574     0.613684 
    0.383913     0.495696     0.360889 
    0.563377     0.305083     0.451419 
    0.696740     0.519919     0.524240 
    0.674477     0.469751     0.424209 
    0.579779     0.694015     0.523217 
    0.599254     0.497929     0.347796 
    0.617093     0.380548     0.393209 
    0.644620     0.493420     0.624798 
    0.535206     0.658723     0.620351 
    0.550852     0.294247     0.564247 
EA38343 15.625 15.479 14.307 90.00 90.00 90.00 Sym.group:    0
1.0
   15.625322     0.000000     0.000000
    0.000000    15.478563     0.000000
    0.000000     0.000000    14.306631
   W   B
  11  18
Direct
    0.518195     0.320770     0.490534 
    0.594488     0.468700     0.604256 
    0.385157     0.359369     0.381103 
    0.307372     0.433383     0.534191 
    0.442933     0.381820     0.634308 
    0.415387     0.634797     0.566081 
    0.644102     0.515265     0.392091 
    0.539443     0.401443     0.325153 
    0.478270     0.481925     0.477988 
    0.413729     0.623830     0.385791 
    0.358125     0.279851     0.528068 
    0.575795     0.332563     0.629902 
    0.293391     0.566445     0.586110 
    0.538281     0.603158     0.643462 
    0.363885     0.509999     0.644854 
    0.468518     0.525485     0.655101 
    0.695914     0.551546     0.528753 
    0.700411     0.441969     0.506500 
    0.556714     0.679006     0.565972 
    0.637367     0.612133     0.598151 
    0.645059     0.376097     0.432370 
    0.651432     0.348927     0.547304 
    0.423044     0.489007     0.319932 
    0.556318     0.625938     0.383297 
    0.621560     0.627684     0.481330 
    0.339290     0.495488     0.397784 
    0.517070     0.542044     0.322127 
    0.508868     0.692423     0.463734 
    0.309882     0.578933     0.473751 
EA3593 16.222 14.831 14.269 90.00 90.00 90.00 Sym.group:    0
1.0
   16.221986     0.000000     0.000000
    0.000000    14.831433     0.000000
    0.000000     0.000000    14.268653
   W   B
  11  19
Direct
    0.543305     0.466323     0.486703 
    0.684551     0.509087     0.405657 
    0.613318     0.640465     0.463398 
    0.528188     0.564420     0.333433 
    0.376927     0.650607     0.396111 
    0.554545     0.516804     0.666238 
    0.664303     0.406018     0.586744 
    0.456748     0.405194     0.321180 
    0.405242     0.494657     0.584784 
    0.318141     0.427921     0.422975 
    0.433339     0.324319     0.489803 
    0.548809     0.651770     0.600252 
    0.685557     0.529576     0.663207 
    0.706066     0.551600     0.550919 
    0.644079     0.623441     0.619479 
    0.496682     0.698903     0.398456 
    0.591764     0.418281     0.339320 
    0.387529     0.529947     0.314779 
    0.454347     0.625119     0.627026 
    0.473565     0.681212     0.513415 
    0.378701     0.635837     0.546299 
    0.549022     0.330295     0.399740 
    0.423356     0.357475     0.635461 
    0.303780     0.563673     0.509344 
    0.576247     0.315358     0.511985 
    0.646573     0.366947     0.436772 
    0.274547     0.466318     0.557110 
    0.329284     0.371922     0.577592 
    0.527700     0.360670     0.612090 
    0.423785     0.515842     0.429729 
EA38251 15.897 15.176 14.544 90.00 90.00 90.00 Sym.group:    0
1.0
   15.897060     0.000000     0.000000
    0.000000    15.176005     0.000000
    0.000000     0.000000    14.543605
   W   B
  11  20
Direct
    0.501026     0.517906     0.479159 
    0.332919     0.492696     0.480393 
    0.466338     0.496747     0.653653 
    0.560597     0.694519     0.491106 
    0.415203     0.655371     0.575385 
    0.393841     0.561721     0.335475 
    0.586564     0.379730     0.673853 
    0.444464     0.358306     0.559541 
    0.546732     0.345593     0.410939 
    0.543422     0.493047     0.304392 
    0.672675     0.471716     0.437287 
    0.676716     0.613656     0.479932 
    0.646231     0.632157     0.588371 
    0.432354     0.672778     0.427282 
    0.331888     0.551155     0.628001 
    0.288732     0.611266     0.545985 
    0.512407     0.632855     0.362069 
    0.608968     0.523606     0.634150 
    0.544611     0.614815     0.614137 
    0.338487     0.439411     0.627237 
    0.332710     0.644656     0.450692 
    0.301674     0.368322     0.555159 
    0.639755     0.365294     0.531152 
    0.706217     0.546712     0.565305 
    0.680853     0.445183     0.593908 
    0.639973     0.399739     0.317181 
    0.331822     0.332028     0.460493 
    0.433272     0.426738     0.364151 
    0.608843     0.595243     0.392748 
    0.415791     0.318342     0.403269 
    0.564914     0.298695     0.557596 
EA21740 16.427 14.283 13.781 90.00 90.00 90.00 Sym.group:    0
1.0
   16.427435     0.000000     0.000000
    0.000000    14.282939     0.000000
    0.000000     0.000000    13.781155
   W   B
  12  16
Direct
    0.538722     0.571514     0.349729 
    0.699239     0.570732     0.384450 
    0.703932     0.538104     0.561677 
    0.370947     0.510382     0.322729 
    0.498255     0.408991     0.310285 
    0.585823     0.438826     0.470849 
    0.537693     0.526987     0.639700 
    0.408829     0.663734     0.570392 
    0.281437     0.447115     0.454348 
    0.432911     0.489524     0.495500 
    0.524899     0.337753     0.600791 
    0.377592     0.315673     0.550676 
    0.598213     0.615933     0.495843 
    0.419518     0.636525     0.407630 
    0.630703     0.648386     0.613839 
    0.640721     0.453858     0.324621 
    0.713312     0.427648     0.431584 
    0.538817     0.680123     0.585741 
    0.503049     0.664762     0.469251 
    0.393886     0.536514     0.652823 
    0.424784     0.420294     0.655362 
    0.329286     0.444018     0.611498 
    0.479600     0.333430     0.448084 
    0.387608     0.367580     0.396255 
    0.312960     0.551154     0.568589 
    0.698465     0.382494     0.541534 
    0.328591     0.597501     0.456493 
    0.640206     0.420446     0.629727 
EA8594 15.820 14.954 14.380 90.00 90.00 90.00 Sym.group:    0
1.0
   15.819546     0.000000     0.000000
    0.000000    14.953970     0.000000
    0.000000     0.000000    14.380239
   W   B
  12  17
Direct
    0.476313     0.636763     0.393012 
    0.558820     0.476095     0.348037 
    0.488535     0.654378     0.574122 
    0.651617     0.647075     0.604289 
    0.613455     0.517521     0.513391 
    0.478586     0.396452     0.658571 
    0.443171     0.495996     0.497785 
    0.335008     0.642172     0.515380 
    0.328459     0.479048     0.617126 
    0.601468     0.726191     0.471370 
    0.693378     0.395370     0.387782 
    0.440964     0.362551     0.389039 
    0.612874     0.615630     0.371619 
    0.421014     0.505174     0.331120 
    0.690925     0.536288     0.383179 
    0.663415     0.380215     0.529434 
    0.576005     0.354994     0.456334 
    0.698203     0.624775     0.458615 
    0.318794     0.402829     0.480530 
    0.579698     0.335173     0.581720 
    0.389771     0.353285     0.547743 
    0.369798     0.612086     0.653541 
    0.287318     0.512756     0.469808 
    0.336360     0.454905     0.378560 
    0.346423     0.568920     0.387215 
    0.442758     0.538102     0.678961 
    0.490055     0.320447     0.527940 
    0.615008     0.428558     0.635602 
    0.551806     0.526253     0.658174 
EA26924 16.462 15.824 14.344 90.00 90.00 90.00 Sym.group:    0
1.0
   16.462328     0.000000     0.000000
    0.000000    15.823802     0.000000
    0.000000     0.000000    14.343936
   W   B
  12  18
Direct
    0.583526     0.411096     0.392166 
    0.508722     0.528008     0.492479 
    0.591301     0.412728     0.605207 
    0.426143     0.413553     0.392331 
    0.427917     0.420420     0.607856 
    0.275825     0.447787     0.386751 
    0.633508     0.571850     0.618726 
    0.387676     0.653144     0.490684 
    0.638138     0.557621     0.355636 
    0.401067     0.576526     0.642406 
    0.378414     0.560124     0.354162 
    0.630037     0.661686     0.477025 
    0.676606     0.377893     0.494983 
    0.592498     0.312097     0.499971 
    0.505727     0.311091     0.563749 
    0.503419     0.303760     0.440588 
    0.705304     0.465858     0.554202 
    0.707825     0.460074     0.429199 
    0.313157     0.488611     0.552878 
    0.416475     0.317689     0.503738 
    0.334557     0.389783     0.504153 
    0.712997     0.554286     0.486464 
    0.509788     0.533598     0.326850 
    0.513524     0.660109     0.582525 
    0.523645     0.614563     0.687961 
    0.510452     0.633478     0.377927 
    0.278038     0.561897     0.460417 
    0.288652     0.591646     0.569807 
    0.506735     0.702017     0.473489 
    0.518327     0.507007     0.675670 
EA38252 16.607 14.303 13.751 90.00 90.00 90.00 Sym.group:    0
1.0
   16.606553     0.000000     0.000000
    0.000000    14.302646     0.000000
    0.000000     0.000000    13.751144
   W   B
  12  19
Direct
    0.440985     0.500460     0.494433 
    0.426488     0.640440     0.646671 
    0.420451     0.637024     0.354506 
    0.421405     0.357836     0.359255 
    0.428051     0.363140     0.651272 
    0.727181     0.500829     0.500596 
    0.570580     0.591190     0.591361 
    0.570142     0.591078     0.401319 
    0.570505     0.407728     0.404411 
    0.570708     0.409912     0.593537 
    0.282899     0.589117     0.417586 
    0.284244     0.407553     0.421354 
    0.315540     0.400913     0.577935 
    0.313950     0.600702     0.575027 
    0.699707     0.395051     0.611046 
    0.698856     0.608620     0.609081 
    0.699047     0.605802     0.387269 
    0.699847     0.393973     0.389324 
    0.364904     0.496995     0.332536 
    0.375298     0.334870     0.508358 
    0.361124     0.501355     0.638965 
    0.374779     0.662912     0.502910 
    0.678428     0.357029     0.500125 
    0.678813     0.502028     0.649705 
    0.676967     0.644254     0.497295 
    0.681684     0.499321     0.348048 
    0.476836     0.337386     0.501493 
    0.469612     0.502235     0.664037 
    0.476471     0.663029     0.496506 
    0.469952     0.497203     0.329159 
    0.274548     0.500015     0.544884 
EA28014 16.189 15.731 14.363 90.00 90.00 90.00 Sym.group:    0
1.0
   16.189279     0.000000     0.000000
    0.000000    15.730691     0.000000
    0.000000     0.000000    14.362935
   W   B
  12  20
Direct
    0.533292     0.281812     0.613874 
    0.459198     0.319954     0.472516 
    0.415685     0.392883     0.632290 
    0.418051     0.513115     0.498501 
    0.480458     0.541550     0.676816 
    0.704214     0.544832     0.445519 
    0.566176     0.434079     0.536078 
    0.627025     0.296717     0.478798 
    0.602688     0.604717     0.559666 
    0.556551     0.526088     0.369542 
    0.491802     0.663253     0.420785 
    0.411368     0.537451     0.302285 
    0.338949     0.379745     0.497517 
    0.358700     0.423671     0.390228 
    0.542175     0.417088     0.688608 
    0.465855     0.649591     0.572763 
    0.371660     0.612916     0.611722 
    0.307042     0.530374     0.384639 
    0.297972     0.449809     0.573898 
    0.278127     0.464110     0.465142 
    0.349077     0.514917     0.643925 
    0.702035     0.410194     0.505853 
    0.610538     0.497680     0.667502 
    0.649700     0.422560     0.399836 
    0.460043     0.418217     0.351372 
    0.685661     0.491326     0.584858 
    0.680762     0.687324     0.446213 
    0.710285     0.672942     0.549024 
    0.363477     0.624958     0.400689 
    0.623822     0.640716     0.370969 
    0.380725     0.660342     0.508826 
    0.556889     0.375070     0.379744 
EA38344 16.726 14.349 14.166 90.00 90.00 90.00 Sym.group:    0
1.0
   16.725968     0.000000     0.000000
    0.000000    14.348643     0.000000
    0.000000     0.000000    14.166314
   W   B
  13  16
Direct
    0.512639     0.356115     0.395856 
    0.510163     0.370598     0.596519 
    0.582142     0.494312     0.483505 
    0.543766     0.636298     0.591571 
    0.425527     0.505671     0.506846 
    0.397314     0.623024     0.653504 
    0.335438     0.356779     0.575658 
    0.283488     0.514064     0.587544 
    0.519662     0.628564     0.392013 
    0.411509     0.490923     0.331848 
    0.687173     0.570307     0.606885 
    0.557916     0.484701     0.289967 
    0.647115     0.328384     0.469070 
    0.485563     0.512207     0.667899 
    0.712183     0.555574     0.458359 
    0.649921     0.572616     0.366602 
    0.640423     0.638923     0.471641 
    0.648776     0.414045     0.602559 
    0.385442     0.629891     0.406841 
    0.376634     0.360647     0.422840 
    0.430987     0.295558     0.498383 
    0.396284     0.457942     0.665944 
    0.305312     0.438699     0.445674 
    0.308118     0.554800     0.433949 
    0.430064     0.674072     0.508200 
    0.335394     0.635217     0.514534 
    0.684176     0.456645     0.390713 
    0.583848     0.493742     0.651110 
    0.713023     0.449685     0.513966 
EA38308 16.827 14.143 14.265 90.00 90.00 90.00 Sym.group:    0
1.0
   16.827227     0.000000     0.000000
    0.000000    14.142723     0.000000
    0.000000     0.000000    14.265097
   W   B
  13  17
Direct
    0.479637     0.365122     0.387210 
    0.484152     0.464295     0.675811 
    0.476584     0.671869     0.446619 
    0.501592     0.533722     0.325060 
    0.518884     0.640865     0.623475 
    0.522823     0.321901     0.557534 
    0.720230     0.486519     0.590330 
    0.712016     0.597843     0.454157 
    0.714953     0.435728     0.422963 
    0.286403     0.580250     0.598091 
    0.295273     0.405760     0.563953 
    0.274943     0.513528     0.430136 
    0.425134     0.489476     0.515410 
    0.345941     0.634928     0.470674 
    0.347822     0.380260     0.420510 
    0.644668     0.609468     0.588803 
    0.649593     0.369058     0.540648 
    0.635683     0.532473     0.346371 
    0.605076     0.527924     0.660513 
    0.590856     0.628417     0.389224 
    0.602015     0.348799     0.437577 
    0.401077     0.586916     0.663243 
    0.397513     0.318304     0.505770 
    0.383978     0.584425     0.370215 
    0.596787     0.663943     0.500575 
    0.595238     0.424259     0.347476 
    0.604689     0.413955     0.635772 
    0.407932     0.344961     0.618887 
    0.380032     0.468071     0.344141 
    0.398478     0.656963     0.568853 
EA26215 16.955 14.647 13.909 90.00 90.00 90.00 Sym.group:    0
1.0
   16.955213     0.000000     0.000000
    0.000000    14.647427     0.000000
    0.000000     0.000000    13.908536
   W   B
  13  18
Direct
    0.415206     0.496861     0.498076 
    0.371956     0.576506     0.332308 
    0.566591     0.674727     0.477232 
    0.576972     0.492640     0.503365 
    0.619357     0.577531     0.336442 
    0.495531     0.463428     0.333238 
    0.711175     0.626354     0.470669 
    0.471002     0.496694     0.669029 
    0.564566     0.318270     0.417713 
    0.490576     0.346819     0.578423 
    0.263867     0.429992     0.527327 
    0.331285     0.406009     0.368092 
    0.707060     0.478816     0.583011 
    0.289970     0.541079     0.441700 
    0.363678     0.603117     0.606059 
    0.353029     0.633097     0.484947 
    0.439928     0.661311     0.435259 
    0.449553     0.645587     0.563872 
    0.541043     0.611181     0.615928 
    0.703716     0.487368     0.418229 
    0.630361     0.428510     0.358719 
    0.497708     0.626356     0.342967 
    0.641018     0.613915     0.597196 
    0.676624     0.383900     0.462627 
    0.367596     0.345147     0.511366 
    0.367258     0.395869     0.621229 
    0.590325     0.415569     0.653171 
    0.438961     0.343544     0.423347 
    0.336221     0.500743     0.640506 
    0.602631     0.529797     0.668711 
    0.625236     0.349260     0.559245 
EA19255 15.666 15.674 16.040 90.00 90.00 90.00 Sym.group:    0
1.0
   15.666089     0.000000     0.000000
    0.000000    15.673667     0.000000
    0.000000     0.000000    16.039532
   W   B
  13  19
Direct
    0.421912     0.485118     0.506823 
    0.372048     0.365823     0.381417 
    0.245701     0.506473     0.559298 
    0.555796     0.535491     0.649343 
    0.568092     0.380925     0.635624 
    0.397349     0.494624     0.661480 
    0.512955     0.328853     0.489257 
    0.581482     0.649677     0.533962 
    0.424602     0.677033     0.478277 
    0.515558     0.584783     0.381636 
    0.521034     0.402396     0.351389 
    0.593316     0.481647     0.485811 
    0.712157     0.455833     0.598586 
    0.347479     0.599123     0.575742 
    0.426203     0.366034     0.602437 
    0.308288     0.491839     0.416543 
    0.322740     0.398064     0.589210 
    0.373180     0.336147     0.512977 
    0.308193     0.589247     0.475142 
    0.291996     0.404792     0.486346 
    0.452160     0.617626     0.599931 
    0.675664     0.593105     0.627103 
    0.672475     0.592045     0.429833 
    0.625623     0.678593     0.400438 
    0.710910     0.581884     0.532240 
    0.375527     0.580330     0.394278 
    0.538162     0.725436     0.420824 
    0.409450     0.491854     0.344294 
    0.716383     0.403294     0.462138 
    0.736009     0.506433     0.465069 
    0.651843     0.346984     0.528895 
    0.635711     0.348492     0.423658 
EA38137 17.308 15.447 14.756 90.00 90.00 90.00 Sym.group:    0
1.0
   17.307977     0.000000     0.000000
    0.000000    15.447411     0.000000
    0.000000     0.000000    14.755912
   W   B
  13  20
Direct
    0.564250     0.591231     0.407959 
    0.565552     0.572875     0.576744 
    0.610844     0.387353     0.614531 
    0.465738     0.478323     0.668656 
    0.453410     0.693381     0.501068 
    0.438847     0.637879     0.653577 
    0.712606     0.446912     0.512760 
    0.408957     0.523229     0.506817 
    0.459553     0.464199     0.343943 
    0.305957     0.433443     0.385823 
    0.298623     0.581545     0.612724 
    0.432810     0.344950     0.446902 
    0.262497     0.586430     0.451709 
    0.547962     0.317824     0.503690 
    0.591091     0.495484     0.700619 
    0.573753     0.710504     0.499019 
    0.584930     0.461414     0.340869 
    0.700573     0.581115     0.563761 
    0.693110     0.575378     0.451776 
    0.654115     0.396204     0.389723 
    0.654419     0.660934     0.502431 
    0.673204     0.509717     0.642445 
    0.638529     0.336322     0.478263 
    0.669823     0.499031     0.381271 
    0.554850     0.366140     0.394923 
    0.491534     0.351894     0.585302 
    0.401767     0.378968     0.587666 
    0.326308     0.381718     0.517712 
    0.269543     0.466980     0.526188 
    0.332259     0.448839     0.616984 
    0.359984     0.653744     0.408088 
    0.444128     0.608705     0.372915 
    0.358475     0.557336     0.353144 
EA38309 16.617 15.169 15.124 90.00 90.00 90.00 Sym.group:    0
1.0
   16.617264     0.000000     0.000000
    0.000000    15.169450     0.000000
    0.000000     0.000000    15.124210
   W   B
  14  16
Direct
    0.526421     0.670517     0.456998 
    0.685114     0.639364     0.420893 
    0.428983     0.508324     0.491083 
    0.533096     0.573669     0.331611 
    0.546760     0.408934     0.363354 
    0.400128     0.350771     0.424187 
    0.387285     0.612595     0.372130 
    0.594402     0.507438     0.490723 
    0.328508     0.565682     0.604734 
    0.285694     0.421678     0.524412 
    0.519497     0.426578     0.626989 
    0.499042     0.606159     0.619045 
    0.755227     0.506519     0.435331 
    0.630135     0.535414     0.660378 
    0.654117     0.507864     0.351346 
    0.423360     0.468160     0.338158 
    0.327768     0.469469     0.388443 
    0.283671     0.546039     0.458734 
    0.404810     0.674722     0.512564 
    0.311758     0.645497     0.488135 
    0.583283     0.350239     0.514076 
    0.523140     0.294156     0.437692 
    0.717903     0.473501     0.567952 
    0.625937     0.646064     0.557731 
    0.645815     0.397965     0.584998 
    0.421848     0.511161     0.681550 
    0.482692     0.314420     0.533226 
    0.397197     0.355808     0.569237 
    0.365385     0.429148     0.642746 
    0.711023     0.582148     0.551546 
EA20590 16.226 16.178 14.671 90.00 90.00 90.00 Sym.group:    0
1.0
   16.226220     0.000000     0.000000
    0.000000    16.177810     0.000000
    0.000000     0.000000    14.670752
   W   B
  14  17
Direct
    0.489483     0.469823     0.528615 
    0.400790     0.450944     0.703936 
    0.498568     0.561788     0.680820 
    0.332394     0.421699     0.529786 
    0.421613     0.624109     0.510740 
    0.411919     0.398275     0.369967 
    0.537675     0.384892     0.686890 
    0.575326     0.441990     0.365364 
    0.552582     0.602554     0.385879 
    0.587106     0.638822     0.553341 
    0.640009     0.498704     0.631473 
    0.633969     0.373490     0.524983 
    0.713260     0.540925     0.370499 
    0.461740     0.711312     0.643397 
    0.297922     0.547174     0.493737 
    0.468172     0.511822     0.314895 
    0.335026     0.541663     0.601347 
    0.423887     0.606072     0.352898 
    0.373986     0.618850     0.662666 
    0.306682     0.482813     0.402942 
    0.333578     0.587569     0.398828 
    0.515454     0.316090     0.559323 
    0.426504     0.349937     0.608140 
    0.425426     0.329007     0.495024 
    0.674813     0.648054     0.442493 
    0.714275     0.578222     0.515627 
    0.731611     0.477137     0.504850 
    0.707694     0.415208     0.414477 
    0.622408     0.515833     0.482193 
    0.367082     0.517815     0.320979 
    0.519040     0.337407     0.443895 
EA20202 17.625 14.129 14.337 90.00 90.00 90.00 Sym.group:    0
1.0
   17.625198     0.000000     0.000000
    0.000000    14.128574     0.000000
    0.000000     0.000000    14.336830
   W   B
  14  18
Direct
    0.392034     0.636360     0.576602 
    0.620497     0.563662     0.645057 
    0.387912     0.469386     0.650054 
    0.620020     0.386478     0.600693 
    0.384122     0.352163     0.519845 
    0.614288     0.358622     0.416846 
    0.388505     0.439399     0.358881 
    0.614688     0.530978     0.353783 
    0.387632     0.616428     0.398566 
    0.613969     0.657454     0.480975 
    0.741312     0.481992     0.607084 
    0.258520     0.415820     0.585465 
    0.735267     0.436135     0.376625 
    0.522345     0.499109     0.499477 
    0.715569     0.373352     0.504779 
    0.285846     0.416475     0.442335 
    0.287759     0.525778     0.390723 
    0.712078     0.563831     0.449129 
    0.288767     0.590228     0.491765 
    0.713806     0.615057     0.555218 
    0.288725     0.557196     0.606125 
    0.487448     0.368730     0.618883 
    0.519306     0.322345     0.518515 
    0.481592     0.344727     0.412042 
    0.516207     0.426062     0.337776 
    0.483870     0.538044     0.326679 
    0.517957     0.636733     0.378110 
    0.485642     0.682683     0.479784 
    0.521745     0.655433     0.586317 
    0.487707     0.573797     0.660484 
    0.522450     0.464280     0.672163 
    0.402419     0.501261     0.499219 
EA38138 15.762 15.839 14.699 90.00 90.00 90.00 Sym.group:    0
1.0
   15.762316     0.000000     0.000000
    0.000000    15.838962     0.000000
    0.000000     0.000000    14.699108
   W   B
  14  19
Direct
    0.406276     0.502773     0.499085 
    0.593713     0.501653     0.499846 
    0.409675     0.341933     0.421397 
    0.412161     0.486335     0.312530 
    0.409477     0.650793     0.390032 
    0.410477     0.666954     0.575015 
    0.413790     0.519635     0.683751 
    0.409825     0.359044     0.609429 
    0.589572     0.341248     0.423076 
    0.589111     0.485228     0.313897 
    0.590868     0.650285     0.390586 
    0.589883     0.666513     0.575102 
    0.586586     0.518533     0.685167 
    0.588179     0.358412     0.611290 
    0.690180     0.394130     0.512343 
    0.690222     0.439881     0.406551 
    0.690085     0.550055     0.393880 
    0.690596     0.611175     0.488161 
    0.688852     0.568531     0.594804 
    0.688804     0.457642     0.606318 
    0.309432     0.395194     0.510683 
    0.310138     0.441341     0.405086 
    0.310592     0.550841     0.392256 
    0.309749     0.612039     0.486828 
    0.311209     0.569152     0.593411 
    0.310449     0.458814     0.604516 
    0.499617     0.413434     0.709713 
    0.500115     0.402403     0.509600 
    0.500316     0.381212     0.318227 
    0.500527     0.587124     0.308338 
    0.500396     0.711656     0.476182 
    0.499871     0.622132     0.669797 
    0.499261     0.283905     0.523101 
EA38097 17.079 15.454 14.790 90.00 90.00 90.00 Sym.group:    0
1.0
   17.079010     0.000000     0.000000
    0.000000    15.454356     0.000000
    0.000000     0.000000    14.789824
   W   B
  14  20
Direct
    0.427567     0.483587     0.501227 
    0.497455     0.525269     0.338965 
    0.641457     0.330225     0.428827 
    0.364137     0.441110     0.331822 
    0.293828     0.523577     0.585173 
    0.495012     0.359501     0.395271 
    0.652841     0.577030     0.344845 
    0.518777     0.725532     0.504673 
    0.495554     0.607003     0.610349 
    0.710073     0.572552     0.496986 
    0.586413     0.479935     0.495539 
    0.546804     0.449289     0.657710 
    0.392013     0.475366     0.694016 
    0.641700     0.336546     0.596825 
    0.605872     0.440464     0.346404 
    0.522025     0.345468     0.544867 
    0.427492     0.324641     0.519315 
    0.365320     0.347590     0.439524 
    0.300810     0.522883     0.426310 
    0.297933     0.422424     0.471461 
    0.348571     0.385507     0.568736 
    0.333537     0.612761     0.472661 
    0.460160     0.622177     0.438826 
    0.698849     0.455088     0.401945 
    0.630780     0.677604     0.448610 
    0.616144     0.653763     0.560112 
    0.624866     0.564583     0.623999 
    0.713391     0.424855     0.515583 
    0.679143     0.473074     0.610749 
    0.549118     0.647936     0.387513 
    0.372720     0.606851     0.672045 
    0.440713     0.368402     0.620775 
    0.380413     0.573553     0.379747 
    0.368513     0.643854     0.568583 
EA38253 16.677 14.445 14.483 90.00 90.00 90.00 Sym.group:    0
1.0
   16.677066     0.000000     0.000000
    0.000000    14.445335     0.000000
    0.000000     0.000000    14.482710
   W   B
  15  16
Direct
    0.571835     0.492152     0.503706 
    0.581389     0.656806     0.618753 
    0.557696     0.380557     0.661671 
    0.289493     0.516856     0.493104 
    0.430188     0.605686     0.554281 
    0.418759     0.419957     0.589124 
    0.429516     0.536078     0.385470 
    0.696038     0.370571     0.424879 
    0.740682     0.526250     0.455374 
    0.533511     0.676430     0.444927 
    0.351254     0.692489     0.439856 
    0.489843     0.535478     0.701879 
    0.332557     0.556111     0.686588 
    0.706581     0.421501     0.588921 
    0.347947     0.364846     0.406700 
    0.641980     0.604104     0.393772 
    0.684907     0.573158     0.587474 
    0.301124     0.591420     0.358068 
    0.303823     0.647779     0.573185 
    0.288462     0.436863     0.624702 
    0.612059     0.326047     0.533835 
    0.645301     0.490055     0.357598 
    0.659352     0.647341     0.498542 
    0.303324     0.480716     0.344083 
    0.299336     0.368038     0.536409 
    0.551715     0.438241     0.352509 
    0.511919     0.336491     0.523107 
    0.474516     0.391166     0.423089 
    0.566761     0.340100     0.425453 
    0.557389     0.557625     0.350752 
    0.620742     0.519088     0.662187 
EA19887 15.805 15.137 16.001 90.00 90.00 90.00 Sym.group:    0
1.0
   15.805290     0.000000     0.000000
    0.000000    15.137139     0.000000
    0.000000     0.000000    16.000577
   W   B
  15  17
Direct
    0.476194     0.348186     0.435121 
    0.492453     0.478807     0.335033 
    0.589411     0.477108     0.476866 
    0.542101     0.636743     0.405980 
    0.722013     0.542009     0.548683 
    0.659184     0.390876     0.608492 
    0.635819     0.382550     0.354428 
    0.314564     0.504121     0.373490 
    0.626787     0.292152     0.478149 
    0.567277     0.535604     0.630858 
    0.330113     0.637454     0.553320 
    0.514559     0.685827     0.559307 
    0.429566     0.519394     0.506264 
    0.395813     0.387922     0.594959 
    0.526184     0.382908     0.701222 
    0.333620     0.368354     0.420972 
    0.384519     0.389494     0.335159 
    0.530064     0.351821     0.567665 
    0.718164     0.407679     0.477448 
    0.415263     0.598861     0.370614 
    0.677717     0.593549     0.424994 
    0.718224     0.492447     0.406500 
    0.631358     0.533541     0.345836 
    0.640236     0.657359     0.502599 
    0.644516     0.650421     0.605046 
    0.420213     0.672957     0.456406 
    0.436838     0.599995     0.639843 
    0.285857     0.490553     0.578225 
    0.353654     0.526686     0.643036 
    0.253647     0.539045     0.489355 
    0.289324     0.432285     0.490426 
    0.444746     0.493294     0.683708 
EA38139 16.223 15.213 15.128 90.00 90.00 90.00 Sym.group:    0
1.0
   16.223266     0.000000     0.000000
    0.000000    15.213343     0.000000
    0.000000     0.000000    15.128071
   W   B
  15  18
Direct
    0.408398     0.504339     0.503424 
    0.594731     0.504743     0.499041 
    0.583208     0.383058     0.359585 
    0.586423     0.323718     0.535757 
    0.585993     0.441589     0.675076 
    0.591120     0.622079     0.637769 
    0.587777     0.681476     0.463943 
    0.581610     0.559090     0.324793 
    0.408978     0.384353     0.362481 
    0.411194     0.322453     0.538223 
    0.414319     0.444655     0.673822 
    0.414009     0.624936     0.641952 
    0.411372     0.678653     0.470200 
    0.409558     0.561274     0.333420 
    0.719298     0.634623     0.542294 
    0.685951     0.587392     0.414339 
    0.683242     0.478169     0.384239 
    0.683743     0.393629     0.459883 
    0.685392     0.415370     0.572323 
    0.689074     0.519523     0.615073 
    0.311159     0.612262     0.543451 
    0.309552     0.589002     0.431402 
    0.310027     0.481332     0.394615 
    0.313088     0.395408     0.466964 
    0.313707     0.418344     0.577747 
    0.314094     0.525816     0.615854 
    0.502210     0.543803     0.708143 
    0.502375     0.703716     0.571108 
    0.497116     0.663813     0.359422 
    0.495176     0.460744     0.282885 
    0.496840     0.293628     0.428366 
    0.500168     0.338994     0.644018 
    0.499098     0.408017     0.468390 
EA38098 17.069 15.845 14.468 90.00 90.00 90.00 Sym.group:    0
1.0
   17.069491     0.000000     0.000000
    0.000000    15.845484     0.000000
    0.000000     0.000000    14.468423
   W   B
  15  19
Direct
    0.374057     0.430127     0.386757 
    0.262203     0.462956     0.561325 
    0.483712     0.393781     0.561797 
    0.614367     0.425491     0.653551 
    0.490358     0.519826     0.676828 
    0.408182     0.538402     0.505294 
    0.327804     0.566885     0.658863 
    0.483252     0.672184     0.575000 
    0.578622     0.524664     0.510275 
    0.500487     0.327136     0.353434 
    0.651460     0.416833     0.385343 
    0.604017     0.616152     0.666370 
    0.517434     0.478703     0.343791 
    0.523311     0.643378     0.401886 
    0.383163     0.691371     0.429442 
    0.507237     0.275063     0.490614 
    0.356384     0.378949     0.532493 
    0.414274     0.313625     0.465747 
    0.380385     0.443233     0.629386 
    0.579528     0.305293     0.574463 
    0.265185     0.515096     0.430938 
    0.286204     0.598200     0.505144 
    0.344411     0.666153     0.564662 
    0.326216     0.575808     0.375545 
    0.701505     0.534769     0.451616 
    0.694242     0.527153     0.603539 
    0.653653     0.355888     0.524016 
    0.699507     0.447560     0.526671 
    0.595832     0.303960     0.451186 
    0.603675     0.675609     0.524497 
    0.631211     0.553707     0.360469 
    0.653514     0.632227     0.434192 
    0.686153     0.615784     0.542583 
    0.418455     0.574034     0.342283 
EA38076 16.949 15.907 15.136 90.00 90.00 90.00 Sym.group:    0
1.0
   16.949477     0.000000     0.000000
    0.000000    15.907442     0.000000
    0.000000     0.000000    15.135676
   W   B
  15  20
Direct
    0.604254     0.494416     0.556087 
    0.738789     0.381600     0.558741 
    0.649866     0.663886     0.608717 
    0.589061     0.633077     0.441363 
    0.682994     0.412252     0.410047 
    0.529701     0.389785     0.432946 
    0.431933     0.445503     0.584838 
    0.406749     0.628308     0.598579 
    0.538681     0.584988     0.681991 
    0.534299     0.434134     0.703644 
    0.287809     0.557521     0.517776 
    0.451575     0.541376     0.451585 
    0.384509     0.375458     0.396971 
    0.527095     0.739017     0.588930 
    0.469291     0.720864     0.449857 
    0.624687     0.345560     0.520505 
    0.630804     0.366532     0.632391 
    0.737596     0.502333     0.510617 
    0.705558     0.601686     0.507275 
    0.696392     0.547260     0.416970 
    0.472953     0.459924     0.320224 
    0.636928     0.529272     0.333753 
    0.582944     0.442750     0.311765 
    0.541552     0.534162     0.346016 
    0.536962     0.356536     0.577441 
    0.437437     0.319887     0.514471 
    0.421534     0.531102     0.704562 
    0.297486     0.438904     0.591320 
    0.289503     0.422927     0.482886 
    0.332133     0.520363     0.650333 
    0.358987     0.655789     0.459905 
    0.337328     0.585427     0.381798 
    0.305654     0.486822     0.395773 
    0.381697     0.500363     0.326687 
    0.345260     0.350214     0.533242 
