EA1    17.180 12.783 12.783 90.00 90.00 90.00 Sym.group:    0
1.0
   17.180066     0.000000     0.000000
    0.000000    12.783255     0.000000
    0.000000     0.000000    12.783255
   W   B
  15  20
Direct
    0.382781     0.455344     0.661678 
    0.368073     0.343866     0.448502 
    0.375938     0.547495     0.337891 
    0.369213     0.642682     0.567046 
    0.612670     0.569317     0.627882 
    0.605295     0.643186     0.433264 
    0.606389     0.429344     0.349448 
    0.613361     0.361351     0.569324 
    0.756783     0.425675     0.380062 
    0.759710     0.626382     0.432948 
    0.766654     0.570036     0.628974 
    0.766307     0.369131     0.568603 
    0.249823     0.589670     0.433770 
    0.229590     0.389133     0.394053 
    0.246248     0.441541     0.578001 
    0.243178     0.611617     0.600406 
    0.684149     0.305226     0.431683 
    0.677799     0.568122     0.309558 
    0.690455     0.692640     0.563437 
    0.691276     0.443338     0.684556 
    0.345525     0.695757     0.399699 
    0.324596     0.405668     0.298336 
    0.340463     0.306811     0.611181 
    0.285775     0.569257     0.681550 
    0.560674     0.493005     0.486972 
    0.477700     0.425846     0.354551 
    0.462460     0.656004     0.433966 
    0.472833     0.570970     0.653985 
    0.469578     0.343021     0.579800 
    0.507149     0.548214     0.364880 
    0.505865     0.344440     0.447651 
    0.509186     0.451833     0.636986 
    0.504352     0.663632     0.552924 
    0.348057     0.497479     0.490164 
    0.690085     0.502966     0.506264 
EA679  15.149 14.957 15.072 90.00 90.00 90.00 Sym.group:    0
1.0
   15.149335     0.000000     0.000000
    0.000000    14.957420     0.000000
    0.000000     0.000000    15.071622
   W   B
  11  16
Direct
    0.583815     0.439538     0.346214 
    0.424853     0.407265     0.361769 
    0.345142     0.546221     0.382109 
    0.457663     0.666681     0.398327 
    0.601940     0.594455     0.388971 
    0.393202     0.576015     0.648585 
    0.537240     0.625821     0.650870 
    0.650036     0.526355     0.620207 
    0.622478     0.377791     0.588972 
    0.477886     0.327094     0.592870 
    0.363668     0.424247     0.620481 
    0.546889     0.701037     0.518002 
    0.315127     0.429150     0.477218 
    0.359191     0.627349     0.509156 
    0.444709     0.685704     0.546030 
    0.310636     0.529581     0.524561 
    0.640037     0.648322     0.527858 
    0.490527     0.513363     0.446431 
    0.476254     0.544161     0.316942 
    0.563121     0.318538     0.454497 
    0.374478     0.337783     0.484003 
    0.684312     0.471446     0.467938 
    0.706519     0.573026     0.493344 
    0.658264     0.367029     0.446964 
    0.460456     0.288826     0.451806 
    0.512181     0.462273     0.676762 
    0.499378     0.490929     0.559116 
EA1015 16.495 15.011 14.641 90.00 90.00 90.00 Sym.group:    0
1.0
   16.494733     0.000000     0.000000
    0.000000    15.010882     0.000000
    0.000000     0.000000    14.641483
   W   B
  11  16
Direct
    0.475194     0.421943     0.335258 
    0.378828     0.553686     0.377533 
    0.472063     0.664833     0.483526 
    0.569638     0.537135     0.395715 
    0.692388     0.428171     0.370025 
    0.450864     0.477628     0.510909 
    0.561811     0.371936     0.552547 
    0.372009     0.522707     0.654139 
    0.343505     0.367168     0.434826 
    0.277060     0.488374     0.501854 
    0.522783     0.489089     0.688839 
    0.478651     0.549214     0.275575 
    0.484078     0.643752     0.331983 
    0.662293     0.569697     0.538537 
    0.706600     0.539894     0.444603 
    0.669941     0.346945     0.475508 
    0.473718     0.327790     0.449506 
    0.425834     0.323223     0.550096 
    0.588180     0.593516     0.614550 
    0.351846     0.603005     0.525172 
    0.673200     0.454829     0.515644 
    0.490804     0.614904     0.629365 
    0.440150     0.384512     0.645089 
    0.348238     0.390104     0.587580 
    0.399155     0.656543     0.608020 
    0.631124     0.491167     0.615335 
    0.560045     0.688236     0.388267 
EA1171 17.998 15.620 14.152 90.00 90.00 90.00 Sym.group:    0
1.0
   17.998379     0.000000     0.000000
    0.000000    15.620020     0.000000
    0.000000     0.000000    14.151606
   W   B
  15  16
Direct
    0.475805     0.527068     0.533391 
    0.551020     0.676433     0.457862 
    0.593662     0.441756     0.597486 
    0.384294     0.509294     0.668854 
    0.335909     0.618051     0.537076 
    0.583221     0.606441     0.613208 
    0.689492     0.660242     0.498136 
    0.724866     0.544532     0.394175 
    0.369062     0.349426     0.586986 
    0.595908     0.489661     0.409733 
    0.407851     0.277269     0.440496 
    0.669751     0.363601     0.364910 
    0.365350     0.527715     0.385363 
    0.523938     0.341549     0.384579 
    0.508800     0.296786     0.559367 
    0.481413     0.589949     0.709834 
    0.430030     0.640199     0.438347 
    0.442025     0.688524     0.541729 
    0.508756     0.493299     0.696623 
    0.680548     0.525963     0.538365 
    0.339988     0.473214     0.527244 
    0.475234     0.403661     0.649817 
    0.426800     0.645340     0.647690 
    0.481033     0.470441     0.358242 
    0.486632     0.575648     0.379127 
    0.412138     0.395419     0.357121 
    0.619591     0.334345     0.500078 
    0.635426     0.625660     0.365322 
    0.348146     0.397059     0.443192 
    0.687198     0.420422     0.497600 
    0.266112     0.591032     0.418046 
EA1561 15.654 15.330 16.234 90.00 90.00 90.00 Sym.group:    0
1.0
   15.653658     0.000000     0.000000
    0.000000    15.330007     0.000000
    0.000000     0.000000    16.233729
   W   B
  14  16
Direct
    0.516250     0.348524     0.448018 
    0.389173     0.446059     0.642247 
    0.743352     0.419284     0.545253 
    0.741746     0.574365     0.508834 
    0.533227     0.528986     0.643747 
    0.456142     0.512488     0.494554 
    0.504748     0.669121     0.541854 
    0.368598     0.401702     0.378044 
    0.597193     0.581031     0.415763 
    0.453196     0.661990     0.388501 
    0.325547     0.621042     0.488124 
    0.383928     0.606269     0.634099 
    0.491414     0.498673     0.327521 
    0.299960     0.394825     0.511017 
    0.618354     0.352432     0.541371 
    0.658336     0.373544     0.449952 
    0.672669     0.519896     0.610522 
    0.424323     0.342905     0.556004 
    0.388871     0.294417     0.471638 
    0.624594     0.423585     0.618264 
    0.603750     0.437293     0.383382 
    0.697723     0.473700     0.429150 
    0.520705     0.397672     0.578178 
    0.628927     0.615969     0.580825 
    0.571356     0.721116     0.432385 
    0.275424     0.525193     0.588669 
    0.278763     0.503894     0.416354 
    0.225243     0.517937     0.500338 
    0.364708     0.550441     0.372902 
    0.641777     0.685646     0.502488 
EA1694 14.348 17.069 15.932 90.00 90.00 90.00 Sym.group:    0
1.0
   14.348248     0.000000     0.000000
    0.000000    17.068898     0.000000
    0.000000     0.000000    15.931768
   W   B
  15  20
Direct
    0.404334     0.447050     0.512209 
    0.237977     0.394201     0.501523 
    0.596722     0.479662     0.493914 
    0.736087     0.498613     0.390529 
    0.499964     0.340688     0.575176 
    0.514198     0.350481     0.416290 
    0.528093     0.471163     0.656310 
    0.326322     0.400976     0.371371 
    0.766522     0.425550     0.520817 
    0.463856     0.588996     0.522194 
    0.311289     0.624400     0.447596 
    0.266087     0.548705     0.562480 
    0.742355     0.571799     0.537858 
    0.331660     0.539992     0.321807 
    0.477067     0.712736     0.569137 
    0.479757     0.466475     0.376086 
    0.590861     0.542098     0.359770 
    0.639477     0.344059     0.509225 
    0.376258     0.316811     0.484904 
    0.388293     0.415465     0.648842 
    0.600248     0.442249     0.352621 
    0.643331     0.390312     0.604165 
    0.668701     0.379809     0.412413 
    0.678681     0.487680     0.622073 
    0.344538     0.340904     0.585632 
    0.497795     0.708001     0.442936 
    0.655407     0.603595     0.426919 
    0.466517     0.565117     0.366436 
    0.482353     0.593266     0.664682 
    0.374874     0.625171     0.635372 
    0.544828     0.634033     0.389634 
    0.257623     0.505919     0.430265 
    0.391216     0.526067     0.648407 
    0.605310     0.574997     0.610599 
    0.611401     0.642957     0.529807 
EA2327 17.192 15.955 13.197 90.00 90.00 90.00 Sym.group:    0
1.0
   17.191546     0.000000     0.000000
    0.000000    15.954557     0.000000
    0.000000     0.000000    13.197470
   W   B
  12  16
Direct
    0.527210     0.362047     0.422152 
    0.578450     0.675266     0.503233 
    0.745856     0.453475     0.462850 
    0.710610     0.594845     0.447656 
    0.405892     0.660531     0.430419 
    0.576856     0.509090     0.543669 
    0.431050     0.318810     0.554125 
    0.454937     0.613584     0.601271 
    0.461960     0.444123     0.668911 
    0.571183     0.348542     0.613768 
    0.426887     0.479959     0.472169 
    0.260580     0.483388     0.517400 
    0.677557     0.422222     0.599348 
    0.708489     0.524824     0.593584 
    0.644497     0.381878     0.483821 
    0.662460     0.616904     0.595651 
    0.600254     0.575654     0.379113 
    0.539009     0.491281     0.370327 
    0.506292     0.586037     0.404703 
    0.470128     0.739043     0.525167 
    0.357417     0.520356     0.626854 
    0.343622     0.415810     0.603663 
    0.392675     0.363473     0.386268 
    0.329339     0.373982     0.483555 
    0.322692     0.440244     0.380725 
    0.321639     0.552146     0.407965 
    0.338866     0.588483     0.532202 
    0.633595     0.464003     0.389431 
EA2660 17.585 15.501 13.906 90.00 90.00 90.00 Sym.group:    0
1.0
   17.585349     0.000000     0.000000
    0.000000    15.500642     0.000000
    0.000000     0.000000    13.905791
   W   B
  11  17
Direct
    0.517471     0.369736     0.405630 
    0.651249     0.462789     0.356026 
    0.406982     0.679974     0.449875 
    0.573182     0.500378     0.525815 
    0.423424     0.319608     0.529863 
    0.472520     0.605166     0.609462 
    0.468793     0.437119     0.648924 
    0.427328     0.499035     0.473486 
    0.268893     0.501732     0.527830 
    0.525943     0.514252     0.324463 
    0.639757     0.615935     0.401985 
    0.639689     0.398411     0.601278 
    0.686426     0.494508     0.600814 
    0.627106     0.360117     0.483516 
    0.668453     0.597176     0.562345 
    0.515134     0.619589     0.436291 
    0.511962     0.710971     0.512084 
    0.367886     0.521581     0.629499 
    0.350976     0.418162     0.594252 
    0.387262     0.383296     0.384021 
    0.324879     0.385943     0.478143 
    0.319941     0.464687     0.391183 
    0.324030     0.575067     0.424111 
    0.351232     0.605970     0.552118 
    0.554608     0.353994     0.564481 
    0.709490     0.528656     0.483315 
    0.587151     0.650920     0.543545 
    0.698233     0.425233     0.505644 
EA2827 15.129 15.901 15.581 90.00 90.00 90.00 Sym.group:    0
1.0
   15.129484     0.000000     0.000000
    0.000000    15.900789     0.000000
    0.000000     0.000000    15.581403
   W   B
  13  18
Direct
    0.499965     0.499509     0.499861 
    0.405810     0.593598     0.384104 
    0.593880     0.593129     0.615828 
    0.592266     0.407519     0.615893 
    0.407895     0.407371     0.383824 
    0.424228     0.644156     0.557795 
    0.322354     0.498753     0.515839 
    0.575918     0.355628     0.441672 
    0.441481     0.501231     0.663778 
    0.575892     0.644389     0.442122 
    0.558347     0.501953     0.336223 
    0.423676     0.355376     0.558214 
    0.678189     0.498934     0.484164 
    0.557547     0.712921     0.572853 
    0.442429     0.713117     0.427200 
    0.441259     0.287584     0.428453 
    0.558723     0.287756     0.571548 
    0.323913     0.409960     0.633684 
    0.436446     0.500714     0.273089 
    0.675190     0.589726     0.365970 
    0.712021     0.498567     0.614339 
    0.676129     0.410101     0.366389 
    0.288128     0.498496     0.385867 
    0.324832     0.589707     0.634096 
    0.563518     0.500630     0.726936 
    0.499962     0.756063     0.500066 
    0.500046     0.244282     0.500013 
    0.334209     0.499474     0.294238 
    0.665779     0.499413     0.705864 
    0.289063     0.499955     0.660593 
    0.710904     0.499991     0.339482 
EA3288 15.650 15.814 16.038 90.00 90.00 90.00 Sym.group:    0
1.0
   15.650500     0.000000     0.000000
    0.000000    15.813952     0.000000
    0.000000     0.000000    16.038032
   W   B
  11  18
Direct
    0.567457     0.645656     0.484940 
    0.487150     0.559731     0.622693 
    0.494471     0.564407     0.352998 
    0.334790     0.573296     0.372607 
    0.404932     0.515862     0.497520 
    0.301393     0.405152     0.446548 
    0.466398     0.346607     0.463172 
    0.508337     0.379593     0.617404 
    0.574167     0.477767     0.484586 
    0.678072     0.571472     0.379698 
    0.613503     0.343081     0.390469 
    0.439007     0.666278     0.538923 
    0.624378     0.575357     0.593285 
    0.435788     0.660640     0.433914 
    0.351365     0.631427     0.586178 
    0.329017     0.539329     0.623693 
    0.401511     0.437780     0.364797 
    0.296743     0.449216     0.573612 
    0.388649     0.453006     0.637198 
    0.340341     0.655666     0.483504 
    0.648950     0.396588     0.590960 
    0.604957     0.478882     0.636795 
    0.375057     0.373747     0.565744 
    0.601893     0.335621     0.520924 
    0.601642     0.469620     0.336446 
    0.736377     0.499616     0.467776 
    0.695799     0.490432     0.567813 
    0.689957     0.582063     0.512019 
    0.507901     0.422106     0.353783 
EA3690 17.225 15.262 13.885 90.00 90.00 90.00 Sym.group:    0
1.0
   17.225378     0.000000     0.000000
    0.000000    15.261821     0.000000
    0.000000     0.000000    13.884529
   W   B
  11  16
Direct
    0.422207     0.704292     0.565955 
    0.542936     0.616062     0.614531 
    0.681498     0.578283     0.557333 
    0.524437     0.576587     0.333853 
    0.348944     0.499096     0.421138 
    0.391508     0.542809     0.605192 
    0.503271     0.502975     0.486359 
    0.579355     0.353767     0.503585 
    0.307244     0.655414     0.482434 
    0.416467     0.364904     0.536065 
    0.239657     0.531562     0.534100 
    0.604436     0.446641     0.381105 
    0.595722     0.632746     0.461863 
    0.506519     0.671233     0.456274 
    0.451734     0.466546     0.315255 
    0.640501     0.548498     0.406883 
    0.670794     0.461622     0.473501 
    0.421074     0.628695     0.418075 
    0.424387     0.382843     0.379267 
    0.311646     0.430352     0.566555 
    0.593737     0.403486     0.657921 
    0.526796     0.387495     0.356446 
    0.618548     0.511162     0.666262 
    0.666210     0.442247     0.591133 
    0.506816     0.371280     0.639310 
    0.483978     0.305043     0.422402 
    0.519577     0.484359     0.667208 
EA4029 16.714 15.237 14.097 90.00 90.00 90.00 Sym.group:    0
1.0
   16.714494     0.000000     0.000000
    0.000000    15.236778     0.000000
    0.000000     0.000000    14.097499
   W   B
  11  16
Direct
    0.386204     0.686686     0.559670 
    0.537597     0.648958     0.593593 
    0.671195     0.622879     0.511780 
    0.485745     0.550598     0.337469 
    0.358076     0.452869     0.443598 
    0.396626     0.534967     0.620998 
    0.509294     0.507886     0.501570 
    0.607106     0.375196     0.508642 
    0.274334     0.609590     0.491553 
    0.442058     0.346659     0.555817 
    0.242820     0.478173     0.558427 
    0.599432     0.454383     0.375425 
    0.566993     0.650418     0.427050 
    0.470411     0.662439     0.445241 
    0.443511     0.419044     0.325449 
    0.617686     0.564777     0.381840 
    0.670149     0.494972     0.451569 
    0.388185     0.599521     0.423229 
    0.438964     0.338400     0.400227 
    0.334500     0.400894     0.599004 
    0.617684     0.451351     0.643800 
    0.535797     0.371947     0.370723 
    0.635209     0.561049     0.642005 
    0.686295     0.491476     0.568812 
    0.526706     0.412504     0.640123 
    0.518035     0.287765     0.450621 
    0.539386     0.524598     0.671767 
EA4341 15.429 14.357 15.217 90.00 90.00 90.00 Sym.group:    0
1.0
   15.428985     0.000000     0.000000
    0.000000    14.356783     0.000000
    0.000000     0.000000    15.216782
   W   B
  11  16
Direct
    0.383519     0.472696     0.551219 
    0.464169     0.398230     0.374557 
    0.510030     0.313019     0.508510 
    0.707845     0.481078     0.436748 
    0.551088     0.502421     0.493322 
    0.491825     0.644612     0.405434 
    0.551750     0.663444     0.571211 
    0.388207     0.647080     0.642180 
    0.654270     0.664575     0.438325 
    0.400134     0.732765     0.507211 
    0.487758     0.520543     0.673140 
    0.644602     0.364322     0.520598 
    0.607625     0.366605     0.414803 
    0.579167     0.406898     0.611448 
    0.372539     0.331166     0.470457 
    0.390277     0.322531     0.576842 
    0.381493     0.520598     0.387301 
    0.326245     0.426197     0.420081 
    0.466331     0.372543     0.635833 
    0.598877     0.453144     0.345572 
    0.682042     0.458221     0.573787 
    0.614727     0.566055     0.348129 
    0.349948     0.626338     0.423412 
    0.290633     0.528916     0.451929 
    0.307909     0.611772     0.530245 
    0.678922     0.576107     0.552233 
    0.618066     0.528122     0.635471 
EA4678 15.769 15.144 14.269 90.00 90.00 90.00 Sym.group:    0
1.0
   15.768794     0.000000     0.000000
    0.000000    15.143873     0.000000
    0.000000     0.000000    14.269198
   W   B
  11  16
Direct
    0.605076     0.444004     0.554351 
    0.519066     0.410812     0.356718 
    0.452649     0.327617     0.489860 
    0.298856     0.532674     0.429026 
    0.453117     0.511901     0.492590 
    0.538861     0.635999     0.410412 
    0.483354     0.651492     0.593654 
    0.633613     0.597058     0.668794 
    0.391505     0.691176     0.453866 
    0.635348     0.692091     0.528521 
    0.512374     0.498162     0.687588 
    0.334740     0.405028     0.504948 
    0.372496     0.408254     0.393076 
    0.401603     0.420262     0.607784 
    0.590348     0.322435     0.451894 
    0.569225     0.304885     0.564178 
    0.615514     0.508722     0.387814 
    0.652639     0.404704     0.407861 
    0.501972     0.362751     0.629078 
    0.401285     0.494074     0.330003 
    0.316756     0.494333     0.571768 
    0.403879     0.600530     0.347110 
    0.675448     0.594069     0.431814 
    0.706060     0.488954     0.453260 
    0.701350     0.558927     0.546260 
    0.343371     0.603352     0.561889 
    0.389495     0.535733     0.645882 
EA4892 17.197 15.986 14.709 90.00 90.00 90.00 Sym.group:    0
1.0
   17.196536     0.000000     0.000000
    0.000000    15.986117     0.000000
    0.000000     0.000000    14.708803
   W   B
  15  16
Direct
    0.498569     0.438476     0.498714 
    0.624337     0.528513     0.408067 
    0.380153     0.332510     0.577689 
    0.365282     0.402816     0.404282 
    0.484010     0.484795     0.301042 
    0.404289     0.470919     0.673858 
    0.639683     0.532752     0.596412 
    0.429714     0.579301     0.431449 
    0.310107     0.477869     0.546289 
    0.491766     0.600069     0.638309 
    0.340737     0.610001     0.667805 
    0.285803     0.623995     0.516839 
    0.506603     0.260915     0.569562 
    0.622919     0.677285     0.544122 
    0.609429     0.367113     0.594835 
    0.401630     0.666958     0.555029 
    0.491468     0.678643     0.516022 
    0.624065     0.394666     0.450204 
    0.569799     0.406577     0.360590 
    0.481162     0.360712     0.364418 
    0.449019     0.304599     0.453335 
    0.363329     0.512877     0.319687 
    0.528175     0.604035     0.330812 
    0.744431     0.527661     0.499402 
    0.537318     0.462687     0.664560 
    0.544419     0.573017     0.508219 
    0.730195     0.621505     0.527095 
    0.306859     0.530831     0.406775 
    0.547516     0.656200     0.423570 
    0.489902     0.369027     0.653149 
    0.697309     0.442677     0.497859 
EA5250 17.058 15.909 14.716 90.00 90.00 90.00 Sym.group:    0
1.0
   17.058136     0.000000     0.000000
    0.000000    15.908764     0.000000
    0.000000     0.000000    14.716353
   W   B
  15  16
Direct
    0.496766     0.561372     0.499235 
    0.626505     0.477570     0.410677 
    0.372222     0.660282     0.579617 
    0.361436     0.588599     0.406365 
    0.484533     0.516123     0.300628 
    0.402220     0.521867     0.673924 
    0.641054     0.474305     0.596548 
    0.433602     0.415016     0.427306 
    0.306981     0.509711     0.546031 
    0.495541     0.397820     0.638506 
    0.343270     0.378246     0.665810 
    0.290456     0.363033     0.513021 
    0.494708     0.739776     0.572745 
    0.632541     0.330664     0.540864 
    0.603025     0.638957     0.599523 
    0.408771     0.326077     0.553489 
    0.499808     0.320306     0.514726 
    0.619018     0.613338     0.453693 
    0.567015     0.598007     0.362461 
    0.475572     0.639126     0.367227 
    0.439474     0.693180     0.455773 
    0.364100     0.480483     0.318396 
    0.534723     0.398789     0.329464 
    0.748461     0.490662     0.499175 
    0.535193     0.537725     0.666140 
    0.545523     0.428545     0.508402 
    0.735784     0.394369     0.516650 
    0.307721     0.458212     0.405060 
    0.554901     0.346804     0.422306 
    0.482863     0.629047     0.655432 
    0.696209     0.571992     0.500808 
EA5488 16.308 16.444 14.344 90.00 90.00 90.00 Sym.group:    0
1.0
   16.307744     0.000000     0.000000
    0.000000    16.443721     0.000000
    0.000000     0.000000    14.344040
   W   B
  13  19
Direct
    0.556195     0.401036     0.334900 
    0.582601     0.328755     0.485270 
    0.582456     0.490785     0.495788 
    0.705097     0.436446     0.388073 
    0.724209     0.377117     0.533516 
    0.554434     0.521643     0.670502 
    0.474411     0.386022     0.618518 
    0.386443     0.406740     0.379154 
    0.445411     0.631972     0.581507 
    0.420947     0.496182     0.517135 
    0.489449     0.633251     0.401261 
    0.650254     0.623711     0.440524 
    0.300904     0.532779     0.657385 
    0.478980     0.307708     0.381402 
    0.441157     0.315889     0.488322 
    0.667940     0.575611     0.587762 
    0.680782     0.477551     0.619908 
    0.720047     0.517024     0.511928 
    0.359702     0.614505     0.440336 
    0.291085     0.450881     0.510227 
    0.306366     0.589338     0.532477 
    0.332032     0.418040     0.616131 
    0.305290     0.519842     0.426190 
    0.357231     0.363901     0.523452 
    0.550088     0.704483     0.515292 
    0.577100     0.728770     0.411011 
    0.478332     0.507875     0.334624 
    0.583194     0.630344     0.584917 
    0.384870     0.545908     0.356305 
    0.609944     0.400101     0.622591 
    0.424813     0.526000     0.685385 
    0.578241     0.539792     0.348208 
EA5741 17.576 14.781 15.273 90.00 90.00 90.00 Sym.group:    0
1.0
   17.576122     0.000000     0.000000
    0.000000    14.780520     0.000000
    0.000000     0.000000    15.273255
   W   B
  13  20
Direct
    0.528491     0.563062     0.419028 
    0.752098     0.594737     0.468333 
    0.632017     0.615898     0.553124 
    0.650986     0.497488     0.338945 
    0.705712     0.463486     0.555140 
    0.478214     0.354152     0.451362 
    0.281113     0.436269     0.522306 
    0.501176     0.442880     0.684941 
    0.481860     0.677464     0.559230 
    0.426543     0.497131     0.547118 
    0.386268     0.637158     0.423709 
    0.401645     0.472391     0.366273 
    0.416708     0.592220     0.686201 
    0.642761     0.626980     0.406806 
    0.576114     0.701070     0.453201 
    0.610737     0.503776     0.644602 
    0.609343     0.394119     0.624408 
    0.524727     0.438117     0.335681 
    0.589558     0.389099     0.398315 
    0.749648     0.463356     0.419637 
    0.677460     0.393528     0.437552 
    0.607311     0.364421     0.509732 
    0.346772     0.347003     0.427424 
    0.443479     0.344682     0.595437 
    0.315895     0.550720     0.615073 
    0.536217     0.341295     0.583892 
    0.540869     0.581281     0.650966 
    0.368957     0.335042     0.532508 
    0.294937     0.579777     0.509637 
    0.286857     0.529795     0.412635 
    0.361567     0.640671     0.562906 
    0.284902     0.421384     0.386911 
    0.489055     0.709549     0.416966 
EA6096 16.526 16.025 14.519 90.00 90.00 90.00 Sym.group:    0
1.0
   16.525990     0.000000     0.000000
    0.000000    16.024730     0.000000
    0.000000     0.000000    14.518518
   W   B
  15  18
Direct
    0.447127     0.505248     0.505213 
    0.430483     0.344101     0.442392 
    0.292595     0.433650     0.475134 
    0.398440     0.658961     0.446098 
    0.428940     0.560079     0.303651 
    0.319782     0.491656     0.638605 
    0.340281     0.432719     0.320136 
    0.578936     0.521583     0.374511 
    0.552058     0.649816     0.508783 
    0.561089     0.528991     0.650872 
    0.589330     0.396614     0.523408 
    0.710627     0.618202     0.440201 
    0.711935     0.600952     0.607952 
    0.705333     0.454978     0.631519 
    0.730319     0.468323     0.462997 
    0.508823     0.652374     0.363603 
    0.524320     0.270724     0.518829 
    0.439765     0.707167     0.571769 
    0.549571     0.379876     0.362101 
    0.556800     0.293729     0.420216 
    0.445552     0.446987     0.664522 
    0.385152     0.390208     0.580505 
    0.468934     0.443871     0.353718 
    0.480210     0.335528     0.590470 
    0.325238     0.548863     0.397958 
    0.315878     0.565414     0.513913 
    0.378033     0.617453     0.595134 
    0.621266     0.532782     0.519662 
    0.648510     0.398381     0.377573 
    0.607103     0.660463     0.366912 
    0.480431     0.639841     0.640314 
    0.537076     0.397528     0.660259 
    0.430065     0.552942     0.671073 
EA6402 16.369 16.325 14.732 90.00 90.00 90.00 Sym.group:    0
1.0
   16.368723     0.000000     0.000000
    0.000000    16.324661     0.000000
    0.000000     0.000000    14.732201
   W   B
  15  18
Direct
    0.450949     0.495026     0.501299 
    0.453625     0.338281     0.436858 
    0.306872     0.408899     0.478445 
    0.381709     0.643109     0.452925 
    0.414891     0.554307     0.306812 
    0.318596     0.471495     0.636187 
    0.346944     0.419774     0.322286 
    0.580791     0.530857     0.375809 
    0.532223     0.652781     0.512655 
    0.552855     0.535782     0.646169 
    0.602006     0.406393     0.521421 
    0.697001     0.640618     0.446449 
    0.696844     0.617634     0.610901 
    0.710601     0.475269     0.628556 
    0.735546     0.496266     0.466761 
    0.493351     0.644848     0.369343 
    0.560914     0.273518     0.499912 
    0.414641     0.697136     0.577560 
    0.563638     0.394560     0.355958 
    0.591043     0.311647     0.407306 
    0.442179     0.455076     0.676504 
    0.413685     0.378531     0.584776 
    0.476283     0.447257     0.352146 
    0.505469     0.316552     0.576014 
    0.318236     0.526608     0.403270 
    0.310924     0.542429     0.516442 
    0.359950     0.603775     0.598686 
    0.615143     0.544482     0.519356 
    0.660335     0.416699     0.380390 
    0.589763     0.668435     0.372919 
    0.465989     0.640372     0.647070 
    0.517249     0.398902     0.640021 
    0.419758     0.552684     0.678792 
EA6719 17.307 16.151 16.167 90.00 90.00 90.00 Sym.group:    0
1.0
   17.307131     0.000000     0.000000
    0.000000    16.150660     0.000000
    0.000000     0.000000    16.167412
   W   B
  15  19
Direct
    0.589188     0.484319     0.358421 
    0.588273     0.628036     0.440093 
    0.597036     0.588435     0.602943 
    0.601920     0.429330     0.618032 
    0.596816     0.364042     0.468743 
    0.400192     0.486027     0.366503 
    0.403559     0.367195     0.474237 
    0.403242     0.427748     0.622689 
    0.401622     0.591185     0.605708 
    0.405764     0.632180     0.445295 
    0.501038     0.499115     0.500316 
    0.270097     0.384275     0.565851 
    0.262648     0.411190     0.424756 
    0.275414     0.571130     0.400303 
    0.274946     0.631045     0.539640 
    0.297021     0.510391     0.604558 
    0.698862     0.592455     0.513719 
    0.695715     0.549873     0.413353 
    0.699023     0.440387     0.422587 
    0.704008     0.415393     0.529684 
    0.706557     0.508916     0.586572 
    0.637528     0.500174     0.495992 
    0.503285     0.513617     0.664127 
    0.502844     0.353742     0.563367 
    0.497508     0.389556     0.378814 
    0.495927     0.578448     0.358588 
    0.499753     0.652512     0.541312 
    0.505533     0.399473     0.690338 
    0.499287     0.289577     0.457756 
    0.492639     0.470908     0.283824 
    0.498274     0.696246     0.389743 
    0.501947     0.634647     0.665000 
    0.245923     0.505639     0.516636 
    0.746613     0.502792     0.490500 
EA7028 17.572 15.517 13.996 90.00 90.00 90.00 Sym.group:    0
1.0
   17.572265     0.000000     0.000000
    0.000000    15.517250     0.000000
    0.000000     0.000000    13.996386
   W   B
  15  19
Direct
    0.531088     0.433711     0.358558 
    0.486703     0.293210     0.443315 
    0.385488     0.358081     0.341360 
    0.301960     0.513137     0.368239 
    0.398800     0.616672     0.404890 
    0.275621     0.548380     0.543538 
    0.393443     0.444845     0.489531 
    0.446628     0.418607     0.678811 
    0.525189     0.529764     0.516805 
    0.594875     0.450458     0.650829 
    0.622432     0.369529     0.497623 
    0.525375     0.689694     0.411767 
    0.651905     0.633097     0.479046 
    0.745476     0.414843     0.431211 
    0.403197     0.565099     0.644953 
    0.651993     0.408324     0.341455 
    0.495966     0.573183     0.319810 
    0.582763     0.573934     0.364657 
    0.421465     0.498971     0.314558 
    0.286970     0.652263     0.453167 
    0.330309     0.448586     0.636456 
    0.366561     0.302913     0.490359 
    0.350033     0.349123     0.602705 
    0.436018     0.310277     0.579474 
    0.527995     0.335135     0.594615 
    0.456771     0.666700     0.550096 
    0.686519     0.551391     0.608280 
    0.514970     0.614645     0.659242 
    0.705099     0.448707     0.577604 
    0.553387     0.677978     0.564617 
    0.733855     0.533874     0.505695 
    0.607662     0.605476     0.627712 
    0.650540     0.505695     0.404408 
    0.352944     0.663698     0.544610 
EA7349 17.427 15.127 14.630 90.00 90.00 90.00 Sym.group:    0
1.0
   17.426573     0.000000     0.000000
    0.000000    15.126853     0.000000
    0.000000     0.000000    14.629701
   W   B
  15  19
Direct
    0.404509     0.505667     0.494874 
    0.258643     0.531429     0.486110 
    0.336477     0.471138     0.312564 
    0.460810     0.582607     0.341660 
    0.282401     0.491990     0.640943 
    0.549229     0.455205     0.422316 
    0.410302     0.345206     0.452199 
    0.619025     0.346183     0.575892 
    0.406959     0.386597     0.632761 
    0.396068     0.682012     0.473029 
    0.693101     0.525981     0.350979 
    0.609367     0.613879     0.491993 
    0.532685     0.492714     0.614636 
    0.699970     0.474003     0.614787 
    0.519534     0.722196     0.397009 
    0.448285     0.437416     0.338822 
    0.306736     0.397441     0.534487 
    0.288977     0.405392     0.422389 
    0.335393     0.591489     0.381394 
    0.623959     0.329247     0.426886 
    0.492485     0.304484     0.565489 
    0.537345     0.304979     0.466367 
    0.521590     0.347357     0.664288 
    0.663777     0.398572     0.360241 
    0.507959     0.699301     0.541458 
    0.587511     0.589421     0.342675 
    0.403958     0.531858     0.652511 
    0.345381     0.608145     0.602780 
    0.709145     0.607542     0.575567 
    0.729287     0.540347     0.487962 
    0.692171     0.430450     0.473736 
    0.632404     0.594014     0.643995 
    0.546741     0.638992     0.621397 
    0.447814     0.616742     0.595807 
EA7728 16.557 16.151 14.664 90.00 90.00 90.00 Sym.group:    0
1.0
   16.556753     0.000000     0.000000
    0.000000    16.151024     0.000000
    0.000000     0.000000    14.664473
   W   B
  14  19
Direct
    0.390942     0.487442     0.618671 
    0.297999     0.602895     0.427555 
    0.443176     0.657217     0.403441 
    0.421074     0.322841     0.620470 
    0.510558     0.553994     0.691574 
    0.568164     0.407075     0.605016 
    0.518968     0.548421     0.515112 
    0.601649     0.693846     0.474151 
    0.394574     0.647436     0.573368 
    0.422937     0.410148     0.469891 
    0.642775     0.534287     0.389282 
    0.637030     0.297134     0.462333 
    0.730810     0.403278     0.420367 
    0.304840     0.469272     0.351936 
    0.291869     0.562685     0.563871 
    0.285458     0.476385     0.502179 
    0.663020     0.583392     0.527761 
    0.668110     0.479809     0.530301 
    0.625708     0.528135     0.623597 
    0.521768     0.678860     0.606925 
    0.508461     0.306694     0.512141 
    0.484650     0.730479     0.517468 
    0.609063     0.629907     0.610593 
    0.474585     0.418956     0.707886 
    0.288668     0.381862     0.451577 
    0.314460     0.370200     0.557441 
    0.571513     0.644408     0.346264 
    0.529701     0.461523     0.381315 
    0.516094     0.558671     0.337706 
    0.614626     0.397809     0.365750 
    0.689355     0.378660     0.556163 
    0.424456     0.521252     0.364039 
    0.532941     0.355026     0.413854 
EA8212 18.019 14.919 14.098 90.00 90.00 90.00 Sym.group:    0
1.0
   18.019166     0.000000     0.000000
    0.000000    14.918551     0.000000
    0.000000     0.000000    14.098448
   W   B
  15  16
Direct
    0.639952     0.333022     0.444803 
    0.539223     0.425458     0.597353 
    0.671899     0.488410     0.529977 
    0.530822     0.433282     0.406550 
    0.578482     0.575931     0.339692 
    0.408669     0.347192     0.378059 
    0.276899     0.471239     0.564518 
    0.413029     0.508163     0.497881 
    0.392974     0.504013     0.322947 
    0.665317     0.660378     0.592827 
    0.763336     0.606523     0.491876 
    0.320985     0.642111     0.556208 
    0.268299     0.557718     0.421151 
    0.404075     0.407218     0.656080 
    0.545112     0.605770     0.512147 
    0.654101     0.638756     0.441502 
    0.603678     0.548760     0.647921 
    0.509264     0.560187     0.663537 
    0.526781     0.297251     0.488022 
    0.589756     0.289102     0.574670 
    0.699455     0.557694     0.377710 
    0.446739     0.348805     0.523325 
    0.652994     0.458153     0.365185 
    0.463108     0.621545     0.391226 
    0.353417     0.363801     0.520111 
    0.433907     0.667433     0.500464 
    0.369746     0.544054     0.648248 
    0.371407     0.637326     0.413441 
    0.311835     0.419495     0.423623 
    0.655112     0.359557     0.595567 
    0.439625     0.621652     0.613378 
EA8613 16.427 14.283 13.781 90.00 90.00 90.00 Sym.group:    0
1.0
   16.427435     0.000000     0.000000
    0.000000    14.282939     0.000000
    0.000000     0.000000    13.781155
   W   B
  12  16
Direct
    0.538722     0.571514     0.349729 
    0.699239     0.570732     0.384450 
    0.703932     0.538104     0.561677 
    0.370947     0.510382     0.322729 
    0.498255     0.408991     0.310285 
    0.585823     0.438826     0.470849 
    0.537693     0.526987     0.639700 
    0.408829     0.663734     0.570392 
    0.281437     0.447115     0.454348 
    0.432911     0.489524     0.495500 
    0.524899     0.337753     0.600791 
    0.377592     0.315673     0.550676 
    0.598213     0.615933     0.495843 
    0.419518     0.636525     0.407630 
    0.630703     0.648386     0.613839 
    0.640721     0.453858     0.324621 
    0.713312     0.427648     0.431584 
    0.538817     0.680123     0.585741 
    0.503049     0.664762     0.469251 
    0.393886     0.536514     0.652823 
    0.424784     0.420294     0.655362 
    0.329286     0.444018     0.611498 
    0.479600     0.333430     0.448084 
    0.387608     0.367580     0.396255 
    0.312960     0.551154     0.568589 
    0.698465     0.382494     0.541534 
    0.328591     0.597501     0.456493 
    0.640206     0.420446     0.629727 
EA8761 16.998 14.878 15.105 90.00 90.00 90.00 Sym.group:    0
1.0
   16.998254     0.000000     0.000000
    0.000000    14.877674     0.000000
    0.000000     0.000000    15.104742
   W   B
  14  18
Direct
    0.417040     0.505086     0.506839 
    0.377240     0.505131     0.333725 
    0.503818     0.606495     0.386759 
    0.624796     0.677164     0.608726 
    0.576101     0.468293     0.490181 
    0.545897     0.537657     0.645590 
    0.600471     0.302998     0.416909 
    0.703984     0.364995     0.513643 
    0.615582     0.466097     0.328000 
    0.454310     0.329068     0.525349 
    0.483096     0.387929     0.370212 
    0.248032     0.493254     0.558026 
    0.703484     0.538175     0.595989 
    0.733521     0.509076     0.438815 
    0.342856     0.464228     0.631655 
    0.415188     0.540164     0.660251 
    0.294961     0.450132     0.437650 
    0.298436     0.567765     0.453128 
    0.426431     0.661853     0.501380 
    0.522911     0.629523     0.530840 
    0.596240     0.678438     0.465367 
    0.496344     0.504730     0.279070 
    0.443634     0.630404     0.604460 
    0.532156     0.386723     0.630204 
    0.684577     0.636987     0.491179 
    0.584897     0.324390     0.561289 
    0.629684     0.412366     0.626080 
    0.635569     0.597105     0.397801 
    0.364537     0.374620     0.423489 
    0.443265     0.434655     0.641722 
    0.374834     0.628622     0.415140 
    0.326108     0.385878     0.530534 
EA9130 16.156 15.637 14.436 90.00 90.00 90.00 Sym.group:    0
1.0
   16.155959     0.000000     0.000000
    0.000000    15.637440     0.000000
    0.000000     0.000000    14.435777
   W   B
  11  20
Direct
    0.548116     0.698402     0.585984 
    0.424089     0.658781     0.659456 
    0.411040     0.473574     0.569443 
    0.470797     0.376494     0.421685 
    0.351063     0.482868     0.381856 
    0.467217     0.619282     0.342563 
    0.325195     0.329145     0.437123 
    0.529589     0.535284     0.666841 
    0.651527     0.402669     0.504009 
    0.427671     0.310882     0.577902 
    0.553030     0.530116     0.479655 
    0.441457     0.660789     0.492339 
    0.538017     0.680608     0.444659 
    0.349954     0.627998     0.550810 
    0.309746     0.371425     0.578086 
    0.358946     0.614629     0.433071 
    0.279940     0.446567     0.507419 
    0.300721     0.550992     0.497374 
    0.488110     0.487560     0.329969 
    0.572461     0.327993     0.600073 
    0.505363     0.395995     0.660325 
    0.609154     0.415413     0.652679 
    0.695579     0.537067     0.515516 
    0.660014     0.500832     0.618182 
    0.563083     0.294280     0.492101 
    0.643080     0.602667     0.592410 
    0.598698     0.335340     0.392059 
    0.579883     0.538691     0.315878 
    0.604859     0.628081     0.372215 
    0.587922     0.435992     0.352671 
    0.653680     0.629582     0.475647 
EA9279 17.223 16.312 14.753 90.00 90.00 90.00 Sym.group:    0
1.0
   17.222604     0.000000     0.000000
    0.000000    16.311613     0.000000
    0.000000     0.000000    14.752593
   W   B
  15  20
Direct
    0.419872     0.460795     0.624101 
    0.387422     0.472420     0.445396 
    0.440310     0.598571     0.684537 
    0.673692     0.315692     0.566374 
    0.572251     0.330808     0.440789 
    0.432508     0.292435     0.429601 
    0.530966     0.346971     0.606184 
    0.564801     0.487440     0.373376 
    0.445328     0.596062     0.351394 
    0.660906     0.557893     0.618817 
    0.510741     0.578682     0.518065 
    0.709847     0.403075     0.427879 
    0.707394     0.537769     0.355531 
    0.605917     0.647398     0.377862 
    0.599129     0.694064     0.534458 
    0.344298     0.566349     0.574490 
    0.294721     0.481278     0.579093 
    0.274409     0.543403     0.485816 
    0.264023     0.443420     0.479541 
    0.318932     0.385784     0.547668 
    0.508375     0.437622     0.504734 
    0.629889     0.427236     0.640427 
    0.550027     0.494590     0.649075 
    0.393544     0.379307     0.336872 
    0.401099     0.335641     0.565721 
    0.490059     0.381720     0.343420 
    0.444143     0.466493     0.305605 
    0.394522     0.654053     0.566113 
    0.341979     0.613333     0.464907 
    0.411064     0.685065     0.461383 
    0.557311     0.613583     0.662970 
    0.703861     0.441312     0.566503 
    0.724739     0.518138     0.499337 
    0.691149     0.612144     0.483586 
    0.500770     0.699453     0.428376 
EA9596 17.220 14.920 14.900 90.00 90.00 90.00 Sym.group:    0
1.0
   17.220388     0.000000     0.000000
    0.000000    14.920473     0.000000
    0.000000     0.000000    14.899537
   W   B
  15  19
Direct
    0.504020     0.345933     0.424946 
    0.574037     0.501340     0.487545 
    0.653346     0.394409     0.393651 
    0.629481     0.429574     0.700934 
    0.521140     0.361278     0.605188 
    0.335927     0.359722     0.606211 
    0.415256     0.498402     0.511163 
    0.523562     0.538527     0.647165 
    0.682977     0.649452     0.498723 
    0.526436     0.676237     0.494224 
    0.261027     0.529327     0.442891 
    0.346614     0.373700     0.423130 
    0.275642     0.532064     0.601607 
    0.356852     0.663624     0.530612 
    0.489810     0.571857     0.354275 
    0.714738     0.507171     0.498797 
    0.603274     0.314657     0.503072 
    0.421426     0.310054     0.522342 
    0.657544     0.541411     0.603928 
    0.649853     0.348235     0.591090 
    0.709931     0.443589     0.588811 
    0.389264     0.474401     0.666156 
    0.685493     0.540209     0.396562 
    0.609104     0.618594     0.387805 
    0.612375     0.642777     0.609175 
    0.609325     0.518062     0.328064 
    0.249914     0.410769     0.518237 
    0.439780     0.429407     0.327096 
    0.393880     0.585641     0.653594 
    0.364130     0.605029     0.392916 
    0.366964     0.500849     0.351332 
    0.426077     0.687173     0.409658 
    0.545691     0.434741     0.315474 
    0.455110     0.661786     0.613623 
EA10065 16.107 16.584 15.031 90.00 90.00 90.00 Sym.group:    0
1.0
   16.107270     0.000000     0.000000
    0.000000    16.583761     0.000000
    0.000000     0.000000    15.031283
   W   B
  15  16
Direct
    0.514723     0.348042     0.577241 
    0.359728     0.415875     0.603337 
    0.426855     0.537104     0.709517 
    0.406889     0.558852     0.509160 
    0.456696     0.354138     0.423231 
    0.373501     0.276703     0.531104 
    0.387834     0.647815     0.372646 
    0.566301     0.490017     0.488571 
    0.605246     0.465897     0.659967 
    0.635151     0.511149     0.312405 
    0.477316     0.504399     0.342370 
    0.541921     0.607462     0.614966 
    0.709334     0.559882     0.436068 
    0.544782     0.633795     0.408699 
    0.431616     0.712147     0.519955 
    0.291327     0.476786     0.487921 
    0.477269     0.419583     0.696194 
    0.350257     0.528696     0.322710 
    0.322277     0.377250     0.465913 
    0.356347     0.450720     0.393839 
    0.478122     0.479346     0.598494 
    0.294242     0.547611     0.412958 
    0.701629     0.468849     0.542452 
    0.595223     0.349990     0.458761 
    0.585878     0.402097     0.363325 
    0.678308     0.424838     0.436474 
    0.647051     0.382071     0.550156 
    0.644695     0.649806     0.520655 
    0.668093     0.562504     0.579574 
    0.563029     0.712758     0.528058 
    0.408358     0.643816     0.633281 
EA10517 15.955 15.963 14.626 90.00 90.00 90.00 Sym.group:    0
1.0
   15.954822     0.000000     0.000000
    0.000000    15.962721     0.000000
    0.000000     0.000000    14.626089
   W   B
  11  16
Direct
    0.513314     0.497339     0.518559 
    0.675003     0.427965     0.445329 
    0.343252     0.574844     0.545526 
    0.585471     0.646600     0.473855 
    0.444234     0.345283     0.523763 
    0.415748     0.580373     0.386105 
    0.433775     0.449644     0.686254 
    0.480590     0.603793     0.645054 
    0.319513     0.436804     0.439372 
    0.456428     0.396781     0.360604 
    0.570445     0.527556     0.335203 
    0.594437     0.366146     0.542948 
    0.669605     0.542052     0.528456 
    0.286514     0.567209     0.410432 
    0.564879     0.496487     0.676670 
    0.563316     0.344299     0.436851 
    0.450077     0.661259     0.512750 
    0.350564     0.438957     0.577259 
    0.673526     0.557660     0.417217 
    0.359238     0.311760     0.417482 
    0.553623     0.396547     0.640021 
    0.476708     0.702375     0.413514 
    0.351943     0.552105     0.687128 
    0.591951     0.389069     0.338537 
    0.638450     0.456820     0.592023 
    0.527393     0.655282     0.334106 
    0.610005     0.574992     0.614982 
EA10575 17.053 15.944 15.407 90.00 90.00 90.00 Sym.group:    0
1.0
   17.053475     0.000000     0.000000
    0.000000    15.944066     0.000000
    0.000000     0.000000    15.407048
   W   B
  14  19
Direct
    0.403160     0.537999     0.447882 
    0.441530     0.686725     0.531752 
    0.300323     0.626847     0.582504 
    0.439292     0.556980     0.625481 
    0.309751     0.464025     0.589196 
    0.527745     0.421158     0.669029 
    0.310760     0.671131     0.440785 
    0.599387     0.691249     0.494796 
    0.616068     0.477961     0.343173 
    0.555785     0.510502     0.515914 
    0.704754     0.569809     0.452582 
    0.678583     0.606920     0.600930 
    0.643740     0.358410     0.569219 
    0.493752     0.390392     0.408636 
    0.569663     0.549914     0.663707 
    0.515477     0.358419     0.549320 
    0.369620     0.390032     0.493027 
    0.267756     0.544678     0.474269 
    0.400468     0.436001     0.684990 
    0.291171     0.445873     0.453330 
    0.422847     0.384975     0.592558 
    0.546987     0.636113     0.605900 
    0.357335     0.400686     0.386447 
    0.512810     0.567910     0.343210 
    0.593921     0.604618     0.389533 
    0.501998     0.628852     0.430259 
    0.706360     0.477095     0.555644 
    0.642301     0.479565     0.642160 
    0.625335     0.365900     0.422349 
    0.691328     0.434366     0.456217 
    0.405700     0.441166     0.311229 
    0.567530     0.301472     0.476609 
    0.486761     0.482258     0.297365 
EA10846 15.973 16.061 15.468 90.00 90.00 90.00 Sym.group:    0
1.0
   15.973418     0.000000     0.000000
    0.000000    16.060897     0.000000
    0.000000     0.000000    15.468211
   W   B
  14  20
Direct
    0.385008     0.652301     0.390620 
    0.342067     0.387143     0.517493 
    0.305609     0.629612     0.540291 
    0.259045     0.582081     0.358549 
    0.412762     0.529151     0.514277 
    0.366212     0.465020     0.363148 
    0.445433     0.517837     0.674445 
    0.548058     0.636234     0.607825 
    0.622903     0.445320     0.331038 
    0.578760     0.500859     0.518384 
    0.665916     0.372997     0.478538 
    0.676523     0.416386     0.638761 
    0.664885     0.632044     0.490637 
    0.509719     0.545645     0.363434 
    0.443918     0.352310     0.421298 
    0.492470     0.403591     0.339110 
    0.255677     0.495541     0.558419 
    0.318578     0.490109     0.635432 
    0.258738     0.489967     0.452814 
    0.558593     0.357268     0.569569 
    0.566266     0.333729     0.378255 
    0.545589     0.301975     0.477016 
    0.458359     0.404800     0.593347 
    0.453713     0.315957     0.526204 
    0.589106     0.520958     0.674384 
    0.533016     0.669793     0.466584 
    0.413025     0.649554     0.621026 
    0.441218     0.681952     0.522303 
    0.543786     0.423818     0.654796 
    0.721866     0.500747     0.537471 
    0.674993     0.555707     0.619818 
    0.653404     0.575733     0.360596 
    0.704029     0.505154     0.428379 
    0.590755     0.658705     0.375740 
EA11174 16.836 16.476 14.643 90.00 90.00 90.00 Sym.group:    0
1.0
   16.836278     0.000000     0.000000
    0.000000    16.475903     0.000000
    0.000000     0.000000    14.642812
   W   B
  14  20
Direct
    0.378884     0.586892     0.606749 
    0.537553     0.647836     0.595354 
    0.429793     0.720816     0.525688 
    0.611195     0.672891     0.441819 
    0.668551     0.538163     0.345279 
    0.501450     0.515286     0.512737 
    0.627955     0.515067     0.650711 
    0.731428     0.411437     0.566418 
    0.432273     0.318833     0.397184 
    0.422927     0.559514     0.324707 
    0.591516     0.387371     0.549319 
    0.549808     0.444663     0.363903 
    0.428275     0.361434     0.582705 
    0.361532     0.461145     0.444815 
    0.547587     0.584464     0.364854 
    0.498057     0.544156     0.679495 
    0.517284     0.440817     0.659368 
    0.380587     0.616099     0.457030 
    0.664814     0.616797     0.562220 
    0.743138     0.496653     0.453491 
    0.482765     0.644487     0.424211 
    0.713467     0.596847     0.463372 
    0.728546     0.539008     0.560785 
    0.565350     0.322412     0.416019 
    0.426383     0.474820     0.678179 
    0.332704     0.332450     0.482188 
    0.311469     0.576607     0.382375 
    0.670142     0.425973     0.431649 
    0.300941     0.395712     0.558989 
    0.287141     0.571943     0.490664 
    0.337568     0.456998     0.640086 
    0.513710     0.291594     0.503197 
    0.425587     0.430002     0.317965 
    0.279618     0.500811     0.566474 
EA11577 16.496 15.000 14.922 90.00 90.00 90.00 Sym.group:    0
1.0
   16.496271     0.000000     0.000000
    0.000000    14.999695     0.000000
    0.000000     0.000000    14.922084
   W   B
  13  19
Direct
    0.571376     0.537269     0.498637 
    0.514112     0.546284     0.341979 
    0.710624     0.480135     0.508134 
    0.600578     0.374449     0.424183 
    0.558909     0.369332     0.584359 
    0.462595     0.392661     0.327206 
    0.428285     0.463156     0.489345 
    0.399792     0.412103     0.672098 
    0.513421     0.523684     0.661776 
    0.381477     0.613625     0.405333 
    0.281843     0.477523     0.588307 
    0.386793     0.598079     0.604117 
    0.556314     0.686992     0.577282 
    0.651079     0.497590     0.361586 
    0.645067     0.589943     0.622744 
    0.646992     0.479386     0.642523 
    0.607378     0.678466     0.440517 
    0.673622     0.637889     0.518384 
    0.506640     0.677629     0.432770 
    0.683393     0.333653     0.526328 
    0.690341     0.384501     0.620645 
    0.583728     0.435763     0.291763 
    0.672261     0.595076     0.409832 
    0.302367     0.400517     0.460133 
    0.484112     0.315838     0.459143 
    0.431793     0.316079     0.559645 
    0.336656     0.350081     0.553187 
    0.382555     0.326862     0.452405 
    0.277557     0.601864     0.505306 
    0.292011     0.509074     0.440823 
    0.333528     0.691936     0.511476 
    0.432801     0.702561     0.508032 
EA11802 16.887 15.119 15.007 90.00 90.00 90.00 Sym.group:    0
1.0
   16.886816     0.000000     0.000000
    0.000000    15.118812     0.000000
    0.000000     0.000000    15.006902
   W   B
  14  20
Direct
    0.360517     0.654663     0.491093 
    0.402170     0.338970     0.445227 
    0.279714     0.525108     0.558280 
    0.246478     0.572965     0.406236 
    0.423175     0.484342     0.513225 
    0.406417     0.457385     0.329535 
    0.472626     0.384838     0.647967 
    0.502929     0.545216     0.678715 
    0.622836     0.585077     0.331874 
    0.576800     0.508853     0.521833 
    0.697986     0.464189     0.428390 
    0.707794     0.423094     0.590280 
    0.595961     0.661470     0.588635 
    0.478611     0.593994     0.385132 
    0.354922     0.595905     0.355286 
    0.528916     0.491817     0.292022 
    0.295758     0.385674     0.526716 
    0.344619     0.393863     0.621847 
    0.289793     0.442905     0.435678 
    0.619951     0.362884     0.481175 
    0.625142     0.448893     0.302570 
    0.618513     0.361478     0.368416 
    0.517112     0.355783     0.515349 
    0.528894     0.328429     0.402690 
    0.596350     0.441214     0.670429 
    0.461865     0.663561     0.598043 
    0.378445     0.490262     0.664550 
    0.386866     0.596372     0.625015 
    0.593032     0.359392     0.592259 
    0.698252     0.563778     0.565016 
    0.641863     0.540844     0.657921 
    0.582538     0.669606     0.444312 
    0.668337     0.613341     0.467140 
    0.494819     0.693834     0.497144 
EA12183 17.214 14.984 14.345 90.00 90.00 90.00 Sym.group:    0
1.0
   17.213630     0.000000     0.000000
    0.000000    14.983789     0.000000
    0.000000     0.000000    14.344917
   W   B
  14  18
Direct
    0.362813     0.312652     0.493853 
    0.511866     0.361906     0.424057 
    0.447998     0.660636     0.450454 
    0.300390     0.630515     0.539137 
    0.242422     0.478248     0.540505 
    0.561224     0.524788     0.508502 
    0.582795     0.624519     0.339066 
    0.658399     0.442991     0.411591 
    0.610749     0.680224     0.490673 
    0.603366     0.462941     0.668321 
    0.462948     0.418043     0.602631 
    0.387313     0.495816     0.451837 
    0.485083     0.251064     0.545647 
    0.317608     0.658564     0.375199 
    0.354148     0.514003     0.612640 
    0.394724     0.371294     0.365756 
    0.451708     0.451671     0.325621 
    0.548595     0.482528     0.336140 
    0.422399     0.591086     0.588735 
    0.586844     0.612348     0.647147 
    0.504040     0.554748     0.660542 
    0.694742     0.477962     0.559728 
    0.693383     0.600798     0.387527 
    0.622792     0.312165     0.473651 
    0.701927     0.571696     0.495687 
    0.666328     0.374175     0.553061 
    0.670370     0.578089     0.605052 
    0.508669     0.652277     0.587726 
    0.265121     0.543789     0.419933 
    0.336132     0.407897     0.603256 
    0.466195     0.559492     0.346899 
    0.576908     0.341073     0.589423 
EA12404 16.779 16.952 14.992 90.00 90.00 90.00 Sym.group:    0
1.0
   16.778523     0.000000     0.000000
    0.000000    16.951617     0.000000
    0.000000     0.000000    14.991883
   W   B
  15  20
Direct
    0.419639     0.371262     0.374754 
    0.404883     0.476471     0.489255 
    0.370716     0.625372     0.532015 
    0.333772     0.556333     0.356557 
    0.418227     0.752767     0.481544 
    0.489304     0.610884     0.400804 
    0.545045     0.530560     0.547163 
    0.505907     0.575752     0.691293 
    0.545578     0.284858     0.377033 
    0.521188     0.370815     0.541937 
    0.534121     0.686883     0.545324 
    0.552830     0.451677     0.388716 
    0.689824     0.486284     0.521796 
    0.669879     0.361448     0.407323 
    0.719299     0.495809     0.356896 
    0.399287     0.334793     0.521601 
    0.440936     0.499023     0.331113 
    0.285889     0.444598     0.420101 
    0.280641     0.435835     0.536496 
    0.303793     0.515255     0.592360 
    0.278512     0.528128     0.485623 
    0.372543     0.671996     0.387617 
    0.389646     0.536206     0.641480 
    0.316839     0.363140     0.472946 
    0.541923     0.450280     0.680072 
    0.452417     0.461404     0.639750 
    0.655013     0.621740     0.535812 
    0.699125     0.594447     0.440070 
    0.625708     0.421046     0.628895 
    0.607587     0.281897     0.498297 
    0.622507     0.512256     0.676634 
    0.615761     0.570143     0.369439 
    0.656108     0.355431     0.552658 
    0.613123     0.652569     0.436423 
    0.622435     0.612638     0.640201 
EA12775 17.164 15.578 14.329 90.00 90.00 90.00 Sym.group:    0
1.0
   17.163777     0.000000     0.000000
    0.000000    15.578125     0.000000
    0.000000     0.000000    14.328937
   W   B
  13  20
Direct
    0.486961     0.620704     0.573711 
    0.425780     0.473380     0.499960 
    0.340079     0.573175     0.612189 
    0.352886     0.329508     0.507926 
    0.363137     0.552739     0.349205 
    0.510135     0.572076     0.382083 
    0.540550     0.714566     0.458581 
    0.436262     0.328259     0.645813 
    0.463783     0.488831     0.683612 
    0.563414     0.417102     0.418582 
    0.651750     0.600445     0.456273 
    0.695411     0.531832     0.610176 
    0.653887     0.379653     0.554255 
    0.366219     0.405569     0.358365 
    0.451713     0.449793     0.331573 
    0.290924     0.542665     0.475080 
    0.348013     0.424458     0.634256 
    0.384681     0.692404     0.542081 
    0.290150     0.452908     0.543149 
    0.327927     0.640407     0.470269 
    0.298031     0.445258     0.424654 
    0.447298     0.352306     0.395895 
    0.415105     0.671553     0.421945 
    0.738523     0.512585     0.394704 
    0.770077     0.557712     0.492471 
    0.751425     0.451857     0.498670 
    0.690247     0.416839     0.410532 
    0.650176     0.498296     0.347734 
    0.528175     0.411735     0.575666 
    0.577801     0.564299     0.671695 
    0.612300     0.638912     0.597080 
    0.592499     0.456491     0.655975 
    0.484682     0.331687     0.505841 
EA13335 16.788 15.279 15.156 90.00 90.00 90.00 Sym.group:    0
1.0
   16.787896     0.000000     0.000000
    0.000000    15.279410     0.000000
    0.000000     0.000000    15.156072
   W   B
  11  16
Direct
    0.493433     0.504867     0.495139 
    0.500079     0.554420     0.671023 
    0.339629     0.422676     0.518726 
    0.500731     0.429019     0.313531 
    0.661946     0.569673     0.470111 
    0.475010     0.372831     0.617910 
    0.630836     0.447130     0.606083 
    0.537093     0.608834     0.356773 
    0.463652     0.329116     0.440288 
    0.369197     0.606896     0.558478 
    0.523834     0.676487     0.524439 
    0.657438     0.416557     0.461950 
    0.347482     0.541893     0.424969 
    0.598160     0.483522     0.387389 
    0.400518     0.486832     0.620975 
    0.395926     0.444530     0.391672 
    0.595510     0.579626     0.586634 
    0.426268     0.629202     0.429681 
    0.570062     0.361939     0.516342 
    0.551932     0.434707     0.715709 
    0.729069     0.465257     0.522740 
    0.388299     0.296172     0.549837 
    0.587227     0.370514     0.399047 
    0.446945     0.683240     0.641964 
    0.612931     0.697121     0.428368 
    0.273962     0.540595     0.501344 
    0.422833     0.546343     0.348879 
EA13382 16.954 14.880 14.801 90.00 90.00 90.00 Sym.group:    0
1.0
   16.953676     0.000000     0.000000
    0.000000    14.880261     0.000000
    0.000000     0.000000    14.801278
   W   B
  14  19
Direct
    0.370674     0.682217     0.534379 
    0.466245     0.615194     0.395473 
    0.575836     0.510100     0.494515 
    0.501072     0.455739     0.319743 
    0.556346     0.623889     0.651180 
    0.564067     0.342585     0.428087 
    0.627279     0.383440     0.601806 
    0.482271     0.467936     0.650836 
    0.291022     0.520330     0.543845 
    0.420190     0.454630     0.469507 
    0.369079     0.348349     0.597002 
    0.693086     0.544042     0.628298 
    0.710706     0.426171     0.457089 
    0.393780     0.608558     0.676996 
    0.343056     0.562439     0.413387 
    0.544566     0.670312     0.510352 
    0.348678     0.672329     0.386950 
    0.583973     0.568078     0.337802 
    0.605742     0.642470     0.421382 
    0.710193     0.577165     0.488895 
    0.641825     0.647560     0.536513 
    0.274404     0.633842     0.451357 
    0.672831     0.556227     0.387135 
    0.436949     0.332174     0.375284 
    0.673998     0.300092     0.496414 
    0.293026     0.386296     0.487438 
    0.356800     0.317463     0.442679 
    0.350314     0.472578     0.666068 
    0.502141     0.346766     0.562789 
    0.599537     0.490083     0.703187 
    0.446774     0.293856     0.484051 
    0.626591     0.461000     0.349095 
    0.466949     0.586091     0.550466 
EA13814 17.017 14.425 14.245 90.00 90.00 90.00 Sym.group:    0
1.0
   17.016705     0.000000     0.000000
    0.000000    14.425002     0.000000
    0.000000     0.000000    14.244703
   W   B
  11  20
Direct
    0.563061     0.465000     0.468959 
    0.693599     0.389105     0.585233 
    0.706310     0.530190     0.489620 
    0.510466     0.546492     0.325613 
    0.472841     0.323106     0.495726 
    0.375183     0.489414     0.289544 
    0.342866     0.356701     0.396320 
    0.459342     0.451170     0.631518 
    0.562805     0.596747     0.607952 
    0.391950     0.507080     0.482752 
    0.502206     0.663750     0.461204 
    0.677628     0.527831     0.644046 
    0.685634     0.632529     0.593450 
    0.664575     0.361069     0.433900 
    0.633460     0.669986     0.501318 
    0.651936     0.541036     0.337983 
    0.603905     0.311717     0.509027 
    0.616298     0.630430     0.391397 
    0.673009     0.437867     0.354571 
    0.567605     0.359212     0.607541 
    0.363160     0.360837     0.561890 
    0.398671     0.616424     0.369646 
    0.595746     0.458691     0.661852 
    0.426370     0.614958     0.597269 
    0.280635     0.417797     0.511524 
    0.303908     0.626194     0.535956 
    0.269374     0.524709     0.556501 
    0.323951     0.447775     0.618638 
    0.375294     0.670417     0.476319 
    0.346695     0.558109     0.631912 
    0.461515     0.413660     0.370821 
EA14125 16.691 14.333 14.374 90.00 90.00 90.00 Sym.group:    0
1.0
   16.690636     0.000000     0.000000
    0.000000    14.332803     0.000000
    0.000000     0.000000    14.373721
   W   B
  12  19
Direct
    0.434397     0.525139     0.462757 
    0.306813     0.629827     0.561383 
    0.292122     0.462634     0.502994 
    0.480854     0.408672     0.346049 
    0.527962     0.670659     0.444733 
    0.618687     0.455329     0.290787 
    0.657165     0.611684     0.353845 
    0.547333     0.588450     0.609662 
    0.442411     0.430153     0.627463 
    0.614486     0.490647     0.480273 
    0.495290     0.328996     0.503083 
    0.691915     0.615402     0.632645 
    0.324782     0.506413     0.647532 
    0.317270     0.391790     0.631135 
    0.324156     0.615658     0.410461 
    0.364222     0.329486     0.550822 
    0.342388     0.417675     0.356961 
    0.392586     0.684368     0.460779 
    0.374436     0.345204     0.434592 
    0.322227     0.523606     0.350159 
    0.433296     0.666537     0.565791 
    0.645183     0.655446     0.506663 
    0.600691     0.354098     0.399159 
    0.409283     0.577083     0.638977 
    0.581582     0.398356     0.611080 
    0.726461     0.579477     0.482595 
    0.686828     0.388599     0.575159 
    0.732587     0.490098     0.558058 
    0.624862     0.330646     0.511782 
    0.654315     0.477034     0.642545 
    0.533410     0.550835     0.350072 
EA14297 16.297 16.741 15.570 90.00 90.00 90.00 Sym.group:    0
1.0
   16.297037     0.000000     0.000000
    0.000000    16.741075     0.000000
    0.000000     0.000000    15.569594
   W   B
  14  20
Direct
    0.610883     0.705893     0.547565 
    0.492282     0.581908     0.347936 
    0.423200     0.722288     0.403906 
    0.632208     0.418915     0.536553 
    0.602109     0.563977     0.626786 
    0.462609     0.351459     0.413331 
    0.470119     0.487969     0.519329 
    0.291628     0.450557     0.523635 
    0.386230     0.338947     0.565258 
    0.441627     0.540461     0.664985 
    0.356137     0.559340     0.416326 
    0.593445     0.287662     0.448228 
    0.469716     0.648352     0.535325 
    0.604991     0.576367     0.457085 
    0.550931     0.691991     0.417320 
    0.699814     0.482431     0.436654 
    0.514249     0.764883     0.479766 
    0.671865     0.390776     0.402781 
    0.585852     0.377849     0.346252 
    0.606458     0.474746     0.368516 
    0.649236     0.440183     0.673846 
    0.336592     0.668202     0.491014 
    0.422843     0.468430     0.344310 
    0.448253     0.414164     0.662391 
    0.516700     0.359917     0.548690 
    0.328771     0.347549     0.445095 
    0.309167     0.524957     0.636269 
    0.352898     0.440628     0.648413 
    0.546677     0.432419     0.652481 
    0.335729     0.431581     0.390236 
    0.337484     0.590194     0.563969 
    0.718960     0.491427     0.633225 
    0.517834     0.445040     0.317813 
    0.712504     0.528539     0.534709 
EA14772 16.577 15.007 14.847 90.00 90.00 90.00 Sym.group:    0
1.0
   16.577353     0.000000     0.000000
    0.000000    15.006612     0.000000
    0.000000     0.000000    14.847359
   W   B
  15  16
Direct
    0.558653     0.547210     0.534220 
    0.685124     0.634166     0.450411 
    0.695312     0.457694     0.496343 
    0.538979     0.409382     0.640047 
    0.452365     0.661932     0.579495 
    0.400968     0.422350     0.694466 
    0.337179     0.576423     0.658042 
    0.438935     0.595516     0.408817 
    0.388900     0.478677     0.521258 
    0.528433     0.370165     0.472792 
    0.289434     0.607516     0.395187 
    0.441617     0.408596     0.345163 
    0.607072     0.714473     0.583461 
    0.681682     0.525325     0.329705 
    0.554379     0.726405     0.441662 
    0.625117     0.407398     0.370914 
    0.686854     0.589134     0.589121 
    0.651948     0.328566     0.442152 
    0.674318     0.389884     0.632317 
    0.651772     0.325357     0.550962 
    0.661974     0.496641     0.638562 
    0.338239     0.633657     0.519936 
    0.429818     0.341244     0.573837 
    0.576771     0.599815     0.371405 
    0.266558     0.549598     0.535221 
    0.323479     0.385883     0.418173 
    0.266336     0.473089     0.451986 
    0.398531     0.331989     0.464215 
    0.334461     0.483713     0.361811 
    0.466975     0.537732     0.651772 
    0.547821     0.490468     0.376545 
EA14979 17.505 14.541 14.624 90.00 90.00 90.00 Sym.group:    0
1.0
   17.505274     0.000000     0.000000
    0.000000    14.541078     0.000000
    0.000000     0.000000    14.623868
   W   B
  15  18
Direct
    0.574242     0.516897     0.505855 
    0.716764     0.545237     0.585626 
    0.704537     0.420468     0.463227 
    0.491843     0.552165     0.670194 
    0.525208     0.385364     0.624248 
    0.508660     0.349707     0.449525 
    0.509324     0.477445     0.331802 
    0.417399     0.506749     0.516226 
    0.465948     0.638137     0.405939 
    0.373930     0.674519     0.584872 
    0.333645     0.556466     0.686220 
    0.263931     0.551868     0.531766 
    0.295797     0.404495     0.593632 
    0.519221     0.686573     0.564609 
    0.375038     0.407030     0.334505 
    0.653867     0.415376     0.599448 
    0.621154     0.332237     0.532629 
    0.676656     0.579520     0.439912 
    0.623377     0.304026     0.425647 
    0.644637     0.500906     0.361491 
    0.645264     0.651838     0.531147 
    0.611670     0.392221     0.357841 
    0.611262     0.609994     0.638662 
    0.614905     0.498742     0.665557 
    0.405061     0.429218     0.662923 
    0.367670     0.353950     0.474272 
    0.414330     0.348293     0.575073 
    0.299759     0.433684     0.444498 
    0.588120     0.593362     0.359345 
    0.341325     0.632493     0.445038 
    0.587098     0.670946     0.440931 
    0.323646     0.533858     0.388082 
    0.394716     0.546218     0.309260 
EA15406 16.440 15.294 14.881 90.00 90.00 90.00 Sym.group:    0
1.0
   16.439909     0.000000     0.000000
    0.000000    15.293819     0.000000
    0.000000     0.000000    14.881470
   W   B
  14  17
Direct
    0.551345     0.549876     0.517942 
    0.677515     0.641366     0.443875 
    0.698200     0.470156     0.491846 
    0.551980     0.416764     0.634504 
    0.446208     0.658976     0.575954 
    0.416662     0.423474     0.702035 
    0.341542     0.565496     0.662798 
    0.431150     0.591269     0.406628 
    0.393851     0.473989     0.524620 
    0.532001     0.373843     0.469687 
    0.433213     0.406518     0.347614 
    0.598185     0.715305     0.577980 
    0.675931     0.535378     0.323221 
    0.542645     0.728246     0.437384 
    0.621715     0.418331     0.365425 
    0.681890     0.594800     0.581684 
    0.657349     0.343176     0.433951 
    0.688323     0.401193     0.623370 
    0.657026     0.340105     0.542699 
    0.676004     0.504108     0.635317 
    0.332628     0.619843     0.517360 
    0.437853     0.344560     0.579678 
    0.567681     0.605131     0.361954 
    0.264632     0.535185     0.546581 
    0.320840     0.379739     0.428899 
    0.261567     0.458041     0.467931 
    0.401917     0.331097     0.471665 
    0.330720     0.481219     0.374935 
    0.474247     0.538745     0.648245 
    0.539764     0.494369     0.366170 
    0.295412     0.559700     0.438046 
EA15608 17.182 14.949 14.210 90.00 90.00 90.00 Sym.group:    0
1.0
   17.181762     0.000000     0.000000
    0.000000    14.949343     0.000000
    0.000000     0.000000    14.209823
   W   B
  15  18
Direct
    0.577455     0.513559     0.492694 
    0.723761     0.521169     0.460270 
    0.520080     0.440837     0.348204 
    0.486832     0.349361     0.518130 
    0.503356     0.457217     0.656421 
    0.409518     0.518091     0.488730 
    0.479998     0.628182     0.616341 
    0.390031     0.692910     0.473814 
    0.337731     0.603163     0.338356 
    0.263258     0.578078     0.475054 
    0.287615     0.430383     0.382142 
    0.534043     0.682605     0.455379 
    0.360693     0.389955     0.643459 
    0.664979     0.436005     0.628704 
    0.333110     0.312046     0.495807 
    0.655717     0.420273     0.378155 
    0.594399     0.349147     0.430938 
    0.681302     0.580444     0.592116 
    0.617816     0.323093     0.544612 
    0.664186     0.648574     0.498212 
    0.571837     0.337396     0.643564 
    0.642639     0.618848     0.387934 
    0.636366     0.520251     0.337095 
    0.396952     0.475154     0.326914 
    0.407161     0.383199     0.394591 
    0.278755     0.437803     0.535251 
    0.598265     0.561048     0.658993 
    0.347167     0.618625     0.600055 
    0.602768     0.656800     0.588951 
    0.304092     0.516189     0.613606 
    0.390579     0.532328     0.665401 
    0.684179     0.383485     0.485724 
    0.553361     0.583782     0.344386 
EA15967 15.666 15.674 16.040 90.00 90.00 90.00 Sym.group:    0
1.0
   15.666089     0.000000     0.000000
    0.000000    15.673667     0.000000
    0.000000     0.000000    16.039532
   W   B
  13  19
Direct
    0.421912     0.485118     0.506823 
    0.372048     0.365823     0.381417 
    0.245701     0.506473     0.559298 
    0.555796     0.535491     0.649343 
    0.568092     0.380925     0.635624 
    0.397349     0.494624     0.661480 
    0.512955     0.328853     0.489257 
    0.581482     0.649677     0.533962 
    0.424602     0.677033     0.478277 
    0.515558     0.584783     0.381636 
    0.521034     0.402396     0.351389 
    0.593316     0.481647     0.485811 
    0.712157     0.455833     0.598586 
    0.347479     0.599123     0.575742 
    0.426203     0.366034     0.602437 
    0.308288     0.491839     0.416543 
    0.322740     0.398064     0.589210 
    0.373180     0.336147     0.512977 
    0.308193     0.589247     0.475142 
    0.291996     0.404792     0.486346 
    0.452160     0.617626     0.599931 
    0.675664     0.593105     0.627103 
    0.672475     0.592045     0.429833 
    0.625623     0.678593     0.400438 
    0.710910     0.581884     0.532240 
    0.375527     0.580330     0.394278 
    0.538162     0.725436     0.420824 
    0.409450     0.491854     0.344294 
    0.716383     0.403294     0.462138 
    0.736009     0.506433     0.465069 
    0.651843     0.346984     0.528895 
    0.635711     0.348492     0.423658 
EA16385 16.952 14.497 14.460 90.00 90.00 90.00 Sym.group:    0
1.0
   16.951980     0.000000     0.000000
    0.000000    14.496559     0.000000
    0.000000     0.000000    14.459631
   W   B
  15  16
Direct
    0.439890     0.508945     0.305054 
    0.325079     0.596932     0.340740 
    0.430249     0.500283     0.515058 
    0.325193     0.502728     0.657613 
    0.539757     0.340484     0.478619 
    0.489633     0.642674     0.397481 
    0.277146     0.552288     0.491200 
    0.652706     0.374929     0.365827 
    0.561883     0.410199     0.639301 
    0.590342     0.517197     0.491187 
    0.487989     0.569637     0.659177 
    0.583549     0.673816     0.557831 
    0.596442     0.529720     0.294387 
    0.714579     0.537298     0.383103 
    0.347865     0.655894     0.622911 
    0.374801     0.648180     0.471686 
    0.454464     0.671867     0.543198 
    0.530539     0.405735     0.342691 
    0.458172     0.331390     0.597216 
    0.436508     0.387478     0.391554 
    0.402610     0.342738     0.493761 
    0.434678     0.420961     0.673524 
    0.365655     0.370476     0.599019 
    0.312033     0.410131     0.513050 
    0.620972     0.639249     0.394109 
    0.617759     0.557827     0.651837 
    0.692762     0.586521     0.578670 
    0.736079     0.496800     0.525362 
    0.679004     0.469042     0.612640 
    0.342795     0.449870     0.396600 
    0.678865     0.398715     0.515592 
EA16705 16.976 14.514 14.291 90.00 90.00 90.00 Sym.group:    0
1.0
   16.975736     0.000000     0.000000
    0.000000    14.513623     0.000000
    0.000000     0.000000    14.291078
   W   B
  15  16
Direct
    0.448881     0.309051     0.450350 
    0.338532     0.351376     0.363611 
    0.431804     0.510930     0.508204 
    0.316359     0.638276     0.530493 
    0.540057     0.452560     0.659021 
    0.496734     0.431195     0.335367 
    0.278858     0.487535     0.440726 
    0.670981     0.353829     0.574288 
    0.550703     0.624979     0.622001 
    0.592155     0.499210     0.484317 
    0.478640     0.670030     0.465867 
    0.580343     0.597605     0.343787 
    0.608173     0.309383     0.424853 
    0.720774     0.419331     0.415820 
    0.336772     0.637674     0.370068 
    0.376259     0.494242     0.342218 
    0.450269     0.573628     0.339504 
    0.542612     0.337106     0.558535 
    0.452176     0.556271     0.691480 
    0.443381     0.365394     0.589622 
    0.408487     0.454632     0.660336 
    0.425305     0.647946     0.614411 
    0.360678     0.558413     0.649907 
    0.315823     0.474958     0.590202 
    0.623336     0.434886     0.333860 
    0.610329     0.665050     0.479505 
    0.687536     0.605049     0.441667 
    0.728956     0.531470     0.520461 
    0.670269     0.615069     0.558444 
    0.349889     0.378493     0.521405 
    0.664930     0.514435     0.619667 
EA16883 15.854 16.924 14.939 90.00 90.00 90.00 Sym.group:    0
1.0
   15.854011     0.000000     0.000000
    0.000000    16.924096     0.000000
    0.000000     0.000000    14.939300
   W   B
  15  20
Direct
    0.381440     0.439994     0.419310 
    0.528524     0.464754     0.325680 
    0.558200     0.528014     0.486937 
    0.228743     0.544136     0.502014 
    0.618309     0.347252     0.373313 
    0.730314     0.531485     0.468163 
    0.445697     0.659399     0.455670 
    0.652436     0.590468     0.340021 
    0.226096     0.403983     0.459780 
    0.254305     0.504750     0.344525 
    0.307941     0.570882     0.655612 
    0.462147     0.520420     0.659447 
    0.407332     0.316406     0.521134 
    0.327814     0.437882     0.589064 
    0.636659     0.401620     0.554801 
    0.332039     0.587080     0.417096 
    0.680189     0.653828     0.467622 
    0.328219     0.629790     0.523660 
    0.485355     0.353297     0.401816 
    0.717248     0.410028     0.431793 
    0.522502     0.596632     0.346924 
    0.674932     0.467099     0.347831 
    0.580688     0.671170     0.445728 
    0.428199     0.557829     0.371212 
    0.409993     0.632571     0.593584 
    0.665447     0.614936     0.567009 
    0.512257     0.621340     0.578998 
    0.590584     0.579023     0.640678 
    0.600948     0.482592     0.667989 
    0.674375     0.521851     0.601712 
    0.441320     0.381913     0.646206 
    0.522660     0.330171     0.595225 
    0.548054     0.313369     0.487189 
    0.474375     0.432874     0.541768 
    0.544660     0.401159     0.670490 
EA17215 16.781 15.383 14.571 90.00 90.00 90.00 Sym.group:    0
1.0
   16.780954     0.000000     0.000000
    0.000000    15.382528     0.000000
    0.000000     0.000000    14.570683
   W   B
  15  19
Direct
    0.594992     0.522042     0.509784 
    0.513393     0.596601     0.353127 
    0.421801     0.525430     0.493976 
    0.272069     0.461930     0.529956 
    0.402727     0.508551     0.664986 
    0.375686     0.377561     0.411640 
    0.666285     0.660586     0.426278 
    0.664613     0.527176     0.341573 
    0.719649     0.473033     0.605412 
    0.493421     0.387450     0.562574 
    0.521938     0.426045     0.365891 
    0.559133     0.491748     0.698635 
    0.368882     0.641073     0.357493 
    0.474322     0.261524     0.429284 
    0.518582     0.628313     0.621229 
    0.650137     0.583869     0.651034 
    0.449009     0.674142     0.474516 
    0.406946     0.503349     0.333719 
    0.288979     0.590032     0.464874 
    0.390671     0.646037     0.609841 
    0.350698     0.668325     0.503499 
    0.616891     0.392193     0.620994 
    0.583574     0.321032     0.447072 
    0.646855     0.390479     0.396639 
    0.364366     0.383005     0.601285 
    0.394601     0.293651     0.539530 
    0.736447     0.546680     0.473088 
    0.301204     0.328559     0.529340 
    0.716127     0.443308     0.454502 
    0.654839     0.371999     0.515851 
    0.706672     0.607798     0.560391 
    0.547896     0.667039     0.478538 
    0.314954     0.510773     0.391091 
    0.311639     0.588668     0.582365 
EA17750 16.617 15.169 15.124 90.00 90.00 90.00 Sym.group:    0
1.0
   16.617264     0.000000     0.000000
    0.000000    15.169450     0.000000
    0.000000     0.000000    15.124210
   W   B
  14  16
Direct
    0.526421     0.670517     0.456998 
    0.685114     0.639364     0.420893 
    0.428983     0.508324     0.491083 
    0.533096     0.573669     0.331611 
    0.546760     0.408934     0.363354 
    0.400128     0.350771     0.424187 
    0.387285     0.612595     0.372130 
    0.594402     0.507438     0.490723 
    0.328508     0.565682     0.604734 
    0.285694     0.421678     0.524412 
    0.519497     0.426578     0.626989 
    0.499042     0.606159     0.619045 
    0.755227     0.506519     0.435331 
    0.630135     0.535414     0.660378 
    0.654117     0.507864     0.351346 
    0.423360     0.468160     0.338158 
    0.327768     0.469469     0.388443 
    0.283671     0.546039     0.458734 
    0.404810     0.674722     0.512564 
    0.311758     0.645497     0.488135 
    0.583283     0.350239     0.514076 
    0.523140     0.294156     0.437692 
    0.717903     0.473501     0.567952 
    0.625937     0.646064     0.557731 
    0.645815     0.397965     0.584998 
    0.421848     0.511161     0.681550 
    0.482692     0.314420     0.533226 
    0.397197     0.355808     0.569237 
    0.365385     0.429148     0.642746 
    0.711023     0.582148     0.551546 
EA17859 17.079 15.454 14.790 90.00 90.00 90.00 Sym.group:    0
1.0
   17.079010     0.000000     0.000000
    0.000000    15.454356     0.000000
    0.000000     0.000000    14.789824
   W   B
  14  20
Direct
    0.427567     0.483587     0.501227 
    0.497455     0.525269     0.338965 
    0.641457     0.330225     0.428827 
    0.364137     0.441110     0.331822 
    0.293828     0.523577     0.585173 
    0.495012     0.359501     0.395271 
    0.652841     0.577030     0.344845 
    0.518777     0.725532     0.504673 
    0.495554     0.607003     0.610349 
    0.710073     0.572552     0.496986 
    0.586413     0.479935     0.495539 
    0.546804     0.449289     0.657710 
    0.392013     0.475366     0.694016 
    0.641700     0.336546     0.596825 
    0.605872     0.440464     0.346404 
    0.522025     0.345468     0.544867 
    0.427492     0.324641     0.519315 
    0.365320     0.347590     0.439524 
    0.300810     0.522883     0.426310 
    0.297933     0.422424     0.471461 
    0.348571     0.385507     0.568736 
    0.333537     0.612761     0.472661 
    0.460160     0.622177     0.438826 
    0.698849     0.455088     0.401945 
    0.630780     0.677604     0.448610 
    0.616144     0.653763     0.560112 
    0.624866     0.564583     0.623999 
    0.713391     0.424855     0.515583 
    0.679143     0.473074     0.610749 
    0.549118     0.647936     0.387513 
    0.372720     0.606851     0.672045 
    0.440713     0.368402     0.620775 
    0.380413     0.573553     0.379747 
    0.368513     0.643854     0.568583 
EA18422 16.752 14.911 14.495 90.00 90.00 90.00 Sym.group:    0
1.0
   16.752181     0.000000     0.000000
    0.000000    14.911383     0.000000
    0.000000     0.000000    14.494796
   W   B
  13  17
Direct
    0.523822     0.341711     0.427334 
    0.679402     0.362813     0.424941 
    0.439809     0.502860     0.482477 
    0.552720     0.465571     0.327306 
    0.568769     0.624410     0.400910 
    0.415673     0.666425     0.449983 
    0.397899     0.418635     0.338087 
    0.597737     0.492578     0.512690 
    0.718876     0.410365     0.595445 
    0.312700     0.415980     0.570542 
    0.292278     0.577020     0.520781 
    0.499742     0.528938     0.655430 
    0.474890     0.372572     0.601952 
    0.732839     0.488088     0.465384 
    0.672430     0.514281     0.377712 
    0.445311     0.569709     0.336429 
    0.345962     0.556112     0.374657 
    0.285632     0.472265     0.421571 
    0.395915     0.340633     0.475688 
    0.307453     0.363077     0.430740 
    0.568952     0.631002     0.552902 
    0.530066     0.720740     0.500535 
    0.725227     0.546469     0.563844 
    0.603370     0.339365     0.552668 
    0.597803     0.411233     0.646531 
    0.692978     0.593563     0.464672 
    0.390393     0.441048     0.688941 
    0.481295     0.675461     0.588706 
    0.398031     0.620696     0.599178 
    0.352030     0.536380     0.651962 
EA18570 17.625 14.129 14.337 90.00 90.00 90.00 Sym.group:    0
1.0
   17.625198     0.000000     0.000000
    0.000000    14.128574     0.000000
    0.000000     0.000000    14.336830
   W   B
  14  18
Direct
    0.392034     0.636360     0.576602 
    0.620497     0.563662     0.645057 
    0.387912     0.469386     0.650054 
    0.620020     0.386478     0.600693 
    0.384122     0.352163     0.519845 
    0.614288     0.358622     0.416846 
    0.388505     0.439399     0.358881 
    0.614688     0.530978     0.353783 
    0.387632     0.616428     0.398566 
    0.613969     0.657454     0.480975 
    0.741312     0.481992     0.607084 
    0.258520     0.415820     0.585465 
    0.735267     0.436135     0.376625 
    0.522345     0.499109     0.499477 
    0.715569     0.373352     0.504779 
    0.285846     0.416475     0.442335 
    0.287759     0.525778     0.390723 
    0.712078     0.563831     0.449129 
    0.288767     0.590228     0.491765 
    0.713806     0.615057     0.555218 
    0.288725     0.557196     0.606125 
    0.487448     0.368730     0.618883 
    0.519306     0.322345     0.518515 
    0.481592     0.344727     0.412042 
    0.516207     0.426062     0.337776 
    0.483870     0.538044     0.326679 
    0.517957     0.636733     0.378110 
    0.485642     0.682683     0.479784 
    0.521745     0.655433     0.586317 
    0.487707     0.573797     0.660484 
    0.522450     0.464280     0.672163 
    0.402419     0.501261     0.499219 
EA18831 15.469 15.511 16.381 90.00 90.00 90.00 Sym.group:    0
1.0
   15.469300     0.000000     0.000000
    0.000000    15.510929     0.000000
    0.000000     0.000000    16.380853
   W   B
  15  20
Direct
    0.527741     0.342552     0.510200 
    0.474707     0.439310     0.362598 
    0.641777     0.401751     0.375166 
    0.688054     0.569796     0.367769 
    0.710684     0.609825     0.523411 
    0.583228     0.506135     0.494072 
    0.349197     0.306950     0.494659 
    0.520525     0.477332     0.650379 
    0.418017     0.344886     0.639283 
    0.498954     0.641286     0.597477 
    0.332596     0.525703     0.371474 
    0.276104     0.416386     0.594534 
    0.405894     0.479949     0.523940 
    0.379404     0.537867     0.677409 
    0.556989     0.670136     0.455309 
    0.597109     0.498845     0.292844 
    0.446895     0.290972     0.411931 
    0.540042     0.311505     0.375178 
    0.678351     0.388352     0.501742 
    0.636062     0.397136     0.599354 
    0.719915     0.466297     0.562212 
    0.663443     0.527212     0.624956 
    0.729065     0.477220     0.460090 
    0.556121     0.337228     0.645648 
    0.449512     0.586241     0.343810 
    0.552387     0.566464     0.359144 
    0.360563     0.633086     0.577299 
    0.322376     0.603837     0.479379 
    0.637253     0.628769     0.638002 
    0.623254     0.706396     0.569327 
    0.387396     0.647619     0.402774 
    0.254952     0.512400     0.490979 
    0.283198     0.560225     0.576590 
    0.282185     0.415779     0.453914 
    0.416050     0.674552     0.497151 
EA19200 15.762 15.839 14.699 90.00 90.00 90.00 Sym.group:    0
1.0
   15.762316     0.000000     0.000000
    0.000000    15.838962     0.000000
    0.000000     0.000000    14.699108
   W   B
  14  19
Direct
    0.406276     0.502773     0.499085 
    0.593713     0.501653     0.499846 
    0.409675     0.341933     0.421397 
    0.412161     0.486335     0.312530 
    0.409477     0.650793     0.390032 
    0.410477     0.666954     0.575015 
    0.413790     0.519635     0.683751 
    0.409825     0.359044     0.609429 
    0.589572     0.341248     0.423076 
    0.589111     0.485228     0.313897 
    0.590868     0.650285     0.390586 
    0.589883     0.666513     0.575102 
    0.586586     0.518533     0.685167 
    0.588179     0.358412     0.611290 
    0.690180     0.394130     0.512343 
    0.690222     0.439881     0.406551 
    0.690085     0.550055     0.393880 
    0.690596     0.611175     0.488161 
    0.688852     0.568531     0.594804 
    0.688804     0.457642     0.606318 
    0.309432     0.395194     0.510683 
    0.310138     0.441341     0.405086 
    0.310592     0.550841     0.392256 
    0.309749     0.612039     0.486828 
    0.311209     0.569152     0.593411 
    0.310449     0.458814     0.604516 
    0.499617     0.413434     0.709713 
    0.500115     0.402403     0.509600 
    0.500316     0.381212     0.318227 
    0.500527     0.587124     0.308338 
    0.500396     0.711656     0.476182 
    0.499871     0.622132     0.669797 
    0.499261     0.283905     0.523101 
EA19499 17.302 15.076 15.290 90.00 90.00 90.00 Sym.group:    0
1.0
   17.301520     0.000000     0.000000
    0.000000    15.075586     0.000000
    0.000000     0.000000    15.289650
   W   B
  15  20
Direct
    0.638512     0.402690     0.378171 
    0.511829     0.485030     0.344623 
    0.412618     0.505160     0.498921 
    0.352563     0.442504     0.346919 
    0.254666     0.491796     0.482721 
    0.452273     0.350106     0.562349 
    0.492071     0.648255     0.420963 
    0.632192     0.609387     0.373171 
    0.504698     0.641241     0.596132 
    0.624246     0.706209     0.502078 
    0.494714     0.483640     0.667483 
    0.725401     0.598333     0.524291 
    0.585677     0.502754     0.512905 
    0.634588     0.603014     0.650854 
    0.308866     0.612134     0.412192 
    0.566109     0.373120     0.615129 
    0.576424     0.346839     0.507570 
    0.513031     0.348165     0.420411 
    0.452401     0.358937     0.327088 
    0.315995     0.603712     0.554973 
    0.409978     0.570224     0.343570 
    0.413876     0.333629     0.419062 
    0.381866     0.428856     0.655753 
    0.324538     0.399483     0.575774 
    0.337830     0.374398     0.471127 
    0.618095     0.496800     0.276811 
    0.392577     0.671417     0.528417 
    0.389509     0.588763     0.626944 
    0.468477     0.747516     0.515082 
    0.619167     0.455994     0.660438 
    0.654451     0.384894     0.570514 
    0.716975     0.442612     0.509904 
    0.701715     0.481054     0.610184 
    0.706628     0.503785     0.421736 
    0.315442     0.507548     0.615743 
EA19920 16.134 15.973 15.642 90.00 90.00 90.00 Sym.group:    0
1.0
   16.134112     0.000000     0.000000
    0.000000    15.972815     0.000000
    0.000000     0.000000    15.642218
   W   B
  15  16
Direct
    0.385420     0.491030     0.514824 
    0.408309     0.440198     0.328968 
    0.478364     0.567970     0.384021 
    0.572410     0.427814     0.356413 
    0.348248     0.321551     0.549308 
    0.475502     0.342494     0.461326 
    0.230637     0.539224     0.480379 
    0.471493     0.392220     0.624936 
    0.507444     0.634052     0.616927 
    0.562102     0.491190     0.511247 
    0.720122     0.599653     0.466357 
    0.592537     0.312335     0.577538 
    0.671213     0.554350     0.615441 
    0.674900     0.356801     0.453552 
    0.349827     0.616453     0.612773 
    0.343336     0.367668     0.422079 
    0.266258     0.412266     0.495276 
    0.334318     0.554994     0.383633 
    0.291551     0.458839     0.392565 
    0.325992     0.624901     0.471347 
    0.424336     0.643507     0.504256 
    0.681781     0.418356     0.583687 
    0.605664     0.429131     0.653551 
    0.602317     0.642323     0.419396 
    0.623844     0.552040     0.372208 
    0.697048     0.483582     0.402919 
    0.523608     0.654079     0.483347 
    0.729667     0.475621     0.509671 
    0.543335     0.512072     0.670694 
    0.618365     0.659650     0.531471 
    0.440054     0.523635     0.649890 
EA20252 16.226 16.178 14.671 90.00 90.00 90.00 Sym.group:    0
1.0
   16.226220     0.000000     0.000000
    0.000000    16.177810     0.000000
    0.000000     0.000000    14.670752
   W   B
  14  17
Direct
    0.489483     0.469823     0.528615 
    0.400790     0.450944     0.703936 
    0.498568     0.561788     0.680820 
    0.332394     0.421699     0.529786 
    0.421613     0.624109     0.510740 
    0.411919     0.398275     0.369967 
    0.537675     0.384892     0.686890 
    0.575326     0.441990     0.365364 
    0.552582     0.602554     0.385879 
    0.587106     0.638822     0.553341 
    0.640009     0.498704     0.631473 
    0.633969     0.373490     0.524983 
    0.713260     0.540925     0.370499 
    0.461740     0.711312     0.643397 
    0.297922     0.547174     0.493737 
    0.468172     0.511822     0.314895 
    0.335026     0.541663     0.601347 
    0.423887     0.606072     0.352898 
    0.373986     0.618850     0.662666 
    0.306682     0.482813     0.402942 
    0.333578     0.587569     0.398828 
    0.515454     0.316090     0.559323 
    0.426504     0.349937     0.608140 
    0.425426     0.329007     0.495024 
    0.674813     0.648054     0.442493 
    0.714275     0.578222     0.515627 
    0.731611     0.477137     0.504850 
    0.707694     0.415208     0.414477 
    0.622408     0.515833     0.482193 
    0.367082     0.517815     0.320979 
    0.519040     0.337407     0.443895 
EA20500 16.223 15.213 15.128 90.00 90.00 90.00 Sym.group:    0
1.0
   16.223266     0.000000     0.000000
    0.000000    15.213343     0.000000
    0.000000     0.000000    15.128071
   W   B
  15  18
Direct
    0.408398     0.504339     0.503424 
    0.594731     0.504743     0.499041 
    0.583208     0.383058     0.359585 
    0.586423     0.323718     0.535757 
    0.585993     0.441589     0.675076 
    0.591120     0.622079     0.637769 
    0.587777     0.681476     0.463943 
    0.581610     0.559090     0.324793 
    0.408978     0.384353     0.362481 
    0.411194     0.322453     0.538223 
    0.414319     0.444655     0.673822 
    0.414009     0.624936     0.641952 
    0.411372     0.678653     0.470200 
    0.409558     0.561274     0.333420 
    0.719298     0.634623     0.542294 
    0.685951     0.587392     0.414339 
    0.683242     0.478169     0.384239 
    0.683743     0.393629     0.459883 
    0.685392     0.415370     0.572323 
    0.689074     0.519523     0.615073 
    0.311159     0.612262     0.543451 
    0.309552     0.589002     0.431402 
    0.310027     0.481332     0.394615 
    0.313088     0.395408     0.466964 
    0.313707     0.418344     0.577747 
    0.314094     0.525816     0.615854 
    0.502210     0.543803     0.708143 
    0.502375     0.703716     0.571108 
    0.497116     0.663813     0.359422 
    0.495176     0.460744     0.282885 
    0.496840     0.293628     0.428366 
    0.500168     0.338994     0.644018 
    0.499098     0.408017     0.468390 
EA20981 16.259 15.377 14.233 90.00 90.00 90.00 Sym.group:    0
1.0
   16.259270     0.000000     0.000000
    0.000000    15.377343     0.000000
    0.000000     0.000000    14.233008
   W   B
  13  17
Direct
    0.359624     0.428833     0.419155 
    0.686018     0.503817     0.450752 
    0.425869     0.485508     0.665571 
    0.469794     0.630482     0.585721 
    0.484710     0.640608     0.404299 
    0.577277     0.522863     0.328662 
    0.573268     0.313262     0.535200 
    0.580179     0.727981     0.502033 
    0.510685     0.464840     0.491131 
    0.327991     0.588245     0.356316 
    0.612301     0.356324     0.368018 
    0.337495     0.679245     0.484166 
    0.660395     0.659993     0.382312 
    0.486289     0.322405     0.408727 
    0.551895     0.419730     0.645627 
    0.378664     0.390699     0.567581 
    0.466542     0.356553     0.619769 
    0.487721     0.407797     0.333428 
    0.674024     0.628734     0.528308 
    0.444472     0.508321     0.334395 
    0.315004     0.472769     0.570030 
    0.334274     0.578000     0.599594 
    0.393390     0.546629     0.493164 
    0.652078     0.538376     0.591295 
    0.689537     0.367976     0.487018 
    0.645310     0.427481     0.579941 
    0.601695     0.631282     0.615380 
    0.554069     0.534601     0.648025 
    0.439004     0.320261     0.511618 
    0.280424     0.546387     0.492767 
EA21331 16.512 15.901 14.908 90.00 90.00 90.00 Sym.group:    0
1.0
   16.512345     0.000000     0.000000
    0.000000    15.900779     0.000000
    0.000000     0.000000    14.907663
   W   B
  14  16
Direct
    0.360762     0.491217     0.354420 
    0.565021     0.638966     0.605678 
    0.290380     0.530695     0.491916 
    0.458514     0.525373     0.496106 
    0.477591     0.698760     0.478334 
    0.596503     0.610076     0.433087 
    0.460137     0.350241     0.446197 
    0.437558     0.386476     0.605946 
    0.574645     0.315742     0.592442 
    0.461116     0.537257     0.686148 
    0.608877     0.283933     0.440949 
    0.598140     0.433188     0.400615 
    0.584777     0.474717     0.592215 
    0.725363     0.508097     0.465686 
    0.474738     0.605507     0.357727 
    0.432469     0.651179     0.606364 
    0.361923     0.644117     0.518387 
    0.354200     0.585131     0.611468 
    0.380808     0.618170     0.408043 
    0.685445     0.613707     0.541236 
    0.658213     0.536054     0.334989 
    0.549664     0.537933     0.319182 
    0.679234     0.379994     0.513438 
    0.705168     0.537921     0.611479 
    0.719842     0.438856     0.592384 
    0.342022     0.484627     0.623938 
    0.348959     0.322679     0.517860 
    0.320286     0.395210     0.445160 
    0.481879     0.457114     0.347251 
    0.305768     0.407063     0.561358 
EA21714 15.815 15.294 15.095 90.00 90.00 90.00 Sym.group:    0
1.0
   15.815282     0.000000     0.000000
    0.000000    15.293549     0.000000
    0.000000     0.000000    15.095482
   W   B
  13  16
Direct
    0.525016     0.522170     0.471252 
    0.644415     0.577137     0.364619 
    0.497062     0.583400     0.294595 
    0.690020     0.546261     0.545484 
    0.467785     0.677966     0.535872 
    0.568981     0.440449     0.307397 
    0.360156     0.570640     0.432811 
    0.556976     0.350013     0.459549 
    0.476906     0.292046     0.592877 
    0.407571     0.530576     0.604479 
    0.385208     0.393839     0.467225 
    0.568194     0.452352     0.632407 
    0.450032     0.325229     0.331206 
    0.603138     0.648973     0.592986 
    0.618355     0.656165     0.483993 
    0.544902     0.670370     0.404355 
    0.629669     0.575958     0.667726 
    0.658919     0.449640     0.428891 
    0.666531     0.405771     0.533116 
    0.525244     0.598158     0.648400 
    0.442182     0.671190     0.388462 
    0.275852     0.575500     0.550888 
    0.449035     0.405177     0.678264 
    0.433023     0.471156     0.350892 
    0.338025     0.656016     0.559527 
    0.444939     0.261178     0.456254 
    0.286434     0.476521     0.520446 
    0.611547     0.325853     0.586999 
    0.373883     0.390300     0.609025 
EA22008 15.751 15.848 14.961 90.00 90.00 90.00 Sym.group:    0
1.0
   15.750640     0.000000     0.000000
    0.000000    15.848206     0.000000
    0.000000     0.000000    14.961192
   W   B
  13  16
Direct
    0.526810     0.520663     0.470031 
    0.627871     0.619192     0.378373 
    0.594978     0.482187     0.299507 
    0.598824     0.659560     0.562141 
    0.652417     0.415133     0.544466 
    0.481113     0.593959     0.304708 
    0.527196     0.353839     0.429995 
    0.378066     0.606040     0.450282 
    0.293150     0.533495     0.574214 
    0.495113     0.400116     0.608256 
    0.371088     0.434723     0.448985 
    0.467186     0.565476     0.637525 
    0.336804     0.514449     0.313188 
    0.665175     0.546796     0.613178 
    0.679739     0.562543     0.503690 
    0.682033     0.496429     0.416036 
    0.597743     0.590322     0.682985 
    0.507685     0.668033     0.435738 
    0.463296     0.675308     0.540367 
    0.591216     0.485706     0.663055 
    0.652091     0.399213     0.394034 
    0.491587     0.270275     0.545469 
    0.378897     0.462748     0.663372 
    0.465662     0.453040     0.336748 
    0.587535     0.299622     0.557715 
    0.260714     0.527617     0.432538 
    0.406905     0.320358     0.519735 
    0.367654     0.647693     0.586292 
    0.351450     0.395466     0.587376 
EA22114 17.071 15.907 14.770 90.00 90.00 90.00 Sym.group:    0
1.0
   17.071171     0.000000     0.000000
    0.000000    15.906843     0.000000
    0.000000     0.000000    14.770000
   W   B
  13  20
Direct
    0.367786     0.472193     0.674013 
    0.342974     0.649572     0.579348 
    0.520616     0.502654     0.646645 
    0.493177     0.643278     0.519668 
    0.411047     0.502762     0.502918 
    0.424215     0.348839     0.567910 
    0.579465     0.498994     0.476008 
    0.581890     0.364298     0.606687 
    0.461356     0.556980     0.343128 
    0.479406     0.389302     0.388171 
    0.642103     0.604440     0.606901 
    0.658619     0.640387     0.430392 
    0.734850     0.455843     0.578430 
    0.430714     0.594309     0.649234 
    0.377092     0.633851     0.434216 
    0.467449     0.385803     0.697179 
    0.285106     0.522823     0.568387 
    0.307811     0.417251     0.548619 
    0.350638     0.384387     0.447997 
    0.366759     0.454897     0.360471 
    0.291363     0.580748     0.472046 
    0.291722     0.474368     0.448270 
    0.332226     0.552490     0.377028 
    0.594399     0.350965     0.451860 
    0.522049     0.302637     0.494036 
    0.565490     0.473269     0.325211 
    0.643091     0.475385     0.665672 
    0.600443     0.709526     0.535834 
    0.718142     0.495863     0.433978 
    0.737797     0.571757     0.512370 
    0.658573     0.515944     0.351493 
    0.678279     0.396324     0.476911 
    0.583351     0.577862     0.328964 
EA22392 17.053 16.097 14.774 90.00 90.00 90.00 Sym.group:    0
1.0
   17.053237     0.000000     0.000000
    0.000000    16.097493     0.000000
    0.000000     0.000000    14.773575
   W   B
  15  20
Direct
    0.371897     0.663059     0.520674 
    0.460977     0.560078     0.617539 
    0.656516     0.628519     0.449522 
    0.577745     0.491959     0.511078 
    0.570473     0.420347     0.671517 
    0.585567     0.569970     0.702688 
    0.555918     0.540311     0.346432 
    0.611022     0.320064     0.524075 
    0.252720     0.459118     0.559490 
    0.312324     0.370427     0.421773 
    0.377501     0.511505     0.470586 
    0.460651     0.369511     0.542162 
    0.379032     0.440154     0.666741 
    0.617591     0.387059     0.357494 
    0.466285     0.407664     0.352973 
    0.490639     0.689728     0.562954 
    0.471268     0.713694     0.451156 
    0.452489     0.626026     0.383127 
    0.676290     0.499245     0.642546 
    0.545186     0.669918     0.389388 
    0.565253     0.714825     0.488519 
    0.694044     0.410656     0.472182 
    0.707583     0.508811     0.523344 
    0.683601     0.411882     0.586468 
    0.682171     0.498362     0.405508 
    0.669512     0.590826     0.589767 
    0.583038     0.641557     0.571007 
    0.353705     0.469164     0.332748 
    0.329134     0.559899     0.616356 
    0.269659     0.584952     0.531090 
    0.367959     0.279257     0.505296 
    0.524645     0.307322     0.421006 
    0.423817     0.294543     0.418369 
    0.329246     0.349921     0.569990 
    0.424541     0.539669     0.324434 
EA22709 16.454 15.115 14.720 90.00 90.00 90.00 Sym.group:    0
1.0
   16.454182     0.000000     0.000000
    0.000000    15.115259     0.000000
    0.000000     0.000000    14.720189
   W   B
  13  20
Direct
    0.572821     0.483734     0.536409 
    0.469012     0.612895     0.621881 
    0.439545     0.358566     0.602692 
    0.703877     0.517336     0.616303 
    0.712169     0.524778     0.436505 
    0.573142     0.300125     0.543117 
    0.554931     0.471375     0.258756 
    0.564382     0.608132     0.396348 
    0.416921     0.503900     0.501479 
    0.284728     0.587442     0.467725 
    0.286689     0.429651     0.568078 
    0.425250     0.400115     0.339190 
    0.593107     0.366328     0.391908 
    0.573192     0.532511     0.685702 
    0.608884     0.622214     0.627441 
    0.657291     0.380266     0.612779 
    0.386710     0.487502     0.658246 
    0.324436     0.560434     0.606596 
    0.571589     0.412918     0.669925 
    0.566021     0.665643     0.534302 
    0.659315     0.622876     0.516470 
    0.486328     0.474726     0.679296 
    0.688257     0.399352     0.504330 
    0.414783     0.621156     0.397654 
    0.450534     0.543933     0.319165 
    0.379694     0.665685     0.505382 
    0.476875     0.678991     0.481011 
    0.652391     0.545351     0.309184 
    0.308439     0.439155     0.421450 
    0.352548     0.525016     0.361207 
    0.364249     0.359549     0.471600 
    0.463755     0.320361     0.457965 
    0.518131     0.477986     0.399899 
EA23190 15.516 15.590 15.211 90.00 90.00 90.00 Sym.group:    0
1.0
   15.515737     0.000000     0.000000
    0.000000    15.590286     0.000000
    0.000000     0.000000    15.211324
   W   B
  12  18
Direct
    0.500812     0.649132     0.527896 
    0.408256     0.503839     0.482492 
    0.507146     0.583267     0.359399 
    0.389785     0.585659     0.639188 
    0.306715     0.635777     0.476947 
    0.514078     0.425809     0.344915 
    0.576068     0.498308     0.506918 
    0.720778     0.525569     0.608086 
    0.561238     0.570288     0.667166 
    0.467101     0.434357     0.642056 
    0.668521     0.516387     0.353155 
    0.753905     0.588490     0.471298 
    0.621788     0.627766     0.438759 
    0.392717     0.492833     0.324838 
    0.378856     0.704264     0.570482 
    0.260352     0.491327     0.482720 
    0.275207     0.539460     0.575368 
    0.297418     0.509157     0.384795 
    0.381036     0.369553     0.537929 
    0.361748     0.590535     0.356405 
    0.318907     0.443556     0.587095 
    0.438436     0.358697     0.439699 
    0.478693     0.333086     0.541044 
    0.550336     0.350150     0.460810 
    0.575578     0.360063     0.575700 
    0.612570     0.436743     0.641935 
    0.676734     0.399281     0.558316 
    0.641287     0.393644     0.418417 
    0.721543     0.450745     0.472882 
    0.642390     0.632260     0.553289 
EA23369 17.719 16.563 13.454 90.00 90.00 90.00 Sym.group:    0
1.0
   17.719322     0.000000     0.000000
    0.000000    16.562885     0.000000
    0.000000     0.000000    13.454399
   W   B
  12  20
Direct
    0.439979     0.512818     0.459751 
    0.531866     0.634108     0.410297 
    0.609961     0.491054     0.398744 
    0.471563     0.759133     0.485454 
    0.491011     0.393148     0.358935 
    0.636495     0.392132     0.567381 
    0.592880     0.693950     0.566452 
    0.578599     0.540501     0.580212 
    0.400549     0.398301     0.616554 
    0.309276     0.593422     0.516031 
    0.451662     0.647430     0.595094 
    0.323623     0.478546     0.368736 
    0.608657     0.353537     0.405028 
    0.546778     0.319607     0.483322 
    0.400604     0.665802     0.440862 
    0.506795     0.515978     0.318738 
    0.356971     0.598858     0.369807 
    0.692688     0.385417     0.418791 
    0.700724     0.505578     0.588547 
    0.688375     0.611242     0.576357 
    0.718926     0.555350     0.479201 
    0.727965     0.457164     0.480428 
    0.650824     0.620160     0.451989 
    0.297090     0.475865     0.599117 
    0.372355     0.531997     0.629649 
    0.382432     0.376291     0.452565 
    0.465035     0.508089     0.640668 
    0.515383     0.337498     0.597144 
    0.303721     0.405874     0.507050 
    0.455287     0.326667     0.502884 
    0.248345     0.484328     0.492127 
    0.523583     0.430153     0.642084 
EA23753 15.740 14.706 14.105 90.00 90.00 90.00 Sym.group:    0
1.0
   15.739568     0.000000     0.000000
    0.000000    14.706101     0.000000
    0.000000     0.000000    14.104682
   W   B
  12  19
Direct
    0.448381     0.508128     0.508890 
    0.455862     0.335329     0.433213 
    0.520973     0.668160     0.561076 
    0.569740     0.429758     0.647437 
    0.696591     0.422758     0.401832 
    0.353784     0.460284     0.347733 
    0.697391     0.510951     0.555933 
    0.546767     0.641792     0.382100 
    0.425202     0.346015     0.600989 
    0.298835     0.598246     0.423181 
    0.688515     0.341421     0.560780 
    0.294531     0.412557     0.497855 
    0.402825     0.584412     0.639931 
    0.563899     0.407740     0.360263 
    0.370454     0.648825     0.545558 
    0.599435     0.319271     0.431613 
    0.668269     0.571134     0.404527 
    0.346076     0.470521     0.633845 
    0.606426     0.579068     0.658453 
    0.580883     0.429278     0.494615 
    0.656505     0.653495     0.597840 
    0.323602     0.320227     0.387750 
    0.602006     0.513501     0.333010 
    0.439133     0.472267     0.686389 
    0.553137     0.303695     0.545455 
    0.421176     0.671953     0.443633 
    0.491808     0.509766     0.342702 
    0.503527     0.560834     0.673916 
    0.649088     0.655325     0.484068 
    0.307300     0.555430     0.567338 
    0.417872     0.597857     0.348078 
EA24218 16.254 14.603 13.619 90.00 90.00 90.00 Sym.group:    0
1.0
   16.254121     0.000000     0.000000
    0.000000    14.603287     0.000000
    0.000000     0.000000    13.618505
   W   B
  11  17
Direct
    0.396804     0.656595     0.604729 
    0.382842     0.712036     0.442487 
    0.605032     0.490308     0.594875 
    0.699458     0.626897     0.569029 
    0.645924     0.610495     0.389959 
    0.536764     0.652005     0.512427 
    0.445881     0.497281     0.525868 
    0.548404     0.362670     0.440045 
    0.473258     0.602297     0.345493 
    0.311286     0.437734     0.476722 
    0.700992     0.365513     0.519122 
    0.572168     0.491577     0.345921 
    0.503437     0.576838     0.651132 
    0.593355     0.628691     0.661714 
    0.307996     0.539414     0.600762 
    0.305466     0.594188     0.501360 
    0.741391     0.491477     0.582956 
    0.723807     0.510431     0.470703 
    0.420096     0.329991     0.493450 
    0.417785     0.379027     0.389876 
    0.331478     0.443761     0.640630 
    0.592729     0.328600     0.591629 
    0.385539     0.360654     0.603398 
    0.659238     0.455148     0.395999 
    0.482865     0.447786     0.331524 
    0.383318     0.481456     0.346363 
    0.492639     0.351111     0.586693 
    0.340045     0.576020     0.385134 
EA24499 16.468 14.776 13.614 90.00 90.00 90.00 Sym.group:    0
1.0
   16.467947     0.000000     0.000000
    0.000000    14.776468     0.000000
    0.000000     0.000000    13.613883
   W   B
  11  17
Direct
    0.608304     0.353570     0.617372 
    0.631299     0.300105     0.453751 
    0.395275     0.495044     0.568362 
    0.306861     0.355256     0.556547 
    0.365859     0.387190     0.389703 
    0.480525     0.339161     0.499454 
    0.555729     0.505860     0.524213 
    0.444859     0.635960     0.435832 
    0.537514     0.406557     0.344903 
    0.683887     0.575872     0.490960 
    0.291815     0.620046     0.512663 
    0.431789     0.508432     0.334818 
    0.494607     0.423460     0.644752 
    0.410565     0.362975     0.646102 
    0.692500     0.474193     0.614244 
    0.698454     0.418428     0.511492 
    0.257865     0.491990     0.577010 
    0.277976     0.477228     0.459396 
    0.568278     0.672014     0.503216 
    0.577206     0.631085     0.392552 
    0.657242     0.565494     0.653955 
    0.395864     0.653841     0.587696 
    0.598788     0.641408     0.612817 
    0.347287     0.535258     0.396488 
    0.519986     0.557757     0.328010 
    0.615801     0.531291     0.354787 
    0.494585     0.638410     0.587098 
    0.659277     0.442116     0.401808 
EA24707 16.787 14.275 14.966 90.00 90.00 90.00 Sym.group:    0
1.0
   16.786863     0.000000     0.000000
    0.000000    14.275109     0.000000
    0.000000     0.000000    14.965997
   W   B
  13  17
Direct
    0.476365     0.330603     0.454777 
    0.489871     0.541303     0.666867 
    0.477882     0.629357     0.386522 
    0.502827     0.457865     0.330991 
    0.518208     0.672083     0.554677 
    0.518666     0.370445     0.624103 
    0.724810     0.518951     0.581834 
    0.713010     0.565707     0.423472 
    0.712368     0.402944     0.458946 
    0.287339     0.602933     0.548465 
    0.289412     0.436781     0.591334 
    0.272932     0.481877     0.423728 
    0.426523     0.506564     0.520407 
    0.346761     0.611696     0.416289 
    0.345930     0.364396     0.476993 
    0.650200     0.634967     0.536113 
    0.649498     0.395146     0.590848 
    0.635746     0.462484     0.352040 
    0.611281     0.591767     0.631056 
    0.592513     0.567843     0.353794 
    0.596253     0.345150     0.508887 
    0.397357     0.653327     0.605869 
    0.398798     0.344139     0.573561 
    0.384649     0.524481     0.350566 
    0.597958     0.641813     0.440892 
    0.591240     0.369947     0.400117 
    0.610963     0.479291     0.657429 
    0.398228     0.412221     0.663149 
    0.384377     0.409061     0.380256 
    0.398037     0.674858     0.496017 
EA25009 16.827 14.143 14.265 90.00 90.00 90.00 Sym.group:    0
1.0
   16.827227     0.000000     0.000000
    0.000000    14.142723     0.000000
    0.000000     0.000000    14.265097
   W   B
  13  17
Direct
    0.479637     0.365122     0.387210 
    0.484152     0.464295     0.675811 
    0.476584     0.671869     0.446619 
    0.501592     0.533722     0.325060 
    0.518884     0.640865     0.623475 
    0.522823     0.321901     0.557534 
    0.720230     0.486519     0.590330 
    0.712016     0.597843     0.454157 
    0.714953     0.435728     0.422963 
    0.286403     0.580250     0.598091 
    0.295273     0.405760     0.563953 
    0.274943     0.513528     0.430136 
    0.425134     0.489476     0.515410 
    0.345941     0.634928     0.470674 
    0.347822     0.380260     0.420510 
    0.644668     0.609468     0.588803 
    0.649593     0.369058     0.540648 
    0.635683     0.532473     0.346371 
    0.605076     0.527924     0.660513 
    0.590856     0.628417     0.389224 
    0.602015     0.348799     0.437577 
    0.401077     0.586916     0.663243 
    0.397513     0.318304     0.505770 
    0.383978     0.584425     0.370215 
    0.596787     0.663943     0.500575 
    0.595238     0.424259     0.347476 
    0.604689     0.413955     0.635772 
    0.407932     0.344961     0.618887 
    0.380032     0.468071     0.344141 
    0.398478     0.656963     0.568853 
EA25405 15.569 14.829 15.826 90.00 90.00 90.00 Sym.group:    0
1.0
   15.569195     0.000000     0.000000
    0.000000    14.828527     0.000000
    0.000000     0.000000    15.826428
   W   B
  11  17
Direct
    0.455676     0.325841     0.449721 
    0.487824     0.465484     0.346941 
    0.403406     0.658120     0.575103 
    0.251858     0.493996     0.442869 
    0.432958     0.391333     0.600330 
    0.576270     0.453645     0.499709 
    0.681979     0.436441     0.387737 
    0.483407     0.601328     0.446799 
    0.656216     0.623203     0.571559 
    0.513003     0.541379     0.632485 
    0.574532     0.387629     0.673779 
    0.572272     0.347749     0.371259 
    0.325125     0.380855     0.493054 
    0.365124     0.421779     0.399003 
    0.340860     0.607427     0.453448 
    0.300163     0.456195     0.567634 
    0.297630     0.566280     0.549308 
    0.369009     0.528425     0.620388 
    0.364052     0.535418     0.373715 
    0.560704     0.713119     0.513267 
    0.720690     0.493732     0.522283 
    0.695433     0.571610     0.448025 
    0.594970     0.304524     0.463526 
    0.610161     0.557544     0.374811 
    0.620936     0.659212     0.443888 
    0.661497     0.481577     0.614662 
    0.547706     0.311365     0.556062 
    0.536536     0.684791     0.608633 
EA25742 16.533 15.372 14.528 90.00 90.00 90.00 Sym.group:    0
1.0
   16.533491     0.000000     0.000000
    0.000000    15.372290     0.000000
    0.000000     0.000000    14.528485
   W   B
  11  17
Direct
    0.445629     0.676084     0.504648 
    0.491173     0.583320     0.347248 
    0.426167     0.316303     0.521137 
    0.274271     0.503541     0.440131 
    0.429385     0.564762     0.638981 
    0.561097     0.546386     0.514647 
    0.658151     0.611104     0.410138 
    0.491928     0.422792     0.410359 
    0.652104     0.379630     0.536089 
    0.517144     0.420857     0.625574 
    0.564679     0.558931     0.716632 
    0.551012     0.690300     0.415289 
    0.335954     0.594753     0.526747 
    0.373288     0.594305     0.416114 
    0.360687     0.403923     0.420049 
    0.317283     0.499641     0.580104 
    0.318793     0.400460     0.528056 
    0.385944     0.423574     0.613684 
    0.383913     0.495696     0.360889 
    0.563377     0.305083     0.451419 
    0.696740     0.519919     0.524240 
    0.674477     0.469751     0.424209 
    0.579779     0.694015     0.523217 
    0.599254     0.497929     0.347796 
    0.617093     0.380548     0.393209 
    0.644620     0.493420     0.624798 
    0.535206     0.658723     0.620351 
    0.550852     0.294247     0.564247 
EA25882 16.955 14.647 13.909 90.00 90.00 90.00 Sym.group:    0
1.0
   16.955213     0.000000     0.000000
    0.000000    14.647427     0.000000
    0.000000     0.000000    13.908536
   W   B
  13  18
Direct
    0.415206     0.496861     0.498076 
    0.371956     0.576506     0.332308 
    0.566591     0.674727     0.477232 
    0.576972     0.492640     0.503365 
    0.619357     0.577531     0.336442 
    0.495531     0.463428     0.333238 
    0.711175     0.626354     0.470669 
    0.471002     0.496694     0.669029 
    0.564566     0.318270     0.417713 
    0.490576     0.346819     0.578423 
    0.263867     0.429992     0.527327 
    0.331285     0.406009     0.368092 
    0.707060     0.478816     0.583011 
    0.289970     0.541079     0.441700 
    0.363678     0.603117     0.606059 
    0.353029     0.633097     0.484947 
    0.439928     0.661311     0.435259 
    0.449553     0.645587     0.563872 
    0.541043     0.611181     0.615928 
    0.703716     0.487368     0.418229 
    0.630361     0.428510     0.358719 
    0.497708     0.626356     0.342967 
    0.641018     0.613915     0.597196 
    0.676624     0.383900     0.462627 
    0.367596     0.345147     0.511366 
    0.367258     0.395869     0.621229 
    0.590325     0.415569     0.653171 
    0.438961     0.343544     0.423347 
    0.336221     0.500743     0.640506 
    0.602631     0.529797     0.668711 
    0.625236     0.349260     0.559245 
EA26252 16.656 14.518 15.424 90.00 90.00 90.00 Sym.group:    0
1.0
   16.655510     0.000000     0.000000
    0.000000    14.517881     0.000000
    0.000000     0.000000    15.423668
   W   B
  12  18
Direct
    0.422458     0.597938     0.404049 
    0.489606     0.473298     0.491736 
    0.409618     0.583830     0.615319 
    0.580367     0.617567     0.416772 
    0.567530     0.579056     0.609006 
    0.722370     0.585894     0.415672 
    0.372520     0.405330     0.607970 
    0.609858     0.344569     0.464099 
    0.353810     0.432360     0.360699 
    0.603374     0.409403     0.615855 
    0.599192     0.466318     0.352671 
    0.376552     0.317276     0.469446 
    0.332015     0.620708     0.505068 
    0.407980     0.696558     0.516918 
    0.489276     0.702795     0.582827 
    0.495654     0.718654     0.467782 
    0.303563     0.522771     0.555208 
    0.298832     0.537385     0.437888 
    0.679209     0.515607     0.543004 
    0.579774     0.706422     0.531351 
    0.666029     0.632974     0.529331 
    0.292975     0.431949     0.489734 
    0.472228     0.465512     0.324492 
    0.496141     0.315981     0.559377 
    0.486194     0.358446     0.660581 
    0.488159     0.362468     0.375880 
    0.709919     0.445253     0.437169 
    0.710345     0.402483     0.539250 
    0.497913     0.276937     0.453696 
    0.486540     0.474257     0.667149 
EA26614 16.462 15.824 14.344 90.00 90.00 90.00 Sym.group:    0
1.0
   16.462328     0.000000     0.000000
    0.000000    15.823802     0.000000
    0.000000     0.000000    14.343936
   W   B
  12  18
Direct
    0.583526     0.411096     0.392166 
    0.508722     0.528008     0.492479 
    0.591301     0.412728     0.605207 
    0.426143     0.413553     0.392331 
    0.427917     0.420420     0.607856 
    0.275825     0.447787     0.386751 
    0.633508     0.571850     0.618726 
    0.387676     0.653144     0.490684 
    0.638138     0.557621     0.355636 
    0.401067     0.576526     0.642406 
    0.378414     0.560124     0.354162 
    0.630037     0.661686     0.477025 
    0.676606     0.377893     0.494983 
    0.592498     0.312097     0.499971 
    0.505727     0.311091     0.563749 
    0.503419     0.303760     0.440588 
    0.705304     0.465858     0.554202 
    0.707825     0.460074     0.429199 
    0.313157     0.488611     0.552878 
    0.416475     0.317689     0.503738 
    0.334557     0.389783     0.504153 
    0.712997     0.554286     0.486464 
    0.509788     0.533598     0.326850 
    0.513524     0.660109     0.582525 
    0.523645     0.614563     0.687961 
    0.510452     0.633478     0.377927 
    0.278038     0.561897     0.460417 
    0.288652     0.591646     0.569807 
    0.506735     0.702017     0.473489 
    0.518327     0.507007     0.675670 
EA26900 15.394 14.163 16.692 90.00 90.00 90.00 Sym.group:    0
1.0
   15.394342     0.000000     0.000000
    0.000000    14.163051     0.000000
    0.000000     0.000000    16.691580
   W   B
  11  19
Direct
    0.459632     0.651133     0.607716 
    0.450592     0.329699     0.454174 
    0.433735     0.500416     0.500417 
    0.366050     0.575773     0.357276 
    0.353131     0.459894     0.634910 
    0.499999     0.365727     0.621913 
    0.528585     0.594403     0.383009 
    0.733726     0.417022     0.561008 
    0.590006     0.423232     0.405194 
    0.612399     0.309289     0.524583 
    0.600070     0.513593     0.547229 
    0.487478     0.515794     0.635125 
    0.460997     0.247450     0.561029 
    0.352547     0.424319     0.395873 
    0.420061     0.656116     0.457239 
    0.320256     0.399466     0.509571 
    0.455413     0.453356     0.361598 
    0.373008     0.319278     0.573262 
    0.329890     0.605533     0.577403 
    0.312689     0.607954     0.475446 
    0.279697     0.513000     0.535793 
    0.281961     0.499359     0.437664 
    0.596834     0.687236     0.567438 
    0.626959     0.654806     0.466990 
    0.520856     0.668596     0.494686 
    0.665577     0.563155     0.411786 
    0.718901     0.360638     0.446821 
    0.733676     0.475951     0.437157 
    0.742382     0.562639     0.504168 
    0.692893     0.645172     0.553522 
EA27152 16.506 16.149 14.706 90.00 90.00 90.00 Sym.group:    0
1.0
   16.505573     0.000000     0.000000
    0.000000    16.148732     0.000000
    0.000000     0.000000    14.706118
   W   B
  11  20
Direct
    0.457378     0.605226     0.621397 
    0.531389     0.510514     0.734961 
    0.445747     0.481832     0.489986 
    0.490594     0.371330     0.619308 
    0.337160     0.394845     0.590306 
    0.508594     0.393066     0.355404 
    0.445886     0.635198     0.396466 
    0.568851     0.540856     0.360805 
    0.531142     0.283187     0.492524 
    0.605362     0.437425     0.506998 
    0.625283     0.579043     0.628383 
    0.494816     0.704704     0.512045 
    0.345210     0.529149     0.600012 
    0.412398     0.342351     0.489012 
    0.353003     0.599686     0.506599 
    0.413155     0.481155     0.670693 
    0.396735     0.692634     0.520992 
    0.379552     0.434392     0.352333 
    0.322415     0.417706     0.442091 
    0.349807     0.529909     0.397173 
    0.302400     0.506068     0.501037 
    0.432946     0.515928     0.324628 
    0.569826     0.662504     0.449634 
    0.647262     0.587259     0.470857 
    0.694384     0.507545     0.407835 
    0.544542     0.564182     0.514273 
    0.719356     0.519886     0.516932 
    0.614197     0.439533     0.657030 
    0.700319     0.474086     0.610666 
    0.638883     0.425294     0.354373 
    0.621408     0.333507     0.405247 
EA27409 16.114 15.662 14.349 90.00 90.00 90.00 Sym.group:    0
1.0
   16.114191     0.000000     0.000000
    0.000000    15.662140     0.000000
    0.000000     0.000000    14.349288
   W   B
  13  19
Direct
    0.529644     0.713208     0.613248 
    0.451658     0.681606     0.472891 
    0.412145     0.598892     0.632453 
    0.430746     0.495565     0.490366 
    0.327765     0.385567     0.521707 
    0.480065     0.455536     0.683178 
    0.705073     0.450862     0.434867 
    0.573509     0.570223     0.528803 
    0.640790     0.707669     0.475556 
    0.568827     0.663262     0.344916 
    0.578360     0.395554     0.549095 
    0.550559     0.476765     0.364931 
    0.493812     0.317261     0.438905 
    0.329769     0.607289     0.499798 
    0.353144     0.572396     0.388356 
    0.541127     0.583562     0.682631 
    0.454289     0.338381     0.585036 
    0.378278     0.367435     0.659297 
    0.324374     0.459256     0.375369 
    0.301574     0.523807     0.571653 
    0.282863     0.515791     0.459087 
    0.343773     0.466434     0.654194 
    0.710751     0.580120     0.499004 
    0.609518     0.498644     0.658153 
    0.660237     0.576334     0.392807 
    0.455945     0.587084     0.352285 
    0.691777     0.483200     0.579993 
    0.671149     0.316526     0.464039 
    0.715906     0.369823     0.547722 
    0.402832     0.390530     0.372979 
    0.413198     0.493685     0.325573 
    0.616543     0.357728     0.381109 
EA27726 16.189 15.731 14.363 90.00 90.00 90.00 Sym.group:    0
1.0
   16.189279     0.000000     0.000000
    0.000000    15.730691     0.000000
    0.000000     0.000000    14.362935
   W   B
  12  20
Direct
    0.533292     0.281812     0.613874 
    0.459198     0.319954     0.472516 
    0.415685     0.392883     0.632290 
    0.418051     0.513115     0.498501 
    0.480458     0.541550     0.676816 
    0.704214     0.544832     0.445519 
    0.566176     0.434079     0.536078 
    0.627025     0.296717     0.478798 
    0.602688     0.604717     0.559666 
    0.556551     0.526088     0.369542 
    0.491802     0.663253     0.420785 
    0.411368     0.537451     0.302285 
    0.338949     0.379745     0.497517 
    0.358700     0.423671     0.390228 
    0.542175     0.417088     0.688608 
    0.465855     0.649591     0.572763 
    0.371660     0.612916     0.611722 
    0.307042     0.530374     0.384639 
    0.297972     0.449809     0.573898 
    0.278127     0.464110     0.465142 
    0.349077     0.514917     0.643925 
    0.702035     0.410194     0.505853 
    0.610538     0.497680     0.667502 
    0.649700     0.422560     0.399836 
    0.460043     0.418217     0.351372 
    0.685661     0.491326     0.584858 
    0.680762     0.687324     0.446213 
    0.710285     0.672942     0.549024 
    0.363477     0.624958     0.400689 
    0.623822     0.640716     0.370969 
    0.380725     0.660342     0.508826 
    0.556889     0.375070     0.379744 
EA28175 15.839 16.210 14.836 90.00 90.00 90.00 Sym.group:    0
1.0
   15.838928     0.000000     0.000000
    0.000000    16.209924     0.000000
    0.000000     0.000000    14.836048
   W   B
  11  18
Direct
    0.572673     0.392661     0.387643 
    0.600346     0.433424     0.588345 
    0.446402     0.449520     0.301367 
    0.363085     0.392294     0.440932 
    0.492672     0.320374     0.515936 
    0.373602     0.525461     0.613101 
    0.626710     0.618458     0.458170 
    0.569048     0.554119     0.315131 
    0.489124     0.502789     0.480809 
    0.376094     0.629476     0.474839 
    0.452123     0.296249     0.349788 
    0.631014     0.330210     0.501183 
    0.288031     0.434214     0.554035 
    0.501021     0.490013     0.679580 
    0.368649     0.378027     0.589331 
    0.464020     0.409328     0.628239 
    0.657318     0.568864     0.591974 
    0.695777     0.512038     0.509600 
    0.490876     0.591240     0.671796 
    0.588291     0.549719     0.671405 
    0.668891     0.498485     0.399651 
    0.686813     0.414357     0.471264 
    0.433125     0.579534     0.344938 
    0.504599     0.669208     0.504875 
    0.564210     0.626476     0.591530 
    0.353808     0.522415     0.384162 
    0.499203     0.646136     0.393659 
    0.441323     0.648888     0.599941 
    0.301155     0.516023     0.486776 
EA28464 15.625 15.479 14.307 90.00 90.00 90.00 Sym.group:    0
1.0
   15.625322     0.000000     0.000000
    0.000000    15.478563     0.000000
    0.000000     0.000000    14.306631
   W   B
  11  18
Direct
    0.518195     0.320770     0.490534 
    0.594488     0.468700     0.604256 
    0.385157     0.359369     0.381103 
    0.307372     0.433383     0.534191 
    0.442933     0.381820     0.634308 
    0.415387     0.634797     0.566081 
    0.644102     0.515265     0.392091 
    0.539443     0.401443     0.325153 
    0.478270     0.481925     0.477988 
    0.413729     0.623830     0.385791 
    0.358125     0.279851     0.528068 
    0.575795     0.332563     0.629902 
    0.293391     0.566445     0.586110 
    0.538281     0.603158     0.643462 
    0.363885     0.509999     0.644854 
    0.468518     0.525485     0.655101 
    0.695914     0.551546     0.528753 
    0.700411     0.441969     0.506500 
    0.556714     0.679006     0.565972 
    0.637367     0.612133     0.598151 
    0.645059     0.376097     0.432370 
    0.651432     0.348927     0.547304 
    0.423044     0.489007     0.319932 
    0.556318     0.625938     0.383297 
    0.621560     0.627684     0.481330 
    0.339290     0.495488     0.397784 
    0.517070     0.542044     0.322127 
    0.508868     0.692423     0.463734 
    0.309882     0.578933     0.473751 
EA28573 17.530 16.106 14.235 90.00 90.00 90.00 Sym.group:    0
1.0
   17.530450     0.000000     0.000000
    0.000000    16.106166     0.000000
    0.000000     0.000000    14.234846
   W   B
  15  19
Direct
    0.581174     0.365600     0.390585 
    0.682524     0.359910     0.578960 
    0.462245     0.415314     0.542757 
    0.363651     0.510672     0.633028 
    0.519113     0.529847     0.672548 
    0.604331     0.489835     0.503161 
    0.663708     0.486030     0.678455 
    0.595766     0.651933     0.573719 
    0.464894     0.585759     0.508855 
    0.425410     0.340615     0.358751 
    0.336862     0.506746     0.457221 
    0.465152     0.677689     0.650180 
    0.479946     0.480881     0.364033 
    0.557493     0.633983     0.387315 
    0.696386     0.575791     0.421552 
    0.394756     0.307452     0.498879 
    0.567035     0.333643     0.539207 
    0.491120     0.292957     0.475384 
    0.567357     0.405521     0.633056 
    0.337646     0.384521     0.559175 
    0.718119     0.422862     0.453270 
    0.733485     0.485836     0.546718 
    0.702555     0.578196     0.579514 
    0.678755     0.453807     0.355604 
    0.349702     0.631968     0.561203 
    0.359143     0.645233     0.440282 
    0.252780     0.397033     0.494558 
    0.263603     0.453167     0.584736 
    0.320151     0.352662     0.438218 
    0.500610     0.722982     0.500304 
    0.417950     0.601618     0.358624 
    0.441486     0.696561     0.409000 
    0.401668     0.712365     0.518779 
    0.603424     0.511013     0.332365 
EA29006 16.430 14.980 14.917 90.00 90.00 90.00 Sym.group:    0
1.0
   16.429928     0.000000     0.000000
    0.000000    14.979659     0.000000
    0.000000     0.000000    14.917268
   W   B
  11  20
Direct
    0.292228     0.636582     0.530035 
    0.506164     0.306458     0.542469 
    0.407598     0.491535     0.543504 
    0.512363     0.623705     0.642970 
    0.367313     0.440512     0.358841 
    0.365674     0.604595     0.663017 
    0.471222     0.564716     0.381520 
    0.512195     0.375335     0.391418 
    0.536239     0.689662     0.482439 
    0.717540     0.456611     0.525871 
    0.566719     0.505035     0.517485 
    0.444905     0.384889     0.642471 
    0.627088     0.366614     0.591371 
    0.547498     0.389436     0.653546 
    0.494365     0.484088     0.666128 
    0.374673     0.347155     0.568947 
    0.312689     0.392668     0.488925 
    0.395972     0.333256     0.456955 
    0.418712     0.687367     0.557524 
    0.397833     0.669413     0.447658 
    0.343477     0.574685     0.414171 
    0.283512     0.500456     0.471205 
    0.489313     0.463092     0.282074 
    0.628712     0.656922     0.578745 
    0.645393     0.416801     0.402309 
    0.602474     0.601815     0.390048 
    0.586662     0.494695     0.343996 
    0.684448     0.567849     0.596752 
    0.665802     0.607938     0.482124 
    0.675672     0.522766     0.403983 
    0.625544     0.343355     0.481500 
EA29376 16.657 15.156 14.254 90.00 90.00 90.00 Sym.group:    0
1.0
   16.657229     0.000000     0.000000
    0.000000    15.155911     0.000000
    0.000000     0.000000    14.254401
   W   B
  12  17
Direct
    0.697680     0.406807     0.374413 
    0.684311     0.366286     0.538265 
    0.554536     0.367232     0.414127 
    0.565849     0.528933     0.353887 
    0.431329     0.607692     0.347730 
    0.449289     0.492692     0.490362 
    0.435036     0.431943     0.309097 
    0.463985     0.411612     0.660699 
    0.623858     0.611546     0.503661 
    0.444480     0.660569     0.542464 
    0.754985     0.507619     0.497677 
    0.547070     0.560382     0.652022 
    0.372829     0.378472     0.538934 
    0.421314     0.339071     0.427944 
    0.558169     0.343921     0.574554 
    0.467573     0.331085     0.531492 
    0.340376     0.508080     0.380063 
    0.313310     0.484999     0.496970 
    0.342418     0.404827     0.420009 
    0.690737     0.553346     0.382775 
    0.595697     0.422241     0.644710 
    0.553683     0.732929     0.505413 
    0.413514     0.547685     0.647529 
    0.559723     0.697157     0.612259 
    0.337920     0.569121     0.570736 
    0.349107     0.465692     0.612219 
    0.341698     0.594921     0.456774 
    0.530322     0.675811     0.412133 
    0.659201     0.497332     0.601079 
EA29483 17.208 15.308 14.136 90.00 90.00 90.00 Sym.group:    0
1.0
   17.207502     0.000000     0.000000
    0.000000    15.308433     0.000000
    0.000000     0.000000    14.135856
   W   B
  15  17
Direct
    0.502264     0.471731     0.338671 
    0.411910     0.291793     0.530700 
    0.369419     0.393613     0.387681 
    0.278096     0.564812     0.523496 
    0.300256     0.396751     0.538418 
    0.611629     0.415546     0.642034 
    0.710636     0.407470     0.434954 
    0.586708     0.498245     0.499713 
    0.644887     0.499199     0.307716 
    0.535433     0.635953     0.384516 
    0.423187     0.525049     0.490968 
    0.482051     0.508399     0.667605 
    0.501764     0.654518     0.582575 
    0.650667     0.643044     0.521398 
    0.669902     0.659620     0.336985 
    0.357885     0.636567     0.416640 
    0.350885     0.496399     0.635989 
    0.490486     0.370458     0.623485 
    0.536418     0.315867     0.535128 
    0.398572     0.398957     0.634211 
    0.256841     0.469444     0.413385 
    0.489637     0.343461     0.420257 
    0.586742     0.377696     0.394828 
    0.625524     0.336527     0.502389 
    0.726617     0.515932     0.532124 
    0.710844     0.554676     0.422753 
    0.681124     0.537631     0.628563 
    0.435605     0.693254     0.450419 
    0.384052     0.600569     0.629995 
    0.373354     0.665520     0.534684 
    0.597437     0.577726     0.659918 
    0.319169     0.543573     0.377799 
EA29748 17.382 16.285 14.020 90.00 90.00 90.00 Sym.group:    0
1.0
   17.382366     0.000000     0.000000
    0.000000    16.285000     0.000000
    0.000000     0.000000    14.020223
   W   B
  14  20
Direct
    0.304065     0.433322     0.632470 
    0.534271     0.399481     0.562386 
    0.646135     0.495760     0.639296 
    0.506131     0.550540     0.675870 
    0.399545     0.482227     0.500595 
    0.362641     0.566460     0.669934 
    0.550055     0.567941     0.507455 
    0.595867     0.676799     0.635223 
    0.438593     0.615378     0.397938 
    0.296698     0.570896     0.395874 
    0.703249     0.602924     0.547010 
    0.505145     0.455956     0.365311 
    0.650954     0.475181     0.433539 
    0.542306     0.259223     0.519471 
    0.407987     0.361709     0.587018 
    0.441430     0.339097     0.464434 
    0.666771     0.379878     0.568977 
    0.265228     0.465110     0.490372 
    0.286047     0.552965     0.548653 
    0.359118     0.620021     0.523607 
    0.310783     0.434508     0.389639 
    0.724398     0.368472     0.473617 
    0.740343     0.447871     0.544184 
    0.640379     0.319657     0.470097 
    0.522025     0.704480     0.497764 
    0.570213     0.571104     0.343543 
    0.560673     0.668883     0.389658 
    0.619004     0.690585     0.482581 
    0.382754     0.491538     0.336489 
    0.389281     0.386771     0.374342 
    0.431075     0.441966     0.658912 
    0.452071     0.649792     0.561483 
    0.647660     0.615211     0.405290 
    0.547103     0.338291     0.406966 
EA30053 17.013 15.818 15.178 90.00 90.00 90.00 Sym.group:    0
1.0
   17.013173     0.000000     0.000000
    0.000000    15.818024     0.000000
    0.000000     0.000000    15.177574
   W   B
  15  20
Direct
    0.646974     0.404910     0.593273 
    0.457130     0.469490     0.315727 
    0.499496     0.368227     0.593152 
    0.545907     0.410566     0.426744 
    0.709717     0.493264     0.476742 
    0.690146     0.575256     0.651446 
    0.348097     0.394767     0.617776 
    0.454293     0.503982     0.674946 
    0.566153     0.542654     0.541465 
    0.556154     0.630118     0.676017 
    0.405871     0.503000     0.502269 
    0.322287     0.571172     0.644555 
    0.467335     0.627383     0.419778 
    0.619211     0.654172     0.421543 
    0.244318     0.471508     0.561219 
    0.410859     0.370566     0.418499 
    0.587656     0.305917     0.504783 
    0.585361     0.464770     0.300123 
    0.546861     0.411316     0.711712 
    0.489680     0.295328     0.470565 
    0.639883     0.526289     0.367611 
    0.666893     0.361501     0.456229 
    0.664195     0.425947     0.363822 
    0.403316     0.306946     0.517454 
    0.338491     0.442931     0.378460 
    0.703785     0.622609     0.521517 
    0.627031     0.675768     0.564544 
    0.534530     0.686073     0.527619 
    0.365135     0.647038     0.529220 
    0.362237     0.548223     0.353006 
    0.333418     0.619188     0.425589 
    0.277804     0.587725     0.510049 
    0.551446     0.562031     0.332078 
    0.593986     0.501370     0.701883 
    0.284344     0.517995     0.428587 
EA30478 15.816 15.330 14.645 90.00 90.00 90.00 Sym.group:    0
1.0
   15.815631     0.000000     0.000000
    0.000000    15.330061     0.000000
    0.000000     0.000000    14.644545
   W   B
  15  16
Direct
    0.560231     0.469384     0.482681 
    0.566999     0.617481     0.406482 
    0.416657     0.445400     0.567474 
    0.561705     0.584420     0.616591 
    0.444752     0.373886     0.383711 
    0.543197     0.427577     0.683886 
    0.392138     0.547361     0.352636 
    0.687909     0.461523     0.605377 
    0.617940     0.365834     0.360607 
    0.290846     0.564170     0.489676 
    0.720766     0.619924     0.604906 
    0.258237     0.428774     0.569607 
    0.721028     0.517097     0.440378 
    0.409413     0.690696     0.419619 
    0.401046     0.645063     0.604163 
    0.441376     0.535076     0.688840 
    0.524605     0.482307     0.326983 
    0.338606     0.342166     0.482556 
    0.610414     0.343214     0.561264 
    0.506016     0.328723     0.588239 
    0.513535     0.695113     0.528619 
    0.690059     0.646856     0.464764 
    0.628800     0.502260     0.332401 
    0.326400     0.533511     0.644599 
    0.287468     0.648035     0.370987 
    0.618256     0.691466     0.530678 
    0.430703     0.300540     0.511867 
    0.443646     0.568784     0.490241 
    0.324399     0.437218     0.429755 
    0.533093     0.306865     0.474321 
    0.689763     0.379279     0.486091 
EA30679 16.703 16.797 14.665 90.00 90.00 90.00 Sym.group:    0
1.0
   16.703159     0.000000     0.000000
    0.000000    16.796651     0.000000
    0.000000     0.000000    14.664527
   W   B
  15  20
Direct
    0.426744     0.448549     0.501933 
    0.316809     0.348450     0.556524 
    0.483493     0.465557     0.324981 
    0.445608     0.276450     0.490119 
    0.358742     0.350361     0.391204 
    0.581817     0.495645     0.445787 
    0.681501     0.378286     0.460720 
    0.601275     0.476029     0.693277 
    0.558061     0.364657     0.572805 
    0.692483     0.611970     0.450429 
    0.482184     0.621624     0.527133 
    0.273437     0.520119     0.454204 
    0.323568     0.656660     0.466437 
    0.416061     0.539199     0.664886 
    0.564426     0.620377     0.352206 
    0.490037     0.336940     0.360369 
    0.565510     0.304715     0.433640 
    0.432583     0.347822     0.616740 
    0.580538     0.380883     0.359317 
    0.712731     0.495845     0.535905 
    0.664753     0.573521     0.588951 
    0.481999     0.423051     0.673604 
    0.722084     0.493162     0.417694 
    0.679654     0.415764     0.600389 
    0.521299     0.501826     0.586175 
    0.391151     0.564889     0.389321 
    0.498383     0.714531     0.418099 
    0.310377     0.575432     0.582584 
    0.357752     0.475445     0.358859 
    0.431355     0.655202     0.381245 
    0.585900     0.701974     0.465251 
    0.373307     0.647819     0.598833 
    0.314932     0.477605     0.586670 
    0.567831     0.587352     0.635324 
    0.611616     0.652287     0.558385 
EA30992 17.666 15.464 14.807 90.00 90.00 90.00 Sym.group:    0
1.0
   17.666454     0.000000     0.000000
    0.000000    15.464152     0.000000
    0.000000     0.000000    14.806909
   W   B
  15  20
Direct
    0.355584     0.423284     0.644565 
    0.586528     0.665290     0.498042 
    0.491453     0.376810     0.595460 
    0.481818     0.568400     0.578762 
    0.314029     0.590374     0.562984 
    0.643522     0.383021     0.643711 
    0.483681     0.360064     0.419583 
    0.389372     0.468413     0.488092 
    0.342954     0.339431     0.386917 
    0.617080     0.492333     0.526397 
    0.515960     0.530108     0.384845 
    0.368704     0.596690     0.379198 
    0.752491     0.451512     0.556969 
    0.395342     0.689205     0.643226 
    0.674318     0.627416     0.380431 
    0.710671     0.692504     0.495066 
    0.461100     0.479955     0.698140 
    0.475877     0.716583     0.535599 
    0.389876     0.321705     0.529731 
    0.554021     0.482509     0.663892 
    0.391572     0.680550     0.496539 
    0.388640     0.556262     0.690019 
    0.592703     0.339695     0.502590 
    0.730703     0.589618     0.509910 
    0.268098     0.531900     0.432188 
    0.316046     0.469828     0.353636 
    0.410901     0.464353     0.334012 
    0.599348     0.403401     0.399131 
    0.647023     0.488854     0.365348 
    0.698001     0.411231     0.427013 
    0.473874     0.660783     0.433267 
    0.300414     0.353720     0.524972 
    0.728460     0.513685     0.424946 
    0.260697     0.438597     0.480841 
    0.689135     0.341914     0.513977 
EA31478 15.550 15.099 14.244 90.00 90.00 90.00 Sym.group:    0
1.0
   15.550029     0.000000     0.000000
    0.000000    15.098808     0.000000
    0.000000     0.000000    14.243764
   W   B
  11  20
Direct
    0.533192     0.517808     0.492475 
    0.426565     0.663047     0.508251 
    0.569936     0.341232     0.493005 
    0.410188     0.457856     0.331172 
    0.594786     0.541860     0.669076 
    0.325476     0.391452     0.585634 
    0.668597     0.604536     0.415892 
    0.271519     0.474322     0.455263 
    0.722190     0.520644     0.551601 
    0.559084     0.395770     0.325613 
    0.438276     0.603338     0.667276 
    0.461923     0.361243     0.595717 
    0.535002     0.650761     0.390965 
    0.421714     0.310086     0.506645 
    0.573262     0.686005     0.491841 
    0.648933     0.498949     0.321192 
    0.349781     0.498344     0.680815 
    0.653473     0.409931     0.616351 
    0.353068     0.576662     0.403096 
    0.703819     0.385099     0.517763 
    0.293859     0.610588     0.490105 
    0.545207     0.545960     0.330195 
    0.450375     0.456212     0.660205 
    0.545558     0.667587     0.604627 
    0.452624     0.330695     0.394805 
    0.644674     0.638513     0.568035 
    0.354980     0.364245     0.431886 
    0.449926     0.593415     0.364214 
    0.549762     0.410697     0.630535 
    0.318844     0.551956     0.583713 
    0.673411     0.441189     0.422036 
EA31632 17.066 15.371 15.224 90.00 90.00 90.00 Sym.group:    0
1.0
   17.065990     0.000000     0.000000
    0.000000    15.370717     0.000000
    0.000000     0.000000    15.224250
   W   B
  15  20
Direct
    0.331165     0.371688     0.439711 
    0.564869     0.333660     0.537620 
    0.479410     0.365306     0.387988 
    0.414898     0.467309     0.681975 
    0.560852     0.488911     0.444857 
    0.687626     0.474450     0.374762 
    0.551479     0.517685     0.618230 
    0.634715     0.653979     0.570894 
    0.411233     0.496291     0.507427 
    0.480306     0.669990     0.563160 
    0.468393     0.539934     0.318581 
    0.350443     0.618037     0.642964 
    0.307220     0.544614     0.387962 
    0.475221     0.622410     0.716505 
    0.664266     0.392615     0.635313 
    0.614148     0.354166     0.406135 
    0.431456     0.312535     0.516252 
    0.681229     0.367989     0.485580 
    0.459080     0.339492     0.622963 
    0.537989     0.379667     0.674189 
    0.369722     0.370443     0.587221 
    0.709698     0.559057     0.492693 
    0.686898     0.525788     0.598568 
    0.726269     0.454770     0.522654 
    0.664595     0.631015     0.433547 
    0.591810     0.513274     0.287404 
    0.476706     0.629394     0.429475 
    0.570426     0.658508     0.450698 
    0.394925     0.643375     0.371474 
    0.289668     0.571688     0.525662 
    0.258304     0.472465     0.503633 
    0.305514     0.479087     0.600978 
    0.379662     0.441336     0.328957 
    0.605802     0.597965     0.351267 
    0.364002     0.641107     0.482701 
EA31955 16.025 15.347 15.367 90.00 90.00 90.00 Sym.group:    0
1.0
   16.024991     0.000000     0.000000
    0.000000    15.346731     0.000000
    0.000000     0.000000    15.367070
   W   B
  13  20
Direct
    0.436675     0.457518     0.489899 
    0.555129     0.341403     0.446565 
    0.400633     0.394458     0.651197 
    0.307114     0.410744     0.411694 
    0.274560     0.449467     0.577125 
    0.561305     0.393721     0.607577 
    0.454226     0.708791     0.397521 
    0.591309     0.640390     0.360452 
    0.567774     0.626145     0.625263 
    0.417115     0.625148     0.524713 
    0.589728     0.519833     0.498279 
    0.553301     0.473971     0.335108 
    0.697257     0.646014     0.474939 
    0.443879     0.377152     0.360571 
    0.413231     0.313909     0.443615 
    0.359111     0.551451     0.393625 
    0.361385     0.547480     0.645352 
    0.290125     0.584385     0.570922 
    0.412638     0.478325     0.333816 
    0.452706     0.312921     0.546901 
    0.347360     0.334509     0.528371 
    0.468279     0.514132     0.664702 
    0.289980     0.541781     0.471181 
    0.558750     0.681769     0.492728 
    0.633892     0.510306     0.655038 
    0.701338     0.566297     0.592528 
    0.441949     0.618567     0.664676 
    0.696408     0.529507     0.388618 
    0.457931     0.578054     0.354145 
    0.664679     0.422692     0.400326 
    0.673507     0.390118     0.506358 
    0.733502     0.504603     0.496929 
    0.693221     0.454442     0.589266 
EA32352 16.560 15.679 14.600 90.00 90.00 90.00 Sym.group:    0
1.0
   16.560019     0.000000     0.000000
    0.000000    15.678961     0.000000
    0.000000     0.000000    14.600373
   W   B
  11  20
Direct
    0.499812     0.545540     0.362866 
    0.422341     0.498737     0.520476 
    0.279646     0.537418     0.615656 
    0.368294     0.390494     0.645411 
    0.552105     0.378216     0.409094 
    0.390743     0.530127     0.714329 
    0.718953     0.424671     0.431229 
    0.584990     0.491683     0.523306 
    0.460033     0.671707     0.486851 
    0.632548     0.653332     0.513511 
    0.530021     0.606580     0.625887 
    0.432229     0.422335     0.361153 
    0.335025     0.618134     0.509161 
    0.367797     0.501029     0.364163 
    0.296111     0.435670     0.520275 
    0.429318     0.331068     0.420936 
    0.360841     0.355286     0.499668 
    0.460300     0.342571     0.535491 
    0.494500     0.419366     0.628627 
    0.559326     0.353068     0.565226 
    0.376819     0.596479     0.406704 
    0.300664     0.525095     0.452489 
    0.628600     0.495403     0.354373 
    0.654787     0.365544     0.537917 
    0.724997     0.541614     0.521026 
    0.707126     0.453115     0.578963 
    0.670301     0.552618     0.619125 
    0.697165     0.558403     0.412279 
    0.553265     0.674820     0.391748 
    0.389684     0.624012     0.608935 
    0.621658     0.605868     0.363124 
EA32543 16.797 15.955 15.872 90.00 90.00 90.00 Sym.group:    0
1.0
   16.796696     0.000000     0.000000
    0.000000    15.954638     0.000000
    0.000000     0.000000    15.871677
   W   B
  15  20
Direct
    0.409238     0.460375     0.289638 
    0.379937     0.480608     0.591837 
    0.369039     0.687128     0.513251 
    0.430978     0.558063     0.426935 
    0.273210     0.594105     0.574080 
    0.416182     0.297195     0.569696 
    0.523381     0.334367     0.446515 
    0.371666     0.389583     0.441541 
    0.510222     0.624356     0.581017 
    0.473660     0.539458     0.710697 
    0.575026     0.460640     0.621021 
    0.589153     0.509025     0.457054 
    0.716759     0.464846     0.543913 
    0.663468     0.628476     0.564025 
    0.542642     0.523566     0.302206 
    0.518895     0.384936     0.309969 
    0.474693     0.453638     0.502055 
    0.291829     0.495827     0.478834 
    0.374778     0.372120     0.666701 
    0.300933     0.594964     0.439467 
    0.314569     0.507271     0.374084 
    0.435182     0.338354     0.337535 
    0.536998     0.332659     0.590933 
    0.385596     0.619820     0.633828 
    0.474417     0.383788     0.667173 
    0.485882     0.686585     0.457078 
    0.682194     0.531392     0.655319 
    0.654307     0.383383     0.442186 
    0.624036     0.359704     0.537443 
    0.600378     0.587357     0.683183 
    0.715275     0.561750     0.457682 
    0.583843     0.685025     0.474680 
    0.604554     0.407318     0.353326 
    0.548832     0.632402     0.385558 
    0.648251     0.629915     0.419541 
EA32987 17.867 14.804 13.702 90.00 90.00 90.00 Sym.group:    0
1.0
   17.867256     0.000000     0.000000
    0.000000    14.804374     0.000000
    0.000000     0.000000    13.701547
   W   B
  15  16
Direct
    0.649268     0.645953     0.514210 
    0.463026     0.658597     0.357743 
    0.534665     0.490680     0.315283 
    0.589915     0.480850     0.499715 
    0.595649     0.561391     0.665573 
    0.496178     0.346149     0.442917 
    0.391621     0.398122     0.339930 
    0.327957     0.629557     0.475945 
    0.475938     0.459550     0.625540 
    0.434861     0.523234     0.454588 
    0.668546     0.513746     0.333393 
    0.330988     0.499734     0.610928 
    0.575495     0.337468     0.621749 
    0.241651     0.398811     0.543592 
    0.710667     0.393840     0.485887 
    0.540623     0.699227     0.468628 
    0.668711     0.433361     0.635086 
    0.614136     0.379552     0.370032 
    0.480608     0.615897     0.649798 
    0.547115     0.678352     0.590956 
    0.452094     0.679038     0.516569 
    0.239178     0.533084     0.496921 
    0.612103     0.315131     0.473523 
    0.455725     0.316222     0.586239 
    0.396497     0.628832     0.600116 
    0.307394     0.356362     0.428709 
    0.310641     0.479798     0.434050 
    0.579069     0.612928     0.392245 
    0.703958     0.523058     0.581633 
    0.380968     0.374035     0.523356 
    0.724758     0.537439     0.465151 
EA33284 16.188 15.491 14.070 90.00 90.00 90.00 Sym.group:    0
1.0
   16.188389     0.000000     0.000000
    0.000000    15.491145     0.000000
    0.000000     0.000000    14.070457
   W   B
  11  20
Direct
    0.499342     0.506320     0.499414 
    0.592054     0.644669     0.483341 
    0.410235     0.354389     0.516327 
    0.586664     0.451413     0.672335 
    0.413098     0.547744     0.328325 
    0.643414     0.377223     0.418883 
    0.356017     0.625073     0.580370 
    0.712441     0.449287     0.549431 
    0.288152     0.550608     0.451692 
    0.432230     0.414179     0.676946 
    0.568781     0.587472     0.322027 
    0.514359     0.355579     0.407529 
    0.486693     0.648747     0.596098 
    0.549931     0.307269     0.502456 
    0.452920     0.687011     0.497036 
    0.358120     0.525427     0.681740 
    0.640750     0.474949     0.314680 
    0.339469     0.432850     0.391868 
    0.657927     0.565399     0.606303 
    0.289635     0.417935     0.491436 
    0.710213     0.579247     0.508454 
    0.463118     0.553668     0.661186 
    0.535794     0.449064     0.338805 
    0.474958     0.664713     0.383362 
    0.524478     0.333659     0.614316 
    0.377141     0.651608     0.422793 
    0.622379     0.348259     0.576159 
    0.563030     0.586960     0.630825 
    0.436981     0.415148     0.374797 
    0.674173     0.527315     0.415010 
    0.325503     0.466816     0.586057 
EA33596 16.697 13.928 13.915 90.00 90.00 90.00 Sym.group:    0
1.0
   16.696778     0.000000     0.000000
    0.000000    13.928081     0.000000
    0.000000     0.000000    13.915492
   W   B
  12  19
Direct
    0.442881     0.495779     0.503330 
    0.419768     0.648074     0.363089 
    0.421181     0.360587     0.354466 
    0.425870     0.351839     0.640570 
    0.428033     0.639863     0.650406 
    0.722022     0.508513     0.492746 
    0.566553     0.597344     0.407280 
    0.569850     0.411825     0.398821 
    0.572553     0.403905     0.588706 
    0.570532     0.590021     0.595606 
    0.287080     0.413679     0.406121 
    0.290957     0.411833     0.599475 
    0.321154     0.562961     0.608019 
    0.309632     0.571488     0.399797 
    0.698015     0.610569     0.609645 
    0.694445     0.620470     0.389132 
    0.696965     0.400663     0.380956 
    0.702223     0.391831     0.599466 
    0.369473     0.330725     0.497583 
    0.378154     0.495431     0.681476 
    0.359503     0.632127     0.507050 
    0.372573     0.506297     0.332191 
    0.679228     0.498438     0.643960 
    0.673596     0.653274     0.501223 
    0.674615     0.511402     0.346055 
    0.679718     0.356437     0.489811 
    0.480027     0.494064     0.671854 
    0.466013     0.663479     0.505608 
    0.472799     0.504174     0.333990 
    0.474457     0.330007     0.495988 
    0.280130     0.532903     0.505578 
EA33912 15.897 15.176 14.544 90.00 90.00 90.00 Sym.group:    0
1.0
   15.897060     0.000000     0.000000
    0.000000    15.176005     0.000000
    0.000000     0.000000    14.543605
   W   B
  11  20
Direct
    0.501026     0.517906     0.479159 
    0.332919     0.492696     0.480393 
    0.466338     0.496747     0.653653 
    0.560597     0.694519     0.491106 
    0.415203     0.655371     0.575385 
    0.393841     0.561721     0.335475 
    0.586564     0.379730     0.673853 
    0.444464     0.358306     0.559541 
    0.546732     0.345593     0.410939 
    0.543422     0.493047     0.304392 
    0.672675     0.471716     0.437287 
    0.676716     0.613656     0.479932 
    0.646231     0.632157     0.588371 
    0.432354     0.672778     0.427282 
    0.331888     0.551155     0.628001 
    0.288732     0.611266     0.545985 
    0.512407     0.632855     0.362069 
    0.608968     0.523606     0.634150 
    0.544611     0.614815     0.614137 
    0.338487     0.439411     0.627237 
    0.332710     0.644656     0.450692 
    0.301674     0.368322     0.555159 
    0.639755     0.365294     0.531152 
    0.706217     0.546712     0.565305 
    0.680853     0.445183     0.593908 
    0.639973     0.399739     0.317181 
    0.331822     0.332028     0.460493 
    0.433272     0.426738     0.364151 
    0.608843     0.595243     0.392748 
    0.415791     0.318342     0.403269 
    0.564914     0.298695     0.557596 
EA34200 16.677 14.445 14.483 90.00 90.00 90.00 Sym.group:    0
1.0
   16.677066     0.000000     0.000000
    0.000000    14.445335     0.000000
    0.000000     0.000000    14.482710
   W   B
  15  16
Direct
    0.571835     0.492152     0.503706 
    0.581389     0.656806     0.618753 
    0.557696     0.380557     0.661671 
    0.289493     0.516856     0.493104 
    0.430188     0.605686     0.554281 
    0.418759     0.419957     0.589124 
    0.429516     0.536078     0.385470 
    0.696038     0.370571     0.424879 
    0.740682     0.526250     0.455374 
    0.533511     0.676430     0.444927 
    0.351254     0.692489     0.439856 
    0.489843     0.535478     0.701879 
    0.332557     0.556111     0.686588 
    0.706581     0.421501     0.588921 
    0.347947     0.364846     0.406700 
    0.641980     0.604104     0.393772 
    0.684907     0.573158     0.587474 
    0.301124     0.591420     0.358068 
    0.303823     0.647779     0.573185 
    0.288462     0.436863     0.624702 
    0.612059     0.326047     0.533835 
    0.645301     0.490055     0.357598 
    0.659352     0.647341     0.498542 
    0.303324     0.480716     0.344083 
    0.299336     0.368038     0.536409 
    0.551715     0.438241     0.352509 
    0.511919     0.336491     0.523107 
    0.474516     0.391166     0.423089 
    0.566761     0.340100     0.425453 
    0.557389     0.557625     0.350752 
    0.620742     0.519088     0.662187 
EA34510 16.921 15.363 14.390 90.00 90.00 90.00 Sym.group:    0
1.0
   16.921481     0.000000     0.000000
    0.000000    15.363058     0.000000
    0.000000     0.000000    14.389875
   W   B
  15  16
Direct
    0.453437     0.310468     0.471501 
    0.344524     0.504527     0.637984 
    0.420472     0.486452     0.476522 
    0.380567     0.658889     0.555387 
    0.483754     0.502677     0.305019 
    0.695989     0.411001     0.509867 
    0.581712     0.536999     0.581294 
    0.558421     0.370255     0.631713 
    0.564400     0.416335     0.429864 
    0.615359     0.577654     0.402390 
    0.557166     0.721386     0.371115 
    0.369073     0.399510     0.331220 
    0.432514     0.636576     0.384895 
    0.265060     0.462802     0.492049 
    0.489452     0.327812     0.301705 
    0.343522     0.372079     0.568456 
    0.327292     0.345221     0.460211 
    0.427440     0.383929     0.624988 
    0.270104     0.591941     0.552870 
    0.508935     0.662794     0.593444 
    0.314432     0.589555     0.447566 
    0.459227     0.583170     0.642463 
    0.488464     0.725996     0.496669 
    0.475006     0.477041     0.650369 
    0.736476     0.513984     0.408664 
    0.711006     0.518030     0.614280 
    0.676442     0.447882     0.362588 
    0.723955     0.553079     0.512207 
    0.662006     0.441161     0.661556 
    0.590143     0.303740     0.514515 
    0.573650     0.667056     0.506635 
EA34814 17.326 14.147 14.173 90.00 90.00 90.00 Sym.group:    0
1.0
   17.326132     0.000000     0.000000
    0.000000    14.147479     0.000000
    0.000000     0.000000    14.172818
   W   B
  12  19
Direct
    0.634828     0.602802     0.636055 
    0.607516     0.433237     0.640364 
    0.612621     0.357063     0.472112 
    0.599043     0.492712     0.350622 
    0.617458     0.652294     0.463053 
    0.381986     0.602303     0.401725 
    0.394603     0.422929     0.382567 
    0.389291     0.357521     0.564265 
    0.380541     0.495601     0.678107 
    0.400493     0.638127     0.586901 
    0.500539     0.500378     0.499600 
    0.258689     0.517170     0.412196 
    0.292741     0.618332     0.507347 
    0.284800     0.567532     0.613762 
    0.287131     0.454967     0.576640 
    0.296000     0.393728     0.477711 
    0.722128     0.503163     0.625073 
    0.716196     0.563311     0.520597 
    0.702830     0.566041     0.403917 
    0.704021     0.454326     0.436833 
    0.708397     0.414836     0.549944 
    0.527090     0.652861     0.577703 
    0.488324     0.665913     0.471179 
    0.483706     0.416096     0.653131 
    0.507745     0.547971     0.659480 
    0.483824     0.330522     0.461964 
    0.516769     0.340246     0.570883 
    0.494277     0.428928     0.272425 
    0.519304     0.361907     0.358247 
    0.515035     0.612974     0.371874 
    0.472077     0.534212     0.303721 
EA35066 17.082 15.092 14.398 90.00 90.00 90.00 Sym.group:    0
1.0
   17.082039     0.000000     0.000000
    0.000000    15.091859     0.000000
    0.000000     0.000000    14.397717
   W   B
  12  20
Direct
    0.326184     0.595448     0.455476 
    0.466927     0.308593     0.489981 
    0.505187     0.408103     0.634778 
    0.441873     0.549703     0.326538 
    0.430588     0.483715     0.500958 
    0.553579     0.392734     0.376558 
    0.611225     0.317093     0.531658 
    0.746249     0.526600     0.461312 
    0.523887     0.641251     0.473783 
    0.674565     0.489555     0.320708 
    0.737538     0.391421     0.563893 
    0.604578     0.491540     0.509787 
    0.346142     0.563027     0.610384 
    0.416593     0.629816     0.569389 
    0.297936     0.480162     0.569532 
    0.291636     0.445608     0.465257 
    0.344793     0.463848     0.372478 
    0.372170     0.455026     0.644000 
    0.431871     0.541007     0.658332 
    0.355806     0.362969     0.439648 
    0.425364     0.395940     0.360232 
    0.354342     0.377262     0.560157 
    0.407102     0.706062     0.486633 
    0.416867     0.673982     0.380045 
    0.565377     0.551085     0.360371 
    0.637484     0.419196     0.647992 
    0.643001     0.605899     0.404958 
    0.662036     0.633171     0.514588 
    0.517038     0.574246     0.615040 
    0.685401     0.390793     0.426733 
    0.606743     0.616359     0.606219 
    0.599918     0.518788     0.662578 
EA35551 16.640 13.981 14.085 90.00 90.00 90.00 Sym.group:    0
1.0
   16.639529     0.000000     0.000000
    0.000000    13.981384     0.000000
    0.000000     0.000000    14.084681
   W   B
  13  16
Direct
    0.515133     0.398617     0.354388 
    0.503349     0.340159     0.540372 
    0.584632     0.498064     0.504877 
    0.546795     0.609654     0.634410 
    0.426892     0.506655     0.508795 
    0.399538     0.566849     0.687062 
    0.336796     0.340729     0.513787 
    0.285290     0.486216     0.588766 
    0.516945     0.664803     0.439532 
    0.411708     0.550619     0.342775 
    0.624706     0.443728     0.673753 
    0.735181     0.429708     0.519780 
    0.710065     0.573916     0.610892 
    0.490648     0.453549     0.661065 
    0.625376     0.360999     0.436343 
    0.706186     0.557311     0.445610 
    0.630929     0.601561     0.385356 
    0.640753     0.648704     0.500956 
    0.634469     0.341895     0.554790 
    0.548848     0.550679     0.337298 
    0.384171     0.661711     0.454820 
    0.378837     0.395918     0.372311 
    0.429430     0.302025     0.415237 
    0.398073     0.405137     0.638443 
    0.308472     0.465308     0.422685 
    0.308161     0.580635     0.455042 
    0.432117     0.667414     0.565709 
    0.336801     0.627209     0.560468 
    0.649700     0.470231     0.374681 
EA35862 16.726 14.349 14.166 90.00 90.00 90.00 Sym.group:    0
1.0
   16.725968     0.000000     0.000000
    0.000000    14.348643     0.000000
    0.000000     0.000000    14.166314
   W   B
  13  16
Direct
    0.512639     0.356115     0.395856 
    0.510163     0.370598     0.596519 
    0.582142     0.494312     0.483505 
    0.543766     0.636298     0.591571 
    0.425527     0.505671     0.506846 
    0.397314     0.623024     0.653504 
    0.335438     0.356779     0.575658 
    0.283488     0.514064     0.587544 
    0.519662     0.628564     0.392013 
    0.411509     0.490923     0.331848 
    0.687173     0.570307     0.606885 
    0.557916     0.484701     0.289967 
    0.647115     0.328384     0.469070 
    0.485563     0.512207     0.667899 
    0.712183     0.555574     0.458359 
    0.649921     0.572616     0.366602 
    0.640423     0.638923     0.471641 
    0.648776     0.414045     0.602559 
    0.385442     0.629891     0.406841 
    0.376634     0.360647     0.422840 
    0.430987     0.295558     0.498383 
    0.396284     0.457942     0.665944 
    0.305312     0.438699     0.445674 
    0.308118     0.554800     0.433949 
    0.430064     0.674072     0.508200 
    0.335394     0.635217     0.514534 
    0.684176     0.456645     0.390713 
    0.583848     0.493742     0.651110 
    0.713023     0.449685     0.513966 
EA36084 16.829 15.562 14.428 90.00 90.00 90.00 Sym.group:    0
1.0
   16.828547     0.000000     0.000000
    0.000000    15.561684     0.000000
    0.000000     0.000000    14.427979
   W   B
  13  18
Direct
    0.555083     0.564598     0.496069 
    0.704584     0.586608     0.441435 
    0.296295     0.344633     0.474460 
    0.434590     0.569850     0.625520 
    0.627222     0.346901     0.389264 
    0.406867     0.622482     0.344167 
    0.639374     0.444603     0.652565 
    0.373218     0.668957     0.492082 
    0.537694     0.376792     0.545366 
    0.302432     0.431056     0.603681 
    0.625178     0.505744     0.333040 
    0.407593     0.484087     0.464319 
    0.673318     0.592056     0.611457 
    0.271352     0.476803     0.456705 
    0.724793     0.480628     0.540796 
    0.513240     0.461047     0.676979 
    0.494489     0.523950     0.349234 
    0.509583     0.317106     0.403490 
    0.490601     0.687327     0.550739 
    0.421046     0.329897     0.448117 
    0.495479     0.687640     0.432598 
    0.556502     0.555772     0.684618 
    0.428957     0.425762     0.630771 
    0.709765     0.450043     0.430489 
    0.303725     0.557979     0.538854 
    0.674749     0.385174     0.522188 
    0.300550     0.570700     0.417809 
    0.550098     0.645952     0.629507 
    0.402421     0.347758     0.560551 
    0.541702     0.623145     0.355110 
    0.527501     0.434948     0.398022 
EA36504 16.538 14.636 14.363 90.00 90.00 90.00 Sym.group:    0
1.0
   16.537538     0.000000     0.000000
    0.000000    14.636269     0.000000
    0.000000     0.000000    14.363348
   W   B
  13  16
Direct
    0.489568     0.646918     0.419532 
    0.479805     0.616644     0.617714 
    0.414011     0.507518     0.489625 
    0.468218     0.355879     0.567099 
    0.577550     0.503744     0.507209 
    0.623322     0.335542     0.616149 
    0.709689     0.474392     0.579291 
    0.470547     0.377104     0.383117 
    0.318607     0.410519     0.605410 
    0.414732     0.544225     0.296404 
    0.353160     0.671965     0.524480 
    0.562097     0.464284     0.686907 
    0.296095     0.586565     0.384880 
    0.282359     0.451004     0.461828 
    0.343699     0.435898     0.365913 
    0.354364     0.365347     0.462295 
    0.350379     0.555684     0.626715 
    0.606239     0.409135     0.380163 
    0.624820     0.646305     0.440130 
    0.585597     0.661482     0.546880 
    0.622111     0.592438     0.636300 
    0.701767     0.570739     0.440197 
    0.693965     0.464353     0.414725 
    0.574257     0.332372     0.469140 
    0.668999     0.372874     0.474926 
    0.425284     0.479877     0.660163 
    0.283572     0.542429     0.537390 
    0.680822     0.619051     0.542081 
    0.524362     0.505714     0.363336 
EA36715 16.737 14.876 14.124 90.00 90.00 90.00 Sym.group:    0
1.0
   16.736912     0.000000     0.000000
    0.000000    14.875509     0.000000
    0.000000     0.000000    14.123793
   W   B
  11  20
Direct
    0.513608     0.552716     0.650167 
    0.262841     0.510517     0.491604 
    0.564929     0.309575     0.519119 
    0.694850     0.375343     0.579995 
    0.380214     0.356895     0.496431 
    0.348385     0.566041     0.672657 
    0.476775     0.604910     0.377797 
    0.438115     0.686515     0.545132 
    0.584159     0.488397     0.486006 
    0.641845     0.623626     0.426272 
    0.416989     0.512920     0.516767 
    0.316613     0.432297     0.382849 
    0.310492     0.440323     0.608285 
    0.403434     0.430854     0.654792 
    0.416742     0.446983     0.363144 
    0.665889     0.371414     0.428780 
    0.484530     0.361289     0.402733 
    0.484907     0.390929     0.606445 
    0.580354     0.368739     0.376389 
    0.581295     0.410532     0.637531 
    0.347911     0.538040     0.369507 
    0.539222     0.711040     0.453986 
    0.346078     0.628867     0.438706 
    0.312576     0.634868     0.550233 
    0.585629     0.541817     0.326697 
    0.518935     0.457364     0.336270 
    0.719768     0.459516     0.459499 
    0.644408     0.496871     0.642033 
    0.640988     0.599368     0.590329 
    0.567620     0.664731     0.559197 
    0.709903     0.526702     0.550649 
EA36892 17.484 15.773 15.874 90.00 90.00 90.00 Sym.group:    0
1.0
   17.484021     0.000000     0.000000
    0.000000    15.772694     0.000000
    0.000000     0.000000    15.873838
   W   B
  13  20
Direct
    0.423265     0.444587     0.303146 
    0.494401     0.327097     0.570200 
    0.558422     0.467608     0.500530 
    0.590028     0.638459     0.512082 
    0.572536     0.447597     0.662975 
    0.495931     0.341066     0.392656 
    0.695409     0.519191     0.462016 
    0.504132     0.563431     0.362213 
    0.450233     0.706773     0.431697 
    0.474392     0.560434     0.622376 
    0.414258     0.446249     0.472346 
    0.360240     0.622949     0.528968 
    0.349931     0.567746     0.387971 
    0.551183     0.436084     0.322488 
    0.594460     0.319756     0.475543 
    0.672763     0.384010     0.486139 
    0.617589     0.504298     0.359486 
    0.619611     0.349440     0.573045 
    0.619137     0.392523     0.393152 
    0.627990     0.608088     0.380282 
    0.676305     0.436962     0.577962 
    0.595509     0.590354     0.655113 
    0.561859     0.684376     0.385837 
    0.659685     0.538413     0.595813 
    0.252914     0.566266     0.471077 
    0.280634     0.463005     0.460074 
    0.304719     0.410595     0.547719 
    0.280149     0.514999     0.556507 
    0.377748     0.369999     0.595203 
    0.361894     0.486706     0.609740 
    0.541832     0.673110     0.633325 
    0.476802     0.691144     0.561248 
    0.444036     0.426684     0.651067 
EA37195 17.017 15.397 15.312 90.00 90.00 90.00 Sym.group:    0
1.0
   17.016700     0.000000     0.000000
    0.000000    15.397149     0.000000
    0.000000     0.000000    15.311719
   W   B
  13  20
Direct
    0.567275     0.458198     0.711045 
    0.492650     0.318197     0.458776 
    0.436866     0.474347     0.506595 
    0.422230     0.647972     0.464785 
    0.426093     0.429340     0.336140 
    0.479476     0.353109     0.640489 
    0.301134     0.547522     0.528238 
    0.498313     0.580614     0.633063 
    0.567348     0.708093     0.543509 
    0.533408     0.535184     0.371084 
    0.584792     0.435002     0.542010 
    0.656257     0.598416     0.454885 
    0.654822     0.571564     0.609646 
    0.433529     0.467450     0.694699 
    0.384807     0.334978     0.548369 
    0.311057     0.405427     0.522446 
    0.374510     0.538276     0.642165 
    0.366998     0.352731     0.441509 
    0.361424     0.422250     0.622153 
    0.376228     0.640669     0.602782 
    0.316609     0.445274     0.420765 
    0.415941     0.577694     0.324807 
    0.451695     0.707655     0.590234 
    0.343694     0.543394     0.390450 
    0.758446     0.548736     0.528947 
    0.717416     0.453470     0.548262 
    0.694592     0.386390     0.463855 
    0.736129     0.484559     0.442500 
    0.616223     0.348314     0.421823 
    0.643703     0.457306     0.393982 
    0.479156     0.655746     0.337884 
    0.545211     0.679351     0.411260 
    0.551962     0.392770     0.350847 
EA37496 16.934 15.792 14.890 90.00 90.00 90.00 Sym.group:    0
1.0
   16.933627     0.000000     0.000000
    0.000000    15.792027     0.000000
    0.000000     0.000000    14.889939
   W   B
  14  20
Direct
    0.631221     0.515910     0.671180 
    0.692160     0.591076     0.538109 
    0.555296     0.514262     0.470761 
    0.302730     0.406971     0.602194 
    0.461510     0.635247     0.390979 
    0.389092     0.512005     0.522718 
    0.626146     0.644556     0.392132 
    0.266091     0.463943     0.414305 
    0.473515     0.660387     0.558746 
    0.569219     0.388012     0.577760 
    0.567680     0.407843     0.338568 
    0.349089     0.343041     0.457816 
    0.704305     0.462403     0.429768 
    0.421117     0.471575     0.355402 
    0.357175     0.651561     0.479118 
    0.512229     0.479909     0.696097 
    0.524527     0.587204     0.683266 
    0.427250     0.437300     0.655812 
    0.440218     0.544334     0.650579 
    0.593647     0.639792     0.627483 
    0.602964     0.695086     0.531423 
    0.276920     0.593813     0.479781 
    0.539639     0.726020     0.453178 
    0.252760     0.515554     0.547245 
    0.337663     0.581154     0.391029 
    0.472513     0.308227     0.499628 
    0.428216     0.362812     0.577088 
    0.642793     0.339913     0.437380 
    0.693939     0.358613     0.526438 
    0.465230     0.336459     0.386917 
    0.536604     0.545840     0.313117 
    0.632331     0.524664     0.325657 
    0.550465     0.308677     0.438972 
    0.703745     0.445838     0.579352 
EA37795 17.026 14.993 14.964 90.00 90.00 90.00 Sym.group:    0
1.0
   17.026456     0.000000     0.000000
    0.000000    14.992880     0.000000
    0.000000     0.000000    14.964136
   W   B
  14  20
Direct
    0.648857     0.541895     0.644710 
    0.554357     0.525208     0.475206 
    0.319059     0.396339     0.622064 
    0.384383     0.515421     0.532177 
    0.653649     0.629482     0.377902 
    0.258131     0.435332     0.434133 
    0.465715     0.664233     0.541983 
    0.567219     0.391305     0.612716 
    0.364899     0.321594     0.487684 
    0.711055     0.498374     0.466376 
    0.418801     0.440590     0.376013 
    0.503909     0.554449     0.306865 
    0.327414     0.561686     0.346680 
    0.668500     0.374140     0.370912 
    0.348530     0.646436     0.465278 
    0.531601     0.506388     0.694386 
    0.533815     0.614772     0.665056 
    0.451095     0.447601     0.659005 
    0.449460     0.562309     0.650429 
    0.590595     0.661032     0.592579 
    0.586791     0.687365     0.484844 
    0.272943     0.576315     0.478701 
    0.525160     0.663015     0.402894 
    0.253375     0.498852     0.557883 
    0.493761     0.302410     0.525136 
    0.440332     0.349234     0.605226 
    0.665467     0.363298     0.510048 
    0.485800     0.322541     0.414454 
    0.620820     0.498589     0.340448 
    0.570646     0.353032     0.471046 
    0.695390     0.422927     0.595224 
    0.544012     0.408492     0.364439 
    0.429004     0.637617     0.401117 
    0.665455     0.627726     0.526390 
EA38134 17.233 15.659 14.897 90.00 90.00 90.00 Sym.group:    0
1.0
   17.232629     0.000000     0.000000
    0.000000    15.658897     0.000000
    0.000000     0.000000    14.897375
   W   B
  13  20
Direct
    0.723718     0.494014     0.493913 
    0.682217     0.368198     0.585144 
    0.626543     0.627552     0.537021 
    0.282340     0.510273     0.461398 
    0.411066     0.410234     0.476191 
    0.335707     0.482738     0.614676 
    0.494245     0.370897     0.625657 
    0.433397     0.593436     0.499125 
    0.535989     0.382189     0.357091 
    0.568201     0.474668     0.496790 
    0.385934     0.415634     0.313143 
    0.565715     0.541008     0.307987 
    0.260970     0.366131     0.546248 
    0.612173     0.421306     0.683278 
    0.535483     0.711884     0.466776 
    0.654427     0.501813     0.622019 
    0.554470     0.499863     0.660645 
    0.667577     0.382733     0.433483 
    0.657848     0.469236     0.367813 
    0.588119     0.649504     0.398454 
    0.654319     0.572407     0.403119 
    0.465548     0.502101     0.607631 
    0.316366     0.617837     0.549452 
    0.298094     0.374537     0.411200 
    0.472276     0.505506     0.381645 
    0.380324     0.535591     0.375616 
    0.447972     0.736276     0.509035 
    0.368861     0.344489     0.608854 
    0.510394     0.328685     0.491652 
    0.604649     0.321406     0.488252 
    0.518934     0.689886     0.574484 
    0.523415     0.590974     0.613206 
    0.362710     0.706996     0.539001 
