EA20539  8.100 12.397 12.119 90.00 90.00 90.00 Sym.group:    0
1.0
    8.100428     0.000000     0.000000
    0.000000    12.397184     0.000000
    0.000000     0.000000    12.118971
   B
  11
Direct
    0.601393     0.353838     0.500528 
    0.408280     0.355282     0.499154 
    0.236416     0.409492     0.498671 
    0.388811     0.503654     0.500182 
    0.180503     0.530586     0.500817 
    0.609343     0.504422     0.499258 
    0.496625     0.630378     0.499914 
    0.300754     0.629914     0.501291 
    0.768679     0.413903     0.501825 
    0.817793     0.536272     0.499694 
    0.691403     0.632258     0.498667 
EA20472 12.271  8.394 12.288 90.00 90.00 90.00 Sym.group:    0
1.0
   12.271072     0.000000     0.000000
    0.000000     8.394212     0.000000
    0.000000     0.000000    12.288331
   B
  12
Direct
    0.363018     0.636291     0.499146 
    0.298271     0.464322     0.491998 
    0.620794     0.265862     0.488916 
    0.428462     0.451628     0.521894 
    0.487458     0.258600     0.495064 
    0.356505     0.295255     0.490698 
    0.565278     0.435541     0.520492 
    0.695520     0.420779     0.492430 
    0.649479     0.605077     0.500015 
    0.450136     0.782684     0.486691 
    0.506241     0.614306     0.524021 
    0.578839     0.769655     0.488633 
EA17795 12.010  8.361 12.795 90.00 90.00 90.00 Sym.group:    0
1.0
   12.010192     0.000000     0.000000
    0.000000     8.361152     0.000000
    0.000000     0.000000    12.795059
   B
  13
Direct
    0.554841     0.247030     0.498453 
    0.424900     0.223514     0.501585 
    0.432446     0.432788     0.502612 
    0.316169     0.322388     0.499177 
    0.278078     0.502624     0.498255 
    0.345298     0.665951     0.497682 
    0.650872     0.644015     0.501900 
    0.584854     0.456681     0.504821 
    0.499665     0.618066     0.506009 
    0.678287     0.311102     0.496140 
    0.439555     0.800003     0.496846 
    0.567768     0.792896     0.499513 
    0.727268     0.482942     0.497008 
EA8393 12.219  8.920 12.940 90.00 90.00 90.00 Sym.group:    0
1.0
   12.218777     0.000000     0.000000
    0.000000     8.919523     0.000000
    0.000000     0.000000    12.940236
   B
  14
Direct
    0.731547     0.584798     0.489154 
    0.618546     0.498959     0.513225 
    0.729833     0.411137     0.486361 
    0.378485     0.304267     0.497320 
    0.499078     0.403906     0.524921 
    0.497805     0.223521     0.494930 
    0.618337     0.302378     0.494977 
    0.621520     0.695017     0.496583 
    0.502165     0.776363     0.495616 
    0.500551     0.595524     0.523151 
    0.382072     0.697834     0.495193 
    0.381348     0.501442     0.514002 
    0.269876     0.589332     0.486455 
    0.268836     0.415523     0.488111 
EA20343  8.606 13.706 12.408 90.00 90.00 90.00 Sym.group:    0
1.0
    8.606010     0.000000     0.000000
    0.000000    13.705558     0.000000
    0.000000     0.000000    12.408308
   B
  15
Direct
    0.535255     0.562425     0.500002 
    0.531191     0.689609     0.507136 
    0.364750     0.495277     0.491311 
    0.208687     0.563485     0.500552 
    0.368807     0.630984     0.502127 
    0.698414     0.634911     0.500212 
    0.872162     0.578014     0.507086 
    0.196469     0.445531     0.509751 
    0.538341     0.436025     0.471160 
    0.703216     0.353035     0.506666 
    0.705243     0.508135     0.485779 
    0.033622     0.500000     0.500000 
    0.860498     0.420674     0.506414 
    0.526223     0.313042     0.508083 
    0.357123     0.368854     0.503721 
