EA163  10.146  9.963  9.983 90.00 90.00 90.00 Sym.group:    0
1.0
   10.146381     0.000000     0.000000
    0.000000     9.963452     0.000000
    0.000000     0.000000     9.982774
   B
  12
Direct
    0.545393     0.342236     0.426598 
    0.342251     0.538993     0.426758 
    0.611817     0.618844     0.426373 
    0.538416     0.659476     0.573310 
    0.344488     0.453593     0.573586 
    0.617399     0.386530     0.573447 
    0.455027     0.656642     0.426887 
    0.655944     0.461078     0.426678 
    0.388575     0.381971     0.426882 
    0.462583     0.341748     0.573173 
    0.654701     0.546330     0.573024 
    0.383407     0.612560     0.573285 
EA248  11.958 12.383  9.676 90.00 90.00 90.00 Sym.group:    0
1.0
   11.958273     0.000000     0.000000
    0.000000    12.382709     0.000000
    0.000000     0.000000     9.675672
   B
  14
Direct
    0.437949     0.528250     0.570912 
    0.564434     0.470543     0.572241 
    0.568265     0.641365     0.527005 
    0.492128     0.351149     0.497251 
    0.293606     0.478502     0.550359 
    0.705307     0.458625     0.525864 
    0.368950     0.375087     0.558261 
    0.680754     0.579315     0.561206 
    0.624637     0.365269     0.477851 
    0.325962     0.592654     0.489527 
    0.617409     0.537062     0.412966 
    0.382916     0.460476     0.413657 
    0.499686     0.502347     0.351553 
    0.437997     0.659355     0.491347 
EA486  11.981 11.217 10.856 90.00 90.00 90.00 Sym.group:    0
1.0
   11.980526     0.000000     0.000000
    0.000000    11.216915     0.000000
    0.000000     0.000000    10.856249
   B
  14
Direct
    0.340549     0.603669     0.565411 
    0.399055     0.455444     0.574743 
    0.342470     0.394255     0.435318 
    0.397654     0.545148     0.424532 
    0.528047     0.433082     0.612611 
    0.473469     0.392196     0.427776 
    0.276117     0.497599     0.500464 
    0.603473     0.426760     0.451330 
    0.657343     0.566211     0.394943 
    0.601382     0.571630     0.548571 
    0.658589     0.434078     0.605989 
    0.471287     0.608779     0.571300 
    0.526501     0.570819     0.387187 
    0.724065     0.500331     0.499825 
EA890  10.198 11.440 11.266 90.00 90.00 90.00 Sym.group:    0
1.0
   10.197826     0.000000     0.000000
    0.000000    11.439821     0.000000
    0.000000     0.000000    11.266486
   B
  11
Direct
    0.278088     0.417483     0.505522 
    0.259257     0.551890     0.494019 
    0.403148     0.340696     0.506619 
    0.556037     0.341597     0.497085 
    0.363878     0.651251     0.494631 
    0.417290     0.505120     0.497397 
    0.586724     0.501287     0.506608 
    0.516671     0.645945     0.502156 
    0.750265     0.519465     0.500022 
    0.670196     0.634142     0.505837 
    0.698447     0.391124     0.490103 
EA1075 11.148 12.215  9.959 90.00 90.00 90.00 Sym.group:    0
1.0
   11.148425     0.000000     0.000000
    0.000000    12.214943     0.000000
    0.000000     0.000000     9.958893
   B
  12
Direct
    0.522644     0.578984     0.459816 
    0.563161     0.445790     0.461904 
    0.633030     0.656390     0.522539 
    0.414718     0.485068     0.467488 
    0.694724     0.396267     0.506824 
    0.582043     0.318973     0.523631 
    0.438033     0.340379     0.511580 
    0.688394     0.530630     0.498916 
    0.377485     0.622934     0.504468 
    0.279309     0.525352     0.508456 
    0.498998     0.702100     0.522096 
    0.307461     0.397134     0.512283 
EA1368 11.098 12.277 10.646 90.00 90.00 90.00 Sym.group:    0
1.0
   11.097665     0.000000     0.000000
    0.000000    12.277210     0.000000
    0.000000     0.000000    10.646123
   B
  11
Direct
    0.568314     0.353021     0.501998 
    0.427254     0.351778     0.498571 
    0.304048     0.411614     0.496862 
    0.271287     0.535408     0.499522 
    0.579060     0.503994     0.501355 
    0.421667     0.504151     0.501930 
    0.730161     0.531953     0.498028 
    0.643971     0.632213     0.496916 
    0.501452     0.632799     0.500786 
    0.693697     0.408948     0.501627 
    0.359090     0.634122     0.502405 
EA1419 14.792 12.192  9.020 90.00 90.00 90.00 Sym.group:    0
1.0
   14.791819     0.000000     0.000000
    0.000000    12.192275     0.000000
    0.000000     0.000000     9.019502
   B
  15
Direct
    0.489476     0.431229     0.467727 
    0.391002     0.500263     0.506443 
    0.489190     0.567126     0.473280 
    0.600493     0.499730     0.492430 
    0.578206     0.344554     0.500636 
    0.380696     0.355275     0.500208 
    0.475222     0.700707     0.505718 
    0.677388     0.613502     0.499769 
    0.576347     0.656773     0.497112 
    0.378241     0.644436     0.507295 
    0.477519     0.297785     0.494474 
    0.677788     0.389058     0.520770 
    0.292541     0.562477     0.504271 
    0.293829     0.435747     0.517426 
    0.722063     0.501338     0.512442 
EA1802 12.360 10.682 12.323 90.00 90.00 90.00 Sym.group:    0
1.0
   12.359693     0.000000     0.000000
    0.000000    10.681745     0.000000
    0.000000     0.000000    12.322556
   B
  12
Direct
    0.465495     0.581703     0.528237 
    0.455363     0.424776     0.528902 
    0.475402     0.727015     0.485189 
    0.447903     0.279768     0.484501 
    0.336646     0.513147     0.499820 
    0.341510     0.361109     0.487451 
    0.360501     0.663448     0.487887 
    0.578110     0.493269     0.527744 
    0.683257     0.410940     0.489104 
    0.571763     0.329779     0.496582 
    0.692084     0.557862     0.488790 
    0.591965     0.657185     0.495792 
EA2082 11.947 11.113 11.263 90.00 90.00 90.00 Sym.group:    0
1.0
   11.946965     0.000000     0.000000
    0.000000    11.112981     0.000000
    0.000000     0.000000    11.262901
   B
  11
Direct
    0.425022     0.503442     0.498662 
    0.579350     0.336105     0.500497 
    0.326695     0.390812     0.499049 
    0.283913     0.523753     0.501830 
    0.357448     0.639803     0.502062 
    0.448521     0.340142     0.497978 
    0.570815     0.503826     0.500178 
    0.621275     0.653066     0.497249 
    0.688300     0.411506     0.502312 
    0.708748     0.550242     0.500769 
    0.489913     0.647304     0.499414 
EA2144 14.450 12.682  8.834 90.00 90.00 90.00 Sym.group:    0
1.0
   14.449748     0.000000     0.000000
    0.000000    12.682197     0.000000
    0.000000     0.000000     8.834034
   B
  15
Direct
    0.289667     0.438330     0.500931 
    0.492348     0.434153     0.502307 
    0.475507     0.304661     0.497025 
    0.377315     0.360773     0.494728 
    0.579392     0.342298     0.499766 
    0.388718     0.500147     0.486516 
    0.289215     0.560424     0.508233 
    0.680332     0.390749     0.504311 
    0.578435     0.658025     0.490896 
    0.492202     0.565569     0.503143 
    0.602761     0.499793     0.507752 
    0.679613     0.609890     0.490005 
    0.474644     0.695052     0.501609 
    0.376323     0.639241     0.506072 
    0.723528     0.500897     0.506706 
EA2535 12.079 12.441  9.857 90.00 90.00 90.00 Sym.group:    0
1.0
   12.078798     0.000000     0.000000
    0.000000    12.441427     0.000000
    0.000000     0.000000     9.857248
   B
  12
Direct
    0.482452     0.576849     0.459355 
    0.441202     0.445926     0.461231 
    0.577303     0.477666     0.460277 
    0.340119     0.546974     0.499848 
    0.663929     0.385695     0.516869 
    0.622552     0.610797     0.504307 
    0.702692     0.506607     0.516214 
    0.537714     0.342002     0.503800 
    0.392848     0.665942     0.517428 
    0.519151     0.694160     0.522023 
    0.404382     0.327319     0.521424 
    0.315654     0.420063     0.517224 
EA2800 11.443 11.502 11.063 90.00 90.00 90.00 Sym.group:    0
1.0
   11.442860     0.000000     0.000000
    0.000000    11.501794     0.000000
    0.000000     0.000000    11.062881
   B
  11
Direct
    0.280278     0.456618     0.495486 
    0.306819     0.589066     0.505575 
    0.423170     0.658101     0.505240 
    0.425623     0.495272     0.502278 
    0.368943     0.354496     0.490910 
    0.724360     0.471794     0.499016 
    0.683532     0.600826     0.492155 
    0.559411     0.656819     0.496641 
    0.577343     0.496072     0.501631 
    0.644296     0.362006     0.508190 
    0.506224     0.358929     0.502878 
EA3000 10.817 12.401 10.764 90.00 90.00 90.00 Sym.group:    0
1.0
   10.817469     0.000000     0.000000
    0.000000    12.400555     0.000000
    0.000000     0.000000    10.764001
   B
  12
Direct
    0.323075     0.442246     0.501873 
    0.392282     0.325626     0.485392 
    0.645469     0.395445     0.497099 
    0.484960     0.423079     0.527906 
    0.536228     0.304683     0.482707 
    0.431253     0.550527     0.530739 
    0.380962     0.668384     0.483324 
    0.286437     0.570737     0.489477 
    0.583223     0.526606     0.529123 
    0.728432     0.506018     0.491966 
    0.676721     0.625470     0.487138 
    0.530957     0.661180     0.493257 
EA3151 13.038 13.091 12.836 90.00 90.00 90.00 Sym.group:    0
1.0
   13.037852     0.000000     0.000000
    0.000000    13.091315     0.000000
    0.000000     0.000000    12.835843
   B
  14
Direct
    0.648336     0.396803     0.513088 
    0.590799     0.507683     0.573675 
    0.645043     0.604594     0.488213 
    0.594811     0.490917     0.425838 
    0.471192     0.512034     0.612307 
    0.524413     0.611816     0.490592 
    0.706446     0.501720     0.501311 
    0.405635     0.572547     0.493284 
    0.355646     0.490400     0.393125 
    0.408475     0.427759     0.507511 
    0.351562     0.508036     0.604735 
    0.528291     0.390050     0.510760 
    0.476024     0.487667     0.387906 
    0.293326     0.497974     0.497654 
EA3388 12.219  8.920 12.940 90.00 90.00 90.00 Sym.group:    0
1.0
   12.218777     0.000000     0.000000
    0.000000     8.919523     0.000000
    0.000000     0.000000    12.940236
   B
  14
Direct
    0.268453     0.415202     0.489154 
    0.381454     0.501041     0.513225 
    0.270167     0.588863     0.486361 
    0.621515     0.695733     0.497320 
    0.500922     0.596094     0.524921 
    0.502195     0.776479     0.494930 
    0.381663     0.697622     0.494977 
    0.378480     0.304983     0.496583 
    0.497835     0.223637     0.495616 
    0.499449     0.404476     0.523151 
    0.617928     0.302166     0.495193 
    0.618652     0.498558     0.514002 
    0.730124     0.410668     0.486455 
    0.731164     0.584477     0.488111 
EA3763 10.175 12.793 11.379 90.00 90.00 90.00 Sym.group:    0
1.0
   10.175090     0.000000     0.000000
    0.000000    12.793479     0.000000
    0.000000     0.000000    11.379088
   B
  11
Direct
    0.699345     0.401563     0.501963 
    0.401972     0.358377     0.498844 
    0.554931     0.360709     0.497005 
    0.276260     0.425797     0.503437 
    0.672388     0.619763     0.501260 
    0.588846     0.502256     0.496218 
    0.417248     0.503062     0.496268 
    0.516615     0.631159     0.496200 
    0.256636     0.547104     0.504106 
    0.362044     0.634373     0.499722 
    0.753714     0.515836     0.504977 
EA3801 13.109  9.463 12.982 90.00 90.00 90.00 Sym.group:    0
1.0
   13.109120     0.000000     0.000000
    0.000000     9.463211     0.000000
    0.000000     0.000000    12.981953
   B
  15
Direct
    0.490755     0.411786     0.477400 
    0.377683     0.500122     0.491084 
    0.472518     0.240007     0.501254 
    0.269171     0.581420     0.515219 
    0.364509     0.685012     0.506428 
    0.363782     0.315568     0.497501 
    0.267534     0.418855     0.508108 
    0.586691     0.293327     0.503003 
    0.491274     0.587854     0.479463 
    0.472262     0.760016     0.503070 
    0.612844     0.497120     0.500862 
    0.586989     0.708590     0.496249 
    0.746006     0.500189     0.510298 
    0.699221     0.353105     0.510096 
    0.698761     0.647028     0.499965 
EA4066 13.109  9.463 12.982 90.00 90.00 90.00 Sym.group:    0
1.0
   13.109120     0.000000     0.000000
    0.000000     9.463211     0.000000
    0.000000     0.000000    12.981953
   B
  15
Direct
    0.509245     0.588214     0.477400 
    0.622317     0.499878     0.491084 
    0.527482     0.759993     0.501254 
    0.730829     0.418580     0.515219 
    0.635491     0.314988     0.506428 
    0.636218     0.684432     0.497501 
    0.732466     0.581145     0.508108 
    0.413309     0.706673     0.503003 
    0.508726     0.412146     0.479463 
    0.527738     0.239984     0.503070 
    0.387156     0.502880     0.500862 
    0.413011     0.291410     0.496249 
    0.253994     0.499811     0.510298 
    0.300779     0.646895     0.510096 
    0.301239     0.352972     0.499965 
EA4285 11.657 10.364 13.805 90.00 90.00 90.00 Sym.group:    0
1.0
   11.656807     0.000000     0.000000
    0.000000    10.363645     0.000000
    0.000000     0.000000    13.804542
   B
  15
Direct
    0.223186     0.498011     0.507072 
    0.372480     0.499381     0.504387 
    0.510416     0.419150     0.491815 
    0.533135     0.260957     0.499650 
    0.654175     0.331386     0.496189 
    0.404198     0.305831     0.503024 
    0.278675     0.364572     0.506618 
    0.509243     0.580759     0.493232 
    0.527947     0.739338     0.504694 
    0.400640     0.691848     0.493450 
    0.275537     0.632122     0.492748 
    0.649909     0.670447     0.507007 
    0.638689     0.501532     0.487434 
    0.761853     0.427848     0.502678 
    0.759919     0.576818     0.510002 
EA4605 13.853 12.377  8.708 90.00 90.00 90.00 Sym.group:    0
1.0
   13.853344     0.000000     0.000000
    0.000000    12.377330     0.000000
    0.000000     0.000000     8.708129
   B
  14
Direct
    0.700394     0.564516     0.471477 
    0.605012     0.501096     0.530334 
    0.702620     0.440136     0.474787 
    0.397094     0.359326     0.488301 
    0.500607     0.431496     0.558687 
    0.502710     0.306996     0.485852 
    0.607516     0.361203     0.491033 
    0.603134     0.640903     0.488342 
    0.497514     0.693199     0.485678 
    0.499239     0.568600     0.557856 
    0.392420     0.638977     0.491582 
    0.394912     0.498795     0.529919 
    0.297329     0.559664     0.474702 
    0.299497     0.435091     0.471452 
EA4764 12.281 13.147 10.982 90.00 90.00 90.00 Sym.group:    0
1.0
   12.280756     0.000000     0.000000
    0.000000    13.147291     0.000000
    0.000000     0.000000    10.981728
   B
  15
Direct
    0.489765     0.437854     0.485977 
    0.589800     0.349629     0.501644 
    0.491722     0.564253     0.488276 
    0.620630     0.495293     0.493195 
    0.596503     0.653592     0.500277 
    0.711004     0.391053     0.507351 
    0.763217     0.496521     0.505304 
    0.713080     0.603212     0.505682 
    0.474355     0.689197     0.499067 
    0.369581     0.500472     0.502669 
    0.350914     0.365528     0.501212 
    0.358492     0.634893     0.499936 
    0.466607     0.312949     0.495710 
    0.250965     0.443965     0.508602 
    0.253363     0.561589     0.505097 
EA5001 12.411 11.646 12.225 90.00 90.00 90.00 Sym.group:    0
1.0
   12.410727     0.000000     0.000000
    0.000000    11.645698     0.000000
    0.000000     0.000000    12.225178
   B
  15
Direct
    0.635159     0.345494     0.501138 
    0.519906     0.285957     0.510240 
    0.507086     0.427026     0.491904 
    0.506954     0.571408     0.491388 
    0.628388     0.497397     0.485056 
    0.748443     0.556501     0.501568 
    0.652615     0.647547     0.504365 
    0.741261     0.424695     0.499843 
    0.539369     0.709723     0.510189 
    0.301113     0.626285     0.496687 
    0.241464     0.510547     0.498867 
    0.379227     0.493318     0.503086 
    0.400453     0.333534     0.504634 
    0.282112     0.386737     0.498305 
    0.416451     0.683832     0.502730 
EA5247 12.543  8.733 13.816 90.00 90.00 90.00 Sym.group:    0
1.0
   12.542516     0.000000     0.000000
    0.000000     8.732962     0.000000
    0.000000     0.000000    13.816226
   B
  15
Direct
    0.432878     0.231147     0.508220 
    0.322769     0.318524     0.492695 
    0.379714     0.512251     0.494493 
    0.501802     0.599483     0.512559 
    0.388984     0.718137     0.508892 
    0.275879     0.633045     0.494493 
    0.250975     0.462104     0.480606 
    0.505319     0.792202     0.511948 
    0.623886     0.508182     0.509757 
    0.746869     0.447548     0.483572 
    0.619451     0.713931     0.500069 
    0.727327     0.621683     0.480354 
    0.500238     0.404641     0.510037 
    0.556545     0.226226     0.511960 
    0.667363     0.310896     0.500345 
EA5500 12.543  8.733 13.816 90.00 90.00 90.00 Sym.group:    0
1.0
   12.542516     0.000000     0.000000
    0.000000     8.732962     0.000000
    0.000000     0.000000    13.816226
   B
  15
Direct
    0.567122     0.768853     0.508220 
    0.677231     0.681476     0.492695 
    0.620286     0.487749     0.494493 
    0.498198     0.400517     0.512559 
    0.611016     0.281863     0.508892 
    0.724121     0.366955     0.494493 
    0.749025     0.537896     0.480606 
    0.494681     0.207798     0.511948 
    0.376114     0.491818     0.509757 
    0.253131     0.552452     0.483572 
    0.380549     0.286069     0.500069 
    0.272673     0.378317     0.480354 
    0.499762     0.595359     0.510037 
    0.443455     0.773774     0.511960 
    0.332637     0.689104     0.500345 
EA5720 12.119  8.880 13.666 90.00 90.00 90.00 Sym.group:    0
1.0
   12.119320     0.000000     0.000000
    0.000000     8.880369     0.000000
    0.000000     0.000000    13.666297
   B
  15
Direct
    0.489413     0.595280     0.484677 
    0.366698     0.499623     0.489038 
    0.353920     0.697672     0.501256 
    0.354602     0.301458     0.502761 
    0.469986     0.780712     0.499624 
    0.250310     0.412296     0.513053 
    0.249510     0.586408     0.510398 
    0.489709     0.404665     0.485531 
    0.593227     0.722229     0.496594 
    0.621587     0.501194     0.502118 
    0.471448     0.219125     0.499322 
    0.714950     0.344237     0.502200 
    0.594335     0.278148     0.495100 
    0.714443     0.656451     0.503454 
    0.765862     0.500503     0.514873 
EA5985 12.119  8.880 13.666 90.00 90.00 90.00 Sym.group:    0
1.0
   12.119320     0.000000     0.000000
    0.000000     8.880369     0.000000
    0.000000     0.000000    13.666297
   B
  15
Direct
    0.510587     0.404720     0.484677 
    0.633302     0.500377     0.489038 
    0.646080     0.302328     0.501256 
    0.645398     0.698542     0.502761 
    0.530014     0.219288     0.499624 
    0.749690     0.587704     0.513053 
    0.750490     0.413592     0.510398 
    0.510291     0.595335     0.485531 
    0.406773     0.277771     0.496594 
    0.378413     0.498806     0.502118 
    0.528552     0.780875     0.499322 
    0.285050     0.655763     0.502200 
    0.405665     0.721852     0.495100 
    0.285557     0.343549     0.503454 
    0.234138     0.499497     0.514873 
EA6360 12.375  9.505 12.680 90.00 90.00 90.00 Sym.group:    0
1.0
   12.374953     0.000000     0.000000
    0.000000     9.504680     0.000000
    0.000000     0.000000    12.680345
   B
  12
Direct
    0.484962     0.293532     0.503612 
    0.614462     0.294888     0.516311 
    0.690079     0.425172     0.514692 
    0.647703     0.585025     0.501635 
    0.582059     0.730143     0.514899 
    0.507359     0.602824     0.463984 
    0.564528     0.442259     0.468877 
    0.427901     0.455012     0.465107 
    0.456205     0.747905     0.518437 
    0.365645     0.625370     0.502240 
    0.355332     0.323797     0.514036 
    0.303765     0.474074     0.516170 
EA6616 12.375  9.505 12.680 90.00 90.00 90.00 Sym.group:    0
1.0
   12.374953     0.000000     0.000000
    0.000000     9.504680     0.000000
    0.000000     0.000000    12.680345
   B
  12
Direct
    0.515038     0.706468     0.503612 
    0.385538     0.705112     0.516311 
    0.309921     0.574828     0.514692 
    0.352297     0.414975     0.501635 
    0.417941     0.269857     0.514899 
    0.492641     0.397176     0.463984 
    0.435472     0.557741     0.468877 
    0.572099     0.544988     0.465107 
    0.543795     0.252095     0.518437 
    0.634355     0.374630     0.502240 
    0.644668     0.676203     0.514036 
    0.696235     0.525926     0.516170 
EA6847 12.987 12.262  8.442 90.00 90.00 90.00 Sym.group:    0
1.0
   12.986608     0.000000     0.000000
    0.000000    12.261966     0.000000
    0.000000     0.000000     8.441693
   B
  12
Direct
    0.431119     0.529797     0.536993 
    0.310060     0.513246     0.484054 
    0.479805     0.662076     0.495072 
    0.356927     0.631955     0.484912 
    0.558826     0.548852     0.535710 
    0.606273     0.666760     0.480990 
    0.646550     0.435315     0.497526 
    0.510048     0.421976     0.541245 
    0.462455     0.305101     0.480642 
    0.375036     0.400221     0.495416 
    0.583066     0.320839     0.482588 
    0.679834     0.563861     0.484851 
EA6925 12.525  8.464 13.695 90.00 90.00 90.00 Sym.group:    0
1.0
   12.525221     0.000000     0.000000
    0.000000     8.464067     0.000000
    0.000000     0.000000    13.695303
   B
  15
Direct
    0.493308     0.398489     0.492437 
    0.578074     0.235816     0.497304 
    0.618473     0.513223     0.506203 
    0.753424     0.478449     0.511470 
    0.690295     0.322140     0.505494 
    0.602041     0.726798     0.493031 
    0.719169     0.651101     0.501061 
    0.455443     0.205498     0.494512 
    0.373690     0.505828     0.491174 
    0.345839     0.301342     0.495716 
    0.371649     0.714917     0.503387 
    0.265465     0.610684     0.517006 
    0.254450     0.429713     0.507430 
    0.494217     0.603565     0.492526 
    0.484463     0.802436     0.491248 
EA7181 12.525  8.464 13.695 90.00 90.00 90.00 Sym.group:    0
1.0
   12.525221     0.000000     0.000000
    0.000000     8.464067     0.000000
    0.000000     0.000000    13.695303
   B
  15
Direct
    0.506692     0.601511     0.492437 
    0.421926     0.764184     0.497304 
    0.381527     0.486777     0.506203 
    0.246576     0.521551     0.511470 
    0.309705     0.677860     0.505494 
    0.397959     0.273202     0.493031 
    0.280831     0.348899     0.501061 
    0.544557     0.794502     0.494512 
    0.626310     0.494172     0.491174 
    0.654161     0.698658     0.495716 
    0.628351     0.285083     0.503387 
    0.734535     0.389316     0.517006 
    0.745550     0.570287     0.507430 
    0.505783     0.396435     0.492526 
    0.515537     0.197564     0.491248 
EA7404  8.606 13.706 12.408 90.00 90.00 90.00 Sym.group:    0
1.0
    8.606010     0.000000     0.000000
    0.000000    13.705558     0.000000
    0.000000     0.000000    12.408308
   B
  15
Direct
    0.466220     0.437190     0.499999 
    0.457342     0.310103     0.507134 
    0.298304     0.506864     0.491315 
    0.139703     0.441005     0.500561 
    0.297223     0.371135     0.502130 
    0.626588     0.362289     0.500202 
    0.802441     0.416577     0.507069 
    0.131956     0.559108     0.509761 
    0.474087     0.563508     0.471156 
    0.642061     0.644014     0.506655 
    0.638213     0.488927     0.485769 
    0.967027     0.505233     0.500049 
    0.796737     0.574046     0.506397 
    0.466632     0.686637     0.508079 
    0.295467     0.633365     0.503724 
EA7648  8.606 13.706 12.408 90.00 90.00 90.00 Sym.group:    0
1.0
    8.606010     0.000000     0.000000
    0.000000    13.705558     0.000000
    0.000000     0.000000    12.408308
   B
  15
Direct
    0.465080     0.437624     0.500001 
    0.469826     0.310450     0.507135 
    0.635224     0.505132     0.491307 
    0.791652     0.437255     0.500544 
    0.631895     0.369418     0.502122 
    0.302311     0.364794     0.500213 
    0.128259     0.421323     0.507090 
    0.803237     0.555234     0.509744 
    0.461315     0.564017     0.471158 
    0.295997     0.646658     0.506667 
    0.294801     0.491555     0.485781 
    0.966379     0.499257     0.500022 
    0.139079     0.578686     0.506418 
    0.472774     0.687025     0.508081 
    0.642172     0.631571     0.503716 
EA7887  8.606 13.706 12.408 90.00 90.00 90.00 Sym.group:    0
1.0
    8.606010     0.000000     0.000000
    0.000000    13.705558     0.000000
    0.000000     0.000000    12.408308
   B
  15
Direct
    0.531459     0.562433     0.500002 
    0.535619     0.689616     0.507136 
    0.701914     0.495234     0.491312 
    0.858028     0.563395     0.500554 
    0.697959     0.630942     0.502127 
    0.368355     0.634968     0.500210 
    0.194564     0.578123     0.507083 
    0.870156     0.445438     0.509753 
    0.528278     0.436034     0.471159 
    0.363339     0.353093     0.506664 
    0.361431     0.508194     0.485777 
    0.033045     0.499895     0.500010 
    0.206109     0.420780     0.506410 
    0.540302     0.313048     0.508082 
    0.709443     0.368808     0.503722 
EA8124  8.606 13.706 12.408 90.00 90.00 90.00 Sym.group:    0
1.0
    8.606010     0.000000     0.000000
    0.000000    13.705558     0.000000
    0.000000     0.000000    12.408308
   B
  15
Direct
    0.531459     0.437567     0.500002 
    0.535619     0.310384     0.507136 
    0.701914     0.504766     0.491312 
    0.858028     0.436605     0.500554 
    0.697959     0.369058     0.502127 
    0.368355     0.365032     0.500210 
    0.194564     0.421877     0.507083 
    0.870156     0.554562     0.509753 
    0.528278     0.563966     0.471159 
    0.363339     0.646907     0.506664 
    0.361431     0.491806     0.485777 
    0.033045     0.500105     0.500010 
    0.206109     0.579220     0.506410 
    0.540302     0.686952     0.508082 
    0.709443     0.631192     0.503722 
EA8366  8.606 13.706 12.408 90.00 90.00 90.00 Sym.group:    0
1.0
    8.606010     0.000000     0.000000
    0.000000    13.705558     0.000000
    0.000000     0.000000    12.408308
   B
  15
Direct
    0.531459     0.437567     0.500002 
    0.535619     0.310384     0.507136 
    0.701914     0.504766     0.491312 
    0.858028     0.436605     0.500554 
    0.697959     0.369058     0.502127 
    0.368355     0.365032     0.500210 
    0.194564     0.421877     0.507083 
    0.870156     0.554562     0.509753 
    0.528278     0.563966     0.471159 
    0.363339     0.646907     0.506664 
    0.361431     0.491806     0.485777 
    0.033045     0.500105     0.500010 
    0.206109     0.579220     0.506410 
    0.540302     0.686952     0.508082 
    0.709443     0.631192     0.503722 
EA8601  8.606 13.706 12.408 90.00 90.00 90.00 Sym.group:    0
1.0
    8.606010     0.000000     0.000000
    0.000000    13.705558     0.000000
    0.000000     0.000000    12.408308
   B
  15
Direct
    0.531459     0.562433     0.500002 
    0.535619     0.689616     0.507136 
    0.701914     0.495234     0.491312 
    0.858028     0.563395     0.500554 
    0.697959     0.630942     0.502127 
    0.368355     0.634968     0.500210 
    0.194564     0.578123     0.507083 
    0.870156     0.445438     0.509753 
    0.528278     0.436034     0.471159 
    0.363339     0.353093     0.506664 
    0.361431     0.508194     0.485777 
    0.033045     0.499895     0.500010 
    0.206109     0.420780     0.506410 
    0.540302     0.313048     0.508082 
    0.709443     0.368808     0.503722 
EA8841  8.606 13.706 12.408 90.00 90.00 90.00 Sym.group:    0
1.0
    8.606010     0.000000     0.000000
    0.000000    13.705558     0.000000
    0.000000     0.000000    12.408308
   B
  15
Direct
    0.468541     0.562433     0.500002 
    0.464381     0.689616     0.507136 
    0.298086     0.495234     0.491312 
    0.141972     0.563395     0.500554 
    0.302041     0.630942     0.502127 
    0.631645     0.634968     0.500210 
    0.805436     0.578123     0.507083 
    0.129844     0.445438     0.509753 
    0.471722     0.436034     0.471159 
    0.636661     0.353093     0.506664 
    0.638569     0.508194     0.485777 
    0.966955     0.499895     0.500010 
    0.793891     0.420780     0.506410 
    0.459698     0.313048     0.508082 
    0.290557     0.368808     0.503722 
EA9080  8.606 13.706 12.408 90.00 90.00 90.00 Sym.group:    0
1.0
    8.606010     0.000000     0.000000
    0.000000    13.705558     0.000000
    0.000000     0.000000    12.408308
   B
  15
Direct
    0.535249     0.437576     0.500002 
    0.531171     0.310392     0.507136 
    0.364750     0.504731     0.491310 
    0.208680     0.436530     0.500550 
    0.368793     0.369025     0.502126 
    0.698399     0.365083     0.500212 
    0.872153     0.421973     0.507087 
    0.196475     0.554484     0.509750 
    0.538348     0.563976     0.471159 
    0.703232     0.646959     0.506666 
    0.705242     0.491859     0.485780 
    0.033622     0.499985     0.500004 
    0.860506     0.579313     0.506415 
    0.526243     0.686959     0.508083 
    0.357138     0.631155     0.503720 
EA9321  8.606 13.706 12.408 90.00 90.00 90.00 Sym.group:    0
1.0
    8.606010     0.000000     0.000000
    0.000000    13.705558     0.000000
    0.000000     0.000000    12.408308
   B
  15
Direct
    0.464751     0.562424     0.500002 
    0.468829     0.689608     0.507136 
    0.635250     0.495269     0.491310 
    0.791320     0.563470     0.500550 
    0.631207     0.630975     0.502126 
    0.301601     0.634917     0.500212 
    0.127847     0.578027     0.507087 
    0.803525     0.445516     0.509750 
    0.461652     0.436024     0.471159 
    0.296768     0.353041     0.506666 
    0.294758     0.508141     0.485780 
    0.966378     0.500015     0.500004 
    0.139494     0.420687     0.506415 
    0.473757     0.313041     0.508083 
    0.642862     0.368845     0.503720 
EA9559  8.606 13.706 12.408 90.00 90.00 90.00 Sym.group:    0
1.0
    8.606010     0.000000     0.000000
    0.000000    13.705558     0.000000
    0.000000     0.000000    12.408308
   B
  15
Direct
    0.468588     0.562425     0.500002 
    0.464522     0.689609     0.507136 
    0.298083     0.495277     0.491312 
    0.142019     0.563483     0.500552 
    0.302139     0.630983     0.502127 
    0.631745     0.634912     0.500211 
    0.805494     0.578016     0.507085 
    0.129803     0.445529     0.509752 
    0.471675     0.436025     0.471159 
    0.636552     0.353036     0.506665 
    0.638576     0.508136     0.485779 
    0.966955     0.499998     0.500002 
    0.793832     0.420676     0.506413 
    0.459559     0.313042     0.508083 
    0.290459     0.368853     0.503721 
EA9802  8.606 13.706 12.408 90.00 90.00 90.00 Sym.group:    0
1.0
    8.606010     0.000000     0.000000
    0.000000    13.705558     0.000000
    0.000000     0.000000    12.408308
   B
  15
Direct
    0.535255     0.437575     0.500002 
    0.531191     0.310391     0.507136 
    0.364750     0.504723     0.491311 
    0.208686     0.436516     0.500551 
    0.368807     0.369017     0.502127 
    0.698414     0.365089     0.500212 
    0.872161     0.421986     0.507086 
    0.196469     0.554469     0.509751 
    0.538341     0.563975     0.471160 
    0.703216     0.646965     0.506666 
    0.705243     0.491865     0.485779 
    0.033622     0.500000     0.500001 
    0.860498     0.579325     0.506414 
    0.526223     0.686958     0.508083 
    0.357124     0.631146     0.503721 
EA10036  8.606 13.706 12.408 90.00 90.00 90.00 Sym.group:    0
1.0
    8.606010     0.000000     0.000000
    0.000000    13.705558     0.000000
    0.000000     0.000000    12.408308
   B
  15
Direct
    0.464745     0.562425     0.500002 
    0.468809     0.689609     0.507136 
    0.635250     0.495277     0.491311 
    0.791314     0.563484     0.500551 
    0.631193     0.630983     0.502127 
    0.301586     0.634911     0.500212 
    0.127839     0.578014     0.507086 
    0.803531     0.445531     0.509751 
    0.461659     0.436025     0.471160 
    0.296784     0.353035     0.506666 
    0.294757     0.508135     0.485779 
    0.966378     0.500000     0.500001 
    0.139502     0.420675     0.506414 
    0.473777     0.313042     0.508083 
    0.642876     0.368854     0.503721 
EA10279  8.606 13.706 12.408 90.00 90.00 90.00 Sym.group:    0
1.0
    8.606010     0.000000     0.000000
    0.000000    13.705558     0.000000
    0.000000     0.000000    12.408308
   B
  15
Direct
    0.531411     0.437575     0.500002 
    0.535475     0.310391     0.507136 
    0.701917     0.504723     0.491311 
    0.857980     0.436515     0.500552 
    0.697860     0.369017     0.502127 
    0.368253     0.365089     0.500212 
    0.194505     0.421986     0.507086 
    0.870197     0.554469     0.509751 
    0.528326     0.563975     0.471160 
    0.363451     0.646965     0.506666 
    0.361424     0.491865     0.485779 
    0.033045     0.500000     0.500000 
    0.206169     0.579326     0.506414 
    0.540444     0.686958     0.508083 
    0.709543     0.631146     0.503721 
EA10519  8.606 13.706 12.408 90.00 90.00 90.00 Sym.group:    0
1.0
    8.606010     0.000000     0.000000
    0.000000    13.705558     0.000000
    0.000000     0.000000    12.408308
   B
  15
Direct
    0.468589     0.562425     0.500002 
    0.464525     0.689609     0.507136 
    0.298083     0.495277     0.491311 
    0.142020     0.563485     0.500552 
    0.302140     0.630983     0.502127 
    0.631747     0.634911     0.500212 
    0.805495     0.578014     0.507086 
    0.129803     0.445531     0.509751 
    0.471674     0.436025     0.471160 
    0.636549     0.353035     0.506666 
    0.638576     0.508135     0.485779 
    0.966955     0.500000     0.500000 
    0.793831     0.420674     0.506414 
    0.459556     0.313042     0.508083 
    0.290457     0.368854     0.503721 
EA10759  8.606 13.706 12.408 90.00 90.00 90.00 Sym.group:    0
1.0
    8.606010     0.000000     0.000000
    0.000000    13.705558     0.000000
    0.000000     0.000000    12.408308
   B
  15
Direct
    0.535255     0.437575     0.500002 
    0.531191     0.310391     0.507136 
    0.364750     0.504723     0.491311 
    0.208687     0.436515     0.500552 
    0.368807     0.369017     0.502127 
    0.698414     0.365089     0.500212 
    0.872162     0.421986     0.507086 
    0.196469     0.554469     0.509751 
    0.538341     0.563975     0.471160 
    0.703216     0.646965     0.506666 
    0.705243     0.491865     0.485779 
    0.033622     0.500000     0.500000 
    0.860498     0.579326     0.506414 
    0.526223     0.686958     0.508083 
    0.357123     0.631146     0.503721 
EA11000  8.606 13.706 12.408 90.00 90.00 90.00 Sym.group:    0
1.0
    8.606010     0.000000     0.000000
    0.000000    13.705558     0.000000
    0.000000     0.000000    12.408308
   B
  15
Direct
    0.464745     0.562425     0.500002 
    0.468809     0.689609     0.507136 
    0.635250     0.495277     0.491311 
    0.791313     0.563485     0.500552 
    0.631193     0.630983     0.502127 
    0.301586     0.634911     0.500212 
    0.127838     0.578014     0.507086 
    0.803531     0.445531     0.509751 
    0.461659     0.436025     0.471160 
    0.296784     0.353035     0.506666 
    0.294757     0.508135     0.485779 
    0.966378     0.500000     0.500000 
    0.139502     0.420674     0.506414 
    0.473777     0.313042     0.508083 
    0.642877     0.368854     0.503721 
EA11239  8.606 13.706 12.408 90.00 90.00 90.00 Sym.group:    0
1.0
    8.606010     0.000000     0.000000
    0.000000    13.705558     0.000000
    0.000000     0.000000    12.408308
   B
  15
Direct
    0.468589     0.562425     0.500002 
    0.464525     0.689609     0.507136 
    0.298083     0.495277     0.491311 
    0.142020     0.563485     0.500552 
    0.302140     0.630984     0.502127 
    0.631747     0.634911     0.500212 
    0.805495     0.578014     0.507086 
    0.129803     0.445531     0.509751 
    0.471674     0.436025     0.471160 
    0.636549     0.353035     0.506666 
    0.638576     0.508135     0.485779 
    0.966955     0.500000     0.500000 
    0.793831     0.420674     0.506414 
    0.459556     0.313042     0.508083 
    0.290457     0.368854     0.503721 
EA11474  8.606 13.706 12.408 90.00 90.00 90.00 Sym.group:    0
1.0
    8.606010     0.000000     0.000000
    0.000000    13.705558     0.000000
    0.000000     0.000000    12.408308
   B
  15
Direct
    0.535255     0.437575     0.500002 
    0.531191     0.310391     0.507136 
    0.364750     0.504723     0.491311 
    0.208687     0.436515     0.500552 
    0.368807     0.369016     0.502127 
    0.698414     0.365089     0.500212 
    0.872162     0.421986     0.507086 
    0.196469     0.554469     0.509751 
    0.538341     0.563975     0.471160 
    0.703216     0.646965     0.506666 
    0.705243     0.491865     0.485779 
    0.033622     0.500000     0.500000 
    0.860498     0.579326     0.506414 
    0.526223     0.686958     0.508083 
    0.357123     0.631146     0.503721 
EA11714  8.606 13.706 12.408 90.00 90.00 90.00 Sym.group:    0
1.0
    8.606010     0.000000     0.000000
    0.000000    13.705558     0.000000
    0.000000     0.000000    12.408308
   B
  15
Direct
    0.535255     0.437575     0.500002 
    0.531191     0.310391     0.507136 
    0.364750     0.504723     0.491311 
    0.208687     0.436515     0.500552 
    0.368807     0.369016     0.502127 
    0.698414     0.365089     0.500212 
    0.872162     0.421986     0.507086 
    0.196469     0.554469     0.509751 
    0.538341     0.563975     0.471160 
    0.703216     0.646965     0.506666 
    0.705243     0.491865     0.485779 
    0.033622     0.500000     0.500000 
    0.860498     0.579326     0.506414 
    0.526223     0.686958     0.508083 
    0.357123     0.631146     0.503721 
EA11955  8.606 13.706 12.408 90.00 90.00 90.00 Sym.group:    0
1.0
    8.606010     0.000000     0.000000
    0.000000    13.705558     0.000000
    0.000000     0.000000    12.408308
   B
  15
Direct
    0.464745     0.562425     0.500002 
    0.468809     0.689609     0.507136 
    0.635250     0.495277     0.491311 
    0.791313     0.563485     0.500552 
    0.631193     0.630984     0.502127 
    0.301586     0.634911     0.500212 
    0.127838     0.578014     0.507086 
    0.803531     0.445531     0.509751 
    0.461659     0.436025     0.471160 
    0.296784     0.353035     0.506666 
    0.294757     0.508135     0.485779 
    0.966378     0.500000     0.500000 
    0.139502     0.420674     0.506414 
    0.473777     0.313042     0.508083 
    0.642877     0.368854     0.503721 
EA12196  8.606 13.706 12.408 90.00 90.00 90.00 Sym.group:    0
1.0
    8.606010     0.000000     0.000000
    0.000000    13.705558     0.000000
    0.000000     0.000000    12.408308
   B
  15
Direct
    0.531411     0.437575     0.500002 
    0.535475     0.310391     0.507136 
    0.701917     0.504723     0.491311 
    0.857980     0.436515     0.500552 
    0.697860     0.369016     0.502127 
    0.368253     0.365089     0.500212 
    0.194505     0.421986     0.507086 
    0.870197     0.554469     0.509751 
    0.528326     0.563975     0.471160 
    0.363451     0.646965     0.506666 
    0.361424     0.491865     0.485779 
    0.033045     0.500000     0.500000 
    0.206169     0.579326     0.506414 
    0.540444     0.686958     0.508083 
    0.709543     0.631146     0.503721 
EA12437  8.606 13.706 12.408 90.00 90.00 90.00 Sym.group:    0
1.0
    8.606010     0.000000     0.000000
    0.000000    13.705558     0.000000
    0.000000     0.000000    12.408308
   B
  15
Direct
    0.468589     0.562425     0.500002 
    0.464525     0.689609     0.507136 
    0.298083     0.495277     0.491311 
    0.142020     0.563485     0.500552 
    0.302140     0.630984     0.502127 
    0.631747     0.634911     0.500212 
    0.805495     0.578014     0.507086 
    0.129803     0.445531     0.509751 
    0.471674     0.436025     0.471160 
    0.636549     0.353035     0.506666 
    0.638576     0.508135     0.485779 
    0.966955     0.500000     0.500000 
    0.793831     0.420674     0.506414 
    0.459556     0.313042     0.508083 
    0.290457     0.368854     0.503721 
EA12675  8.606 13.706 12.408 90.00 90.00 90.00 Sym.group:    0
1.0
    8.606010     0.000000     0.000000
    0.000000    13.705558     0.000000
    0.000000     0.000000    12.408308
   B
  15
Direct
    0.464745     0.562425     0.500002 
    0.468809     0.689609     0.507136 
    0.635250     0.495277     0.491311 
    0.791313     0.563485     0.500552 
    0.631193     0.630984     0.502127 
    0.301586     0.634911     0.500212 
    0.127838     0.578014     0.507086 
    0.803531     0.445531     0.509751 
    0.461659     0.436025     0.471160 
    0.296784     0.353035     0.506666 
    0.294757     0.508135     0.485779 
    0.966378     0.500000     0.500000 
    0.139502     0.420674     0.506414 
    0.473777     0.313042     0.508083 
    0.642877     0.368854     0.503721 
EA12915  8.606 13.706 12.408 90.00 90.00 90.00 Sym.group:    0
1.0
    8.606010     0.000000     0.000000
    0.000000    13.705558     0.000000
    0.000000     0.000000    12.408308
   B
  15
Direct
    0.531411     0.437575     0.500002 
    0.535475     0.310391     0.507136 
    0.701917     0.504723     0.491311 
    0.857980     0.436515     0.500552 
    0.697860     0.369016     0.502127 
    0.368253     0.365089     0.500212 
    0.194505     0.421986     0.507086 
    0.870197     0.554469     0.509751 
    0.528326     0.563975     0.471160 
    0.363451     0.646965     0.506666 
    0.361424     0.491865     0.485779 
    0.033045     0.500000     0.500000 
    0.206169     0.579326     0.506414 
    0.540444     0.686958     0.508083 
    0.709543     0.631146     0.503721 
EA13155  8.606 13.706 12.408 90.00 90.00 90.00 Sym.group:    0
1.0
    8.606010     0.000000     0.000000
    0.000000    13.705558     0.000000
    0.000000     0.000000    12.408308
   B
  15
Direct
    0.468589     0.562425     0.500002 
    0.464525     0.689609     0.507136 
    0.298083     0.495277     0.491311 
    0.142020     0.563485     0.500552 
    0.302140     0.630984     0.502127 
    0.631747     0.634911     0.500212 
    0.805495     0.578014     0.507086 
    0.129803     0.445531     0.509751 
    0.471674     0.436025     0.471160 
    0.636549     0.353035     0.506666 
    0.638576     0.508135     0.485779 
    0.966955     0.500000     0.500000 
    0.793831     0.420674     0.506414 
    0.459556     0.313042     0.508083 
    0.290457     0.368854     0.503721 
EA13399  8.606 13.706 12.408 90.00 90.00 90.00 Sym.group:    0
1.0
    8.606010     0.000000     0.000000
    0.000000    13.705558     0.000000
    0.000000     0.000000    12.408308
   B
  15
Direct
    0.464745     0.562425     0.500002 
    0.468809     0.689609     0.507136 
    0.635250     0.495277     0.491311 
    0.791313     0.563485     0.500552 
    0.631193     0.630984     0.502127 
    0.301586     0.634911     0.500212 
    0.127838     0.578014     0.507086 
    0.803531     0.445531     0.509751 
    0.461659     0.436025     0.471160 
    0.296784     0.353035     0.506666 
    0.294757     0.508135     0.485779 
    0.966378     0.500000     0.500000 
    0.139502     0.420674     0.506414 
    0.473777     0.313042     0.508083 
    0.642877     0.368854     0.503721 
EA13638  8.606 13.706 12.408 90.00 90.00 90.00 Sym.group:    0
1.0
    8.606010     0.000000     0.000000
    0.000000    13.705558     0.000000
    0.000000     0.000000    12.408308
   B
  15
Direct
    0.468589     0.562425     0.500002 
    0.464525     0.689609     0.507136 
    0.298083     0.495277     0.491311 
    0.142020     0.563485     0.500552 
    0.302140     0.630984     0.502127 
    0.631747     0.634911     0.500212 
    0.805495     0.578014     0.507086 
    0.129803     0.445531     0.509751 
    0.471674     0.436025     0.471160 
    0.636549     0.353035     0.506666 
    0.638576     0.508135     0.485779 
    0.966955     0.500000     0.500000 
    0.793831     0.420674     0.506414 
    0.459556     0.313042     0.508083 
    0.290457     0.368854     0.503721 
EA13879  8.606 13.706 12.408 90.00 90.00 90.00 Sym.group:    0
1.0
    8.606010     0.000000     0.000000
    0.000000    13.705558     0.000000
    0.000000     0.000000    12.408308
   B
  15
Direct
    0.535255     0.437575     0.500002 
    0.531191     0.310391     0.507136 
    0.364750     0.504723     0.491311 
    0.208687     0.436515     0.500552 
    0.368807     0.369016     0.502127 
    0.698414     0.365089     0.500212 
    0.872162     0.421986     0.507086 
    0.196469     0.554469     0.509751 
    0.538341     0.563975     0.471160 
    0.703216     0.646965     0.506666 
    0.705243     0.491865     0.485779 
    0.033622     0.500000     0.500000 
    0.860498     0.579326     0.506414 
    0.526223     0.686958     0.508083 
    0.357123     0.631146     0.503721 
EA14116  8.606 13.706 12.408 90.00 90.00 90.00 Sym.group:    0
1.0
    8.606010     0.000000     0.000000
    0.000000    13.705558     0.000000
    0.000000     0.000000    12.408308
   B
  15
Direct
    0.464745     0.562425     0.500002 
    0.468809     0.689609     0.507136 
    0.635250     0.495277     0.491311 
    0.791313     0.563485     0.500552 
    0.631193     0.630984     0.502127 
    0.301586     0.634911     0.500212 
    0.127838     0.578014     0.507086 
    0.803531     0.445531     0.509751 
    0.461659     0.436025     0.471160 
    0.296784     0.353035     0.506666 
    0.294757     0.508135     0.485779 
    0.966378     0.500000     0.500000 
    0.139502     0.420674     0.506414 
    0.473777     0.313042     0.508083 
    0.642877     0.368854     0.503721 
EA14356  8.606 13.706 12.408 90.00 90.00 90.00 Sym.group:    0
1.0
    8.606010     0.000000     0.000000
    0.000000    13.705558     0.000000
    0.000000     0.000000    12.408308
   B
  15
Direct
    0.468589     0.562425     0.500002 
    0.464525     0.689609     0.507136 
    0.298083     0.495277     0.491311 
    0.142020     0.563485     0.500552 
    0.302140     0.630984     0.502127 
    0.631747     0.634911     0.500212 
    0.805495     0.578014     0.507086 
    0.129803     0.445531     0.509751 
    0.471674     0.436025     0.471160 
    0.636549     0.353035     0.506666 
    0.638576     0.508135     0.485779 
    0.966955     0.500000     0.500000 
    0.793831     0.420674     0.506414 
    0.459556     0.313042     0.508083 
    0.290457     0.368854     0.503721 
EA14593  8.606 13.706 12.408 90.00 90.00 90.00 Sym.group:    0
1.0
    8.606010     0.000000     0.000000
    0.000000    13.705558     0.000000
    0.000000     0.000000    12.408308
   B
  15
Direct
    0.535255     0.437575     0.500002 
    0.531191     0.310391     0.507136 
    0.364750     0.504723     0.491311 
    0.208687     0.436515     0.500552 
    0.368807     0.369016     0.502127 
    0.698414     0.365089     0.500212 
    0.872162     0.421986     0.507086 
    0.196469     0.554469     0.509751 
    0.538341     0.563975     0.471160 
    0.703216     0.646965     0.506666 
    0.705243     0.491865     0.485779 
    0.033622     0.500000     0.500000 
    0.860498     0.579326     0.506414 
    0.526223     0.686958     0.508083 
    0.357123     0.631146     0.503721 
EA14838  8.606 13.706 12.408 90.00 90.00 90.00 Sym.group:    0
1.0
    8.606010     0.000000     0.000000
    0.000000    13.705558     0.000000
    0.000000     0.000000    12.408308
   B
  15
Direct
    0.464745     0.562425     0.500002 
    0.468809     0.689609     0.507136 
    0.635250     0.495277     0.491311 
    0.791313     0.563485     0.500552 
    0.631193     0.630984     0.502127 
    0.301586     0.634911     0.500212 
    0.127838     0.578014     0.507086 
    0.803531     0.445531     0.509751 
    0.461659     0.436025     0.471160 
    0.296784     0.353035     0.506666 
    0.294757     0.508135     0.485779 
    0.966378     0.500000     0.500000 
    0.139502     0.420674     0.506414 
    0.473777     0.313042     0.508083 
    0.642877     0.368854     0.503721 
EA15081  8.606 13.706 12.408 90.00 90.00 90.00 Sym.group:    0
1.0
    8.606010     0.000000     0.000000
    0.000000    13.705558     0.000000
    0.000000     0.000000    12.408308
   B
  15
Direct
    0.468589     0.562425     0.500002 
    0.464525     0.689609     0.507136 
    0.298083     0.495277     0.491311 
    0.142020     0.563485     0.500552 
    0.302140     0.630984     0.502127 
    0.631747     0.634911     0.500212 
    0.805495     0.578014     0.507086 
    0.129803     0.445531     0.509751 
    0.471674     0.436025     0.471160 
    0.636549     0.353035     0.506666 
    0.638576     0.508135     0.485779 
    0.966955     0.500000     0.500000 
    0.793831     0.420674     0.506414 
    0.459556     0.313042     0.508083 
    0.290457     0.368854     0.503721 
EA15322  8.606 13.706 12.408 90.00 90.00 90.00 Sym.group:    0
1.0
    8.606010     0.000000     0.000000
    0.000000    13.705558     0.000000
    0.000000     0.000000    12.408308
   B
  15
Direct
    0.464745     0.562425     0.500002 
    0.468809     0.689609     0.507136 
    0.635250     0.495277     0.491311 
    0.791313     0.563485     0.500552 
    0.631193     0.630984     0.502127 
    0.301586     0.634911     0.500212 
    0.127838     0.578014     0.507086 
    0.803531     0.445531     0.509751 
    0.461659     0.436025     0.471160 
    0.296784     0.353035     0.506666 
    0.294757     0.508135     0.485779 
    0.966378     0.500000     0.500000 
    0.139502     0.420674     0.506414 
    0.473777     0.313042     0.508083 
    0.642877     0.368854     0.503721 
EA15552  8.606 13.706 12.408 90.00 90.00 90.00 Sym.group:    0
1.0
    8.606010     0.000000     0.000000
    0.000000    13.705558     0.000000
    0.000000     0.000000    12.408308
   B
  15
Direct
    0.531411     0.437575     0.500002 
    0.535475     0.310391     0.507136 
    0.701917     0.504723     0.491311 
    0.857980     0.436515     0.500552 
    0.697860     0.369016     0.502127 
    0.368253     0.365089     0.500212 
    0.194505     0.421986     0.507086 
    0.870197     0.554469     0.509751 
    0.528326     0.563975     0.471160 
    0.363451     0.646965     0.506666 
    0.361424     0.491865     0.485779 
    0.033045     0.500000     0.500000 
    0.206169     0.579326     0.506414 
    0.540444     0.686958     0.508083 
    0.709543     0.631146     0.503721 
EA15792  8.606 13.706 12.408 90.00 90.00 90.00 Sym.group:    0
1.0
    8.606010     0.000000     0.000000
    0.000000    13.705558     0.000000
    0.000000     0.000000    12.408308
   B
  15
Direct
    0.468589     0.437575     0.500002 
    0.464525     0.310391     0.507136 
    0.298083     0.504723     0.491311 
    0.142020     0.436515     0.500552 
    0.302140     0.369016     0.502127 
    0.631747     0.365089     0.500212 
    0.805495     0.421986     0.507086 
    0.129803     0.554469     0.509751 
    0.471674     0.563975     0.471160 
    0.636549     0.646965     0.506666 
    0.638576     0.491865     0.485779 
    0.966955     0.500000     0.500000 
    0.793831     0.579326     0.506414 
    0.459556     0.686958     0.508083 
    0.290457     0.631146     0.503721 
EA16031  8.606 13.706 12.408 90.00 90.00 90.00 Sym.group:    0
1.0
    8.606010     0.000000     0.000000
    0.000000    13.705558     0.000000
    0.000000     0.000000    12.408308
   B
  15
Direct
    0.535255     0.562425     0.500002 
    0.531191     0.689609     0.507136 
    0.364750     0.495277     0.491311 
    0.208687     0.563485     0.500552 
    0.368807     0.630984     0.502127 
    0.698414     0.634911     0.500212 
    0.872162     0.578014     0.507086 
    0.196469     0.445531     0.509751 
    0.538341     0.436025     0.471160 
    0.703216     0.353035     0.506666 
    0.705243     0.508135     0.485779 
    0.033622     0.500000     0.500000 
    0.860498     0.420674     0.506414 
    0.526223     0.313042     0.508083 
    0.357123     0.368854     0.503721 
EA16274  8.606 13.706 12.408 90.00 90.00 90.00 Sym.group:    0
1.0
    8.606010     0.000000     0.000000
    0.000000    13.705558     0.000000
    0.000000     0.000000    12.408308
   B
  15
Direct
    0.535255     0.562425     0.500002 
    0.531191     0.689609     0.507136 
    0.364750     0.495277     0.491311 
    0.208687     0.563485     0.500552 
    0.368807     0.630984     0.502127 
    0.698414     0.634911     0.500212 
    0.872162     0.578014     0.507086 
    0.196469     0.445531     0.509751 
    0.538341     0.436025     0.471160 
    0.703216     0.353035     0.506666 
    0.705243     0.508135     0.485779 
    0.033622     0.500000     0.500000 
    0.860498     0.420674     0.506414 
    0.526223     0.313042     0.508083 
    0.357123     0.368854     0.503721 
EA16674  8.100 12.397 12.119 90.00 90.00 90.00 Sym.group:    0
1.0
    8.100428     0.000000     0.000000
    0.000000    12.397184     0.000000
    0.000000     0.000000    12.118971
   B
  11
Direct
    0.398607     0.353838     0.500528 
    0.591720     0.355282     0.499154 
    0.763584     0.409492     0.498671 
    0.611189     0.503654     0.500182 
    0.819497     0.530586     0.500817 
    0.390657     0.504422     0.499258 
    0.503375     0.630378     0.499914 
    0.699246     0.629914     0.501291 
    0.231321     0.413903     0.501825 
    0.182207     0.536272     0.499694 
    0.308597     0.632258     0.498667 
EA16750  8.606 13.706 12.408 90.00 90.00 90.00 Sym.group:    0
1.0
    8.606010     0.000000     0.000000
    0.000000    13.705558     0.000000
    0.000000     0.000000    12.408308
   B
  15
Direct
    0.464745     0.437575     0.500002 
    0.468809     0.310391     0.507136 
    0.635250     0.504723     0.491311 
    0.791313     0.436515     0.500552 
    0.631193     0.369016     0.502127 
    0.301586     0.365089     0.500212 
    0.127838     0.421986     0.507086 
    0.803531     0.554469     0.509751 
    0.461659     0.563975     0.471160 
    0.296784     0.646965     0.506666 
    0.294757     0.491865     0.485779 
    0.966378     0.500000     0.500000 
    0.139502     0.579326     0.506414 
    0.473777     0.686958     0.508083 
    0.642877     0.631146     0.503721 
EA16991  8.606 13.706 12.408 90.00 90.00 90.00 Sym.group:    0
1.0
    8.606010     0.000000     0.000000
    0.000000    13.705558     0.000000
    0.000000     0.000000    12.408308
   B
  15
Direct
    0.468589     0.437575     0.500002 
    0.464525     0.310391     0.507136 
    0.298083     0.504723     0.491311 
    0.142020     0.436515     0.500552 
    0.302140     0.369016     0.502127 
    0.631747     0.365089     0.500212 
    0.805495     0.421986     0.507086 
    0.129803     0.554469     0.509751 
    0.471674     0.563975     0.471160 
    0.636549     0.646965     0.506666 
    0.638576     0.491865     0.485779 
    0.966955     0.500000     0.500000 
    0.793831     0.579326     0.506414 
    0.459556     0.686958     0.508083 
    0.290457     0.631146     0.503721 
EA17232  8.606 13.706 12.408 90.00 90.00 90.00 Sym.group:    0
1.0
    8.606010     0.000000     0.000000
    0.000000    13.705558     0.000000
    0.000000     0.000000    12.408308
   B
  15
Direct
    0.535255     0.562425     0.500002 
    0.531191     0.689609     0.507136 
    0.364750     0.495277     0.491311 
    0.208687     0.563485     0.500552 
    0.368807     0.630984     0.502127 
    0.698414     0.634911     0.500212 
    0.872162     0.578014     0.507086 
    0.196469     0.445531     0.509751 
    0.538341     0.436025     0.471160 
    0.703216     0.353035     0.506666 
    0.705243     0.508135     0.485779 
    0.033622     0.500000     0.500000 
    0.860498     0.420674     0.506414 
    0.526223     0.313042     0.508083 
    0.357123     0.368854     0.503721 
EA17473  8.606 13.706 12.408 90.00 90.00 90.00 Sym.group:    0
1.0
    8.606010     0.000000     0.000000
    0.000000    13.705558     0.000000
    0.000000     0.000000    12.408308
   B
  15
Direct
    0.464745     0.437575     0.500002 
    0.468809     0.310391     0.507136 
    0.635250     0.504723     0.491311 
    0.791313     0.436515     0.500552 
    0.631193     0.369016     0.502127 
    0.301586     0.365089     0.500212 
    0.127838     0.421986     0.507086 
    0.803531     0.554469     0.509751 
    0.461659     0.563975     0.471160 
    0.296784     0.646965     0.506666 
    0.294757     0.491865     0.485779 
    0.966378     0.500000     0.500000 
    0.139502     0.579326     0.506414 
    0.473777     0.686958     0.508083 
    0.642877     0.631146     0.503721 
EA17866 10.908 11.494 12.341 90.00 90.00 90.00 Sym.group:    0
1.0
   10.908304     0.000000     0.000000
    0.000000    11.494481     0.000000
    0.000000     0.000000    12.341423
   B
  11
Direct
    0.423342     0.342192     0.498134 
    0.299940     0.407167     0.496924 
    0.270407     0.539959     0.501004 
    0.421559     0.503461     0.500870 
    0.359514     0.645069     0.503930 
    0.504665     0.647498     0.499658 
    0.649067     0.639145     0.496107 
    0.580258     0.503991     0.498148 
    0.733514     0.529819     0.500107 
    0.692392     0.400201     0.503649 
    0.565341     0.341498     0.501468 
EA17955  8.606 13.706 12.408 90.00 90.00 90.00 Sym.group:    0
1.0
    8.606010     0.000000     0.000000
    0.000000    13.705558     0.000000
    0.000000     0.000000    12.408308
   B
  15
Direct
    0.468589     0.437575     0.500002 
    0.464525     0.310391     0.507136 
    0.298083     0.504723     0.491311 
    0.142020     0.436515     0.500552 
    0.302140     0.369016     0.502127 
    0.631747     0.365089     0.500212 
    0.805495     0.421986     0.507086 
    0.129803     0.554469     0.509751 
    0.471674     0.563975     0.471160 
    0.636549     0.646965     0.506666 
    0.638576     0.491865     0.485779 
    0.966955     0.500000     0.500000 
    0.793831     0.579326     0.506414 
    0.459556     0.686958     0.508083 
    0.290457     0.631146     0.503721 
EA18191  8.606 13.706 12.408 90.00 90.00 90.00 Sym.group:    0
1.0
    8.606010     0.000000     0.000000
    0.000000    13.705558     0.000000
    0.000000     0.000000    12.408308
   B
  15
Direct
    0.535255     0.562425     0.500002 
    0.531191     0.689609     0.507136 
    0.364750     0.495277     0.491311 
    0.208687     0.563485     0.500552 
    0.368807     0.630984     0.502127 
    0.698414     0.634911     0.500212 
    0.872162     0.578014     0.507086 
    0.196469     0.445531     0.509751 
    0.538341     0.436025     0.471160 
    0.703216     0.353035     0.506666 
    0.705243     0.508135     0.485779 
    0.033622     0.500000     0.500000 
    0.860498     0.420674     0.506414 
    0.526223     0.313042     0.508083 
    0.357123     0.368854     0.503721 
EA18433  8.606 13.706 12.408 90.00 90.00 90.00 Sym.group:    0
1.0
    8.606010     0.000000     0.000000
    0.000000    13.705558     0.000000
    0.000000     0.000000    12.408308
   B
  15
Direct
    0.464745     0.437575     0.500002 
    0.468809     0.310391     0.507136 
    0.635250     0.504723     0.491311 
    0.791313     0.436515     0.500552 
    0.631193     0.369016     0.502127 
    0.301586     0.365089     0.500212 
    0.127838     0.421986     0.507086 
    0.803531     0.554469     0.509751 
    0.461659     0.563975     0.471160 
    0.296784     0.646965     0.506666 
    0.294757     0.491865     0.485779 
    0.966378     0.500000     0.500000 
    0.139502     0.579326     0.506414 
    0.473777     0.686958     0.508083 
    0.642877     0.631146     0.503721 
EA18672  8.606 13.706 12.408 90.00 90.00 90.00 Sym.group:    0
1.0
    8.606010     0.000000     0.000000
    0.000000    13.705558     0.000000
    0.000000     0.000000    12.408308
   B
  15
Direct
    0.468589     0.437575     0.500002 
    0.464525     0.310391     0.507136 
    0.298083     0.504723     0.491311 
    0.142020     0.436515     0.500552 
    0.302140     0.369016     0.502127 
    0.631747     0.365089     0.500212 
    0.805495     0.421986     0.507086 
    0.129803     0.554469     0.509751 
    0.471674     0.563975     0.471160 
    0.636549     0.646965     0.506666 
    0.638576     0.491865     0.485779 
    0.966955     0.500000     0.500000 
    0.793831     0.579326     0.506414 
    0.459556     0.686958     0.508083 
    0.290457     0.631146     0.503721 
EA18912  8.606 13.706 12.408 90.00 90.00 90.00 Sym.group:    0
1.0
    8.606010     0.000000     0.000000
    0.000000    13.705558     0.000000
    0.000000     0.000000    12.408308
   B
  15
Direct
    0.535255     0.562425     0.500002 
    0.531191     0.689609     0.507136 
    0.364750     0.495277     0.491311 
    0.208687     0.563485     0.500552 
    0.368807     0.630984     0.502127 
    0.698414     0.634911     0.500212 
    0.872162     0.578014     0.507086 
    0.196469     0.445531     0.509751 
    0.538341     0.436025     0.471160 
    0.703216     0.353035     0.506666 
    0.705243     0.508135     0.485779 
    0.033622     0.500000     0.500000 
    0.860498     0.420674     0.506414 
    0.526223     0.313042     0.508083 
    0.357123     0.368854     0.503721 
EA19151  8.606 13.706 12.408 90.00 90.00 90.00 Sym.group:    0
1.0
    8.606010     0.000000     0.000000
    0.000000    13.705558     0.000000
    0.000000     0.000000    12.408308
   B
  15
Direct
    0.535255     0.562425     0.500002 
    0.531191     0.689609     0.507136 
    0.364750     0.495277     0.491311 
    0.208687     0.563485     0.500552 
    0.368807     0.630984     0.502127 
    0.698414     0.634911     0.500212 
    0.872162     0.578014     0.507086 
    0.196469     0.445531     0.509751 
    0.538341     0.436025     0.471160 
    0.703216     0.353035     0.506666 
    0.705243     0.508135     0.485779 
    0.033622     0.500000     0.500000 
    0.860498     0.420674     0.506414 
    0.526223     0.313042     0.508083 
    0.357123     0.368854     0.503721 
EA19396  8.606 13.706 12.408 90.00 90.00 90.00 Sym.group:    0
1.0
    8.606010     0.000000     0.000000
    0.000000    13.705558     0.000000
    0.000000     0.000000    12.408308
   B
  15
Direct
    0.535255     0.562425     0.500002 
    0.531191     0.689609     0.507136 
    0.364750     0.495277     0.491311 
    0.208687     0.563485     0.500552 
    0.368807     0.630984     0.502127 
    0.698414     0.634911     0.500212 
    0.872162     0.578014     0.507086 
    0.196469     0.445531     0.509751 
    0.538341     0.436025     0.471160 
    0.703216     0.353035     0.506666 
    0.705243     0.508135     0.485779 
    0.033622     0.500000     0.500000 
    0.860498     0.420674     0.506414 
    0.526223     0.313042     0.508083 
    0.357123     0.368854     0.503721 
EA19750 12.784 12.178  8.524 90.00 90.00 90.00 Sym.group:    0
1.0
   12.784490     0.000000     0.000000
    0.000000    12.178496     0.000000
    0.000000     0.000000     8.524302
   B
  12
Direct
    0.564875     0.543513     0.540035 
    0.620020     0.658154     0.481108 
    0.641919     0.424842     0.497847 
    0.572262     0.312005     0.480622 
    0.686930     0.549806     0.482697 
    0.503763     0.421091     0.537848 
    0.447226     0.305475     0.480902 
    0.307154     0.530391     0.481864 
    0.431706     0.535711     0.539636 
    0.491179     0.666447     0.497222 
    0.366287     0.643982     0.480307 
    0.366682     0.408583     0.499912 
EA19870  8.606 13.706 12.408 90.00 90.00 90.00 Sym.group:    0
1.0
    8.606010     0.000000     0.000000
    0.000000    13.705558     0.000000
    0.000000     0.000000    12.408308
   B
  15
Direct
    0.535255     0.562425     0.500002 
    0.531191     0.689609     0.507136 
    0.364750     0.495277     0.491311 
    0.208687     0.563485     0.500552 
    0.368807     0.630984     0.502127 
    0.698414     0.634911     0.500212 
    0.872162     0.578014     0.507086 
    0.196469     0.445531     0.509751 
    0.538341     0.436025     0.471160 
    0.703216     0.353035     0.506666 
    0.705243     0.508135     0.485779 
    0.033622     0.500000     0.500000 
    0.860498     0.420674     0.506414 
    0.526223     0.313042     0.508083 
    0.357123     0.368854     0.503721 
EA20103  8.606 13.706 12.408 90.00 90.00 90.00 Sym.group:    0
1.0
    8.606010     0.000000     0.000000
    0.000000    13.705558     0.000000
    0.000000     0.000000    12.408308
   B
  15
Direct
    0.535255     0.562425     0.500002 
    0.531191     0.689609     0.507136 
    0.364750     0.495277     0.491311 
    0.208687     0.563485     0.500552 
    0.368807     0.630984     0.502127 
    0.698414     0.634911     0.500212 
    0.872162     0.578014     0.507086 
    0.196469     0.445531     0.509751 
    0.538341     0.436025     0.471160 
    0.703216     0.353035     0.506666 
    0.705243     0.508135     0.485779 
    0.033622     0.500000     0.500000 
    0.860498     0.420674     0.506414 
    0.526223     0.313042     0.508083 
    0.357123     0.368854     0.503721 
EA20343  8.606 13.706 12.408 90.00 90.00 90.00 Sym.group:    0
1.0
    8.606010     0.000000     0.000000
    0.000000    13.705558     0.000000
    0.000000     0.000000    12.408308
   B
  15
Direct
    0.535255     0.562425     0.500002 
    0.531191     0.689609     0.507136 
    0.364750     0.495277     0.491311 
    0.208687     0.563485     0.500552 
    0.368807     0.630984     0.502127 
    0.698414     0.634911     0.500212 
    0.872162     0.578014     0.507086 
    0.196469     0.445531     0.509751 
    0.538341     0.436025     0.471160 
    0.703216     0.353035     0.506666 
    0.705243     0.508135     0.485779 
    0.033622     0.500000     0.500000 
    0.860498     0.420674     0.506414 
    0.526223     0.313042     0.508083 
    0.357123     0.368854     0.503721 
