EA44245 16.477 14.584 14.197 90.00 90.00 90.00 Sym.group:    0
1.0
   16.476828     0.000000     0.000000
    0.000000    14.584227     0.000000
    0.000000     0.000000    14.196591
   W   B
  16   6
Direct
    0.524504     0.331332     0.580106 
    0.553934     0.500507     0.507428 
    0.697342     0.461246     0.425669 
    0.466299     0.360520     0.422111 
    0.581427     0.439737     0.323829 
    0.662020     0.541864     0.653010 
    0.673420     0.633886     0.507045 
    0.427656     0.620232     0.577696 
    0.269267     0.537430     0.569133 
    0.312018     0.389120     0.461557 
    0.528303     0.506335     0.690328 
    0.407002     0.535076     0.420865 
    0.304241     0.665678     0.488227 
    0.539624     0.679098     0.457811 
    0.403308     0.446413     0.593388 
    0.670760     0.382791     0.576079 
    0.620750     0.579025     0.378537 
    0.602611     0.350299     0.449166 
    0.274873     0.532640     0.420307 
    0.563748     0.632885     0.605779 
    0.522818     0.571079     0.352444 
    0.394079     0.302807     0.539484 
EA44224 16.525 14.428 14.844 90.00 90.00 90.00 Sym.group:    0
1.0
   16.524825     0.000000     0.000000
    0.000000    14.428288     0.000000
    0.000000     0.000000    14.844408
   W   B
  16   7
Direct
    0.350519     0.405332     0.628553 
    0.302444     0.530825     0.510466 
    0.507761     0.414733     0.641477 
    0.468628     0.498080     0.494247 
    0.396582     0.570284     0.644701 
    0.499864     0.671769     0.531899 
    0.345886     0.701468     0.542742 
    0.384261     0.625763     0.402384 
    0.553526     0.614515     0.373585 
    0.626024     0.544855     0.549896 
    0.660331     0.355313     0.546165 
    0.456335     0.486001     0.299145 
    0.595529     0.449610     0.393837 
    0.445165     0.350857     0.381996 
    0.656757     0.438832     0.678623 
    0.703659     0.585095     0.393621 
    0.434479     0.340523     0.535709 
    0.351362     0.390007     0.481588 
    0.354403     0.464528     0.390008 
    0.631923     0.677090     0.474937 
    0.716721     0.461647     0.466476 
    0.532879     0.353609     0.499175 
    0.524962     0.569265     0.638768 
EA34043 16.069 15.281 14.114 90.00 90.00 90.00 Sym.group:    0
1.0
   16.068591     0.000000     0.000000
    0.000000    15.280895     0.000000
    0.000000     0.000000    14.114236
   W   B
  16   8
Direct
    0.264433     0.464545     0.504203 
    0.335339     0.323246     0.457836 
    0.403585     0.463936     0.405919 
    0.541402     0.373742     0.355914 
    0.478476     0.350892     0.539724 
    0.329152     0.356099     0.621988 
    0.684624     0.440786     0.450054 
    0.617620     0.290272     0.465925 
    0.547910     0.510227     0.496352 
    0.617830     0.624647     0.383638 
    0.563699     0.683830     0.526937 
    0.441425     0.638774     0.410247 
    0.400281     0.497588     0.605204 
    0.303198     0.636370     0.529715 
    0.292427     0.583439     0.380107 
    0.542469     0.461162     0.676950 
    0.609739     0.490096     0.333017 
    0.514248     0.535805     0.333070 
    0.619336     0.390009     0.575910 
    0.611743     0.581341     0.625755 
    0.664136     0.490024     0.596217 
    0.673524     0.579856     0.521436 
    0.434840     0.638301     0.564042 
    0.508562     0.595011     0.639840 
EA33317 15.312 16.813 14.535 90.00 90.00 90.00 Sym.group:    0
1.0
   15.311907     0.000000     0.000000
    0.000000    16.813487     0.000000
    0.000000     0.000000    14.535376
   W   B
  16   9
Direct
    0.493099     0.500554     0.320086 
    0.520803     0.632467     0.404411 
    0.334399     0.570511     0.377899 
    0.489967     0.363960     0.407970 
    0.446020     0.508061     0.496313 
    0.357349     0.359690     0.507995 
    0.370996     0.572543     0.644153 
    0.246682     0.581352     0.516256 
    0.391408     0.665618     0.523844 
    0.653122     0.338244     0.452707 
    0.612767     0.493268     0.472002 
    0.679687     0.637192     0.487560 
    0.706267     0.418452     0.581223 
    0.524817     0.379043     0.576162 
    0.545058     0.608339     0.594792 
    0.647841     0.575807     0.333330 
    0.399202     0.434882     0.629520 
    0.369502     0.439378     0.377160 
    0.290374     0.468025     0.453412 
    0.309544     0.470382     0.574041 
    0.486253     0.489985     0.656660 
    0.749317     0.533877     0.523739 
    0.674543     0.549321     0.607119 
    0.595001     0.487357     0.639872 
    0.605985     0.421690     0.341774 
EA44048 15.314 16.292 14.397 90.00 90.00 90.00 Sym.group:    0
1.0
   15.314392     0.000000     0.000000
    0.000000    16.292159     0.000000
    0.000000     0.000000    14.397447
   W   B
  16  10
Direct
    0.423464     0.505375     0.507093 
    0.498177     0.346788     0.530292 
    0.353125     0.390672     0.615385 
    0.509471     0.447177     0.655894 
    0.345530     0.639536     0.570979 
    0.324575     0.474849     0.355019 
    0.508019     0.611068     0.617152 
    0.625077     0.455339     0.297774 
    0.591735     0.498381     0.488117 
    0.655119     0.365438     0.430359 
    0.730810     0.572193     0.569082 
    0.484904     0.554899     0.342761 
    0.652596     0.604925     0.378355 
    0.483483     0.668861     0.469049 
    0.762751     0.508040     0.425995 
    0.474181     0.405993     0.359422 
    0.289980     0.512632     0.589476 
    0.281877     0.446072     0.496614 
    0.381289     0.525905     0.658120 
    0.280989     0.550408     0.475518 
    0.359712     0.378219     0.461313 
    0.357831     0.602009     0.413330 
    0.629098     0.384950     0.585891 
    0.619850     0.641946     0.522687 
    0.657145     0.475202     0.636850 
    0.719217     0.433125     0.547475 
EA44225 16.697 14.488 13.903 90.00 90.00 90.00 Sym.group:    0
1.0
   16.696852     0.000000     0.000000
    0.000000    14.487608     0.000000
    0.000000     0.000000    13.902961
   W   B
  17   6
Direct
    0.551002     0.561071     0.375362 
    0.597818     0.486282     0.557002 
    0.449913     0.314257     0.489623 
    0.704501     0.471723     0.403568 
    0.741174     0.400013     0.542412 
    0.486800     0.390799     0.643565 
    0.367168     0.631567     0.582955 
    0.494016     0.581370     0.669239 
    0.534987     0.667168     0.527219 
    0.442536     0.497575     0.485661 
    0.311084     0.559827     0.407962 
    0.401639     0.423319     0.312760 
    0.554847     0.392390     0.374291 
    0.613758     0.317400     0.518046 
    0.655598     0.644852     0.620343 
    0.403835     0.685584     0.419023 
    0.314566     0.379156     0.443327 
    0.726198     0.550284     0.537992 
    0.424010     0.568622     0.325788 
    0.387370     0.488722     0.647324 
    0.314445     0.491593     0.556672 
    0.364025     0.388679     0.590901 
    0.658710     0.607753     0.468966 
EA28222 16.357 14.421 14.576 90.00 90.00 90.00 Sym.group:    0
1.0
   16.356757     0.000000     0.000000
    0.000000    14.420652     0.000000
    0.000000     0.000000    14.575988
   W   B
  17   7
Direct
    0.414705     0.334171     0.604033 
    0.662804     0.426847     0.634985 
    0.605115     0.491328     0.480354 
    0.652190     0.589298     0.664709 
    0.743989     0.550049     0.540787 
    0.510439     0.498092     0.658176 
    0.647802     0.589153     0.340579 
    0.483432     0.328188     0.443730 
    0.310257     0.394479     0.509893 
    0.443991     0.495077     0.494449 
    0.512772     0.472360     0.323489 
    0.514287     0.645189     0.387429 
    0.521894     0.653170     0.561806 
    0.629856     0.307040     0.495559 
    0.367283     0.421067     0.345137 
    0.378348     0.664084     0.482152 
    0.662834     0.676479     0.482760 
    0.539757     0.374393     0.577635 
    0.317782     0.544847     0.552410 
    0.315124     0.534928     0.435497 
    0.393256     0.568671     0.362882 
    0.603405     0.376501     0.374467 
    0.399679     0.588724     0.615414 
    0.368995     0.475867     0.631664 
EA44121 15.580 15.277 15.367 90.00 90.00 90.00 Sym.group:    0
1.0
   15.579838     0.000000     0.000000
    0.000000    15.276662     0.000000
    0.000000     0.000000    15.366852
   W   B
  17   8
Direct
    0.546999     0.362386     0.482738 
    0.552944     0.514005     0.364222 
    0.559335     0.633477     0.516264 
    0.555603     0.480837     0.633462 
    0.446555     0.348616     0.621091 
    0.459303     0.621297     0.652399 
    0.456506     0.655939     0.380673 
    0.443580     0.383130     0.349524 
    0.705256     0.555734     0.577469 
    0.697744     0.395047     0.569914 
    0.696059     0.427868     0.414031 
    0.705203     0.587813     0.422975 
    0.304563     0.436875     0.413468 
    0.306581     0.415372     0.575778 
    0.312817     0.578067     0.592697 
    0.312112     0.600943     0.431309 
    0.451966     0.503390     0.501222 
    0.582933     0.336735     0.621792 
    0.582274     0.373092     0.342279 
    0.593333     0.654561     0.374985 
    0.598074     0.618251     0.654863 
    0.400691     0.351489     0.484172 
    0.409438     0.484986     0.653244 
    0.413715     0.656882     0.519413 
    0.406415     0.523209     0.350016 
EA44049 16.662 14.317 14.063 90.00 90.00 90.00 Sym.group:    0
1.0
   16.662481     0.000000     0.000000
    0.000000    14.316545     0.000000
    0.000000     0.000000    14.062815
   W   B
  17   9
Direct
    0.493603     0.556488     0.334818 
    0.650413     0.667678     0.523439 
    0.626876     0.355815     0.604238 
    0.582758     0.506379     0.509115 
    0.729462     0.551830     0.429235 
    0.735755     0.477526     0.592681 
    0.629185     0.455153     0.336538 
    0.487169     0.378570     0.369397 
    0.506309     0.680263     0.459346 
    0.429195     0.500873     0.499947 
    0.496051     0.632472     0.631378 
    0.362341     0.542314     0.664858 
    0.501497     0.450767     0.667062 
    0.348936     0.348303     0.455844 
    0.354618     0.624110     0.390353 
    0.631716     0.563081     0.678359 
    0.487786     0.317447     0.536542 
    0.689051     0.404275     0.469318 
    0.614147     0.612664     0.378346 
    0.302461     0.453946     0.555216 
    0.304129     0.572822     0.526820 
    0.380396     0.392700     0.608722 
    0.297900     0.490754     0.434663 
    0.383002     0.649348     0.543012 
    0.602998     0.344002     0.448889 
    0.372251     0.470418     0.351864 
EA43968 16.926 14.474 14.405 90.00 90.00 90.00 Sym.group:    0
1.0
   16.926498     0.000000     0.000000
    0.000000    14.473700     0.000000
    0.000000     0.000000    14.404816
   W   B
  17  10
Direct
    0.635061     0.614670     0.629001 
    0.570483     0.502012     0.494481 
    0.515971     0.364555     0.594509 
    0.488266     0.527745     0.661566 
    0.715200     0.607420     0.484655 
    0.706910     0.435330     0.437055 
    0.625817     0.577262     0.348878 
    0.334961     0.422218     0.363506 
    0.413886     0.484713     0.499064 
    0.478504     0.646663     0.420264 
    0.481919     0.507560     0.317497 
    0.269433     0.412448     0.517817 
    0.316370     0.554761     0.610228 
    0.475685     0.350148     0.402419 
    0.377400     0.301624     0.540164 
    0.374316     0.415229     0.678883 
    0.612347     0.307024     0.448408 
    0.648847     0.384222     0.571738 
    0.612251     0.464317     0.648134 
    0.692849     0.488357     0.580277 
    0.594052     0.423181     0.352624 
    0.596636     0.665428     0.481892 
    0.355925     0.633912     0.473582 
    0.423747     0.638158     0.561546 
    0.366341     0.572885     0.369003 
    0.292873     0.547250     0.447487 
    0.523949     0.650907     0.565319 
EA38764 16.535 14.625 14.141 90.00 90.00 90.00 Sym.group:    0
1.0
   16.534549     0.000000     0.000000
    0.000000    14.625411     0.000000
    0.000000     0.000000    14.140531
   W   B
  18   6
Direct
    0.588351     0.491632     0.475918 
    0.690015     0.425177     0.592712 
    0.727332     0.456783     0.398200 
    0.661681     0.321030     0.456371 
    0.649606     0.622143     0.382675 
    0.539951     0.459347     0.669025 
    0.507304     0.621646     0.623631 
    0.405737     0.368283     0.641259 
    0.534165     0.323309     0.561934 
    0.739632     0.571031     0.521379 
    0.492356     0.540611     0.320049 
    0.432671     0.502489     0.505215 
    0.509311     0.368963     0.385955 
    0.370442     0.680418     0.520878 
    0.505805     0.661981     0.442264 
    0.363569     0.550848     0.653266 
    0.352508     0.591398     0.366712 
    0.377283     0.335169     0.470537 
    0.618172     0.642636     0.532766 
    0.632127     0.564132     0.624095 
    0.308192     0.443544     0.553784 
    0.387323     0.442687     0.356722 
    0.298107     0.551980     0.511629 
    0.308362     0.462766     0.433023 
EA37684 16.752 14.427 14.009 90.00 90.00 90.00 Sym.group:    0
1.0
   16.751946     0.000000     0.000000
    0.000000    14.426713     0.000000
    0.000000     0.000000    14.008560
   W   B
  18   7
Direct
    0.451179     0.454662     0.323350 
    0.597218     0.529328     0.303386 
    0.343431     0.362987     0.572320 
    0.486063     0.327901     0.448397 
    0.578045     0.500544     0.488552 
    0.715562     0.392651     0.514931 
    0.619918     0.364929     0.382441 
    0.489715     0.369342     0.626042 
    0.693452     0.544406     0.597868 
    0.420215     0.497659     0.493493 
    0.277863     0.522358     0.584307 
    0.521833     0.542549     0.658357 
    0.277829     0.483831     0.417001 
    0.344896     0.654879     0.486196 
    0.492970     0.627033     0.369577 
    0.633565     0.671792     0.445943 
    0.485644     0.678633     0.547383 
    0.724847     0.546345     0.416687 
    0.598922     0.333375     0.541521 
    0.606791     0.653004     0.595260 
    0.397409     0.480601     0.659638 
    0.396626     0.596100     0.627208 
    0.366101     0.575976     0.357297 
    0.619295     0.418404     0.627930 
    0.360612     0.370710     0.414913 
EA44050 16.928 14.679 14.115 90.00 90.00 90.00 Sym.group:    0
1.0
   16.928361     0.000000     0.000000
    0.000000    14.679060     0.000000
    0.000000     0.000000    14.115480
   W   B
  18   8
Direct
    0.643761     0.666914     0.554383 
    0.366435     0.458604     0.333086 
    0.425803     0.497644     0.497754 
    0.494743     0.658825     0.481016 
    0.508691     0.549799     0.334972 
    0.525814     0.595556     0.648164 
    0.280618     0.412521     0.470273 
    0.290830     0.538147     0.584016 
    0.513440     0.383638     0.357333 
    0.514561     0.333527     0.533371 
    0.379111     0.364385     0.610082 
    0.577889     0.494547     0.505647 
    0.686682     0.515905     0.627361 
    0.660763     0.350708     0.602280 
    0.653564     0.477196     0.344966 
    0.728543     0.579935     0.451300 
    0.538192     0.421067     0.684217 
    0.402989     0.502924     0.701521 
    0.359190     0.637884     0.492256 
    0.404258     0.626169     0.598331 
    0.388267     0.605155     0.380007 
    0.306543     0.558979     0.430026 
    0.612413     0.622118     0.402569 
    0.705804     0.436240     0.488474 
    0.630211     0.362524     0.445437 
    0.400886     0.349087     0.441160 
EA43969 17.195 14.117 14.291 90.00 90.00 90.00 Sym.group:    0
1.0
   17.194947     0.000000     0.000000
    0.000000    14.116976     0.000000
    0.000000     0.000000    14.290700
   W   B
  18   9
Direct
    0.634363     0.328595     0.531961 
    0.576327     0.498707     0.510866 
    0.723566     0.455575     0.597333 
    0.704799     0.591853     0.486886 
    0.497632     0.351333     0.612202 
    0.613738     0.457319     0.699029 
    0.478991     0.526300     0.677189 
    0.620034     0.631648     0.630086 
    0.484030     0.673801     0.567875 
    0.477768     0.658664     0.398780 
    0.349456     0.630774     0.641745 
    0.335508     0.650251     0.457032 
    0.421330     0.505844     0.507030 
    0.512713     0.484099     0.342487 
    0.507507     0.325307     0.434831 
    0.357952     0.413848     0.641161 
    0.262266     0.526651     0.561660 
    0.383515     0.387389     0.362786 
    0.649464     0.505394     0.369139 
    0.599486     0.606170     0.381894 
    0.620178     0.392416     0.388336 
    0.697882     0.437115     0.446860 
    0.593139     0.675090     0.479595 
    0.312789     0.402916     0.490500 
    0.305612     0.500614     0.415938 
    0.393704     0.335111     0.513129 
    0.386250     0.547214     0.353670 
EA37485 17.159 14.358 14.317 90.00 90.00 90.00 Sym.group:    0
1.0
   17.158604     0.000000     0.000000
    0.000000    14.358325     0.000000
    0.000000     0.000000    14.316966
   W   B
  18  10
Direct
    0.498069     0.665354     0.544580 
    0.607029     0.680162     0.428552 
    0.469210     0.617716     0.374940 
    0.725416     0.595201     0.476778 
    0.583422     0.503924     0.496732 
    0.639544     0.466153     0.682317 
    0.652198     0.635711     0.610526 
    0.721712     0.421927     0.552102 
    0.643006     0.330179     0.435055 
    0.340747     0.471158     0.334251 
    0.497300     0.420228     0.649515 
    0.414233     0.499175     0.496947 
    0.338619     0.474175     0.653848 
    0.273283     0.558884     0.513978 
    0.272664     0.393936     0.463743 
    0.367712     0.326451     0.577393 
    0.503558     0.324126     0.493767 
    0.489796     0.428287     0.347958 
    0.375751     0.659491     0.488288 
    0.443585     0.562651     0.654833 
    0.576825     0.549455     0.335655 
    0.543497     0.563563     0.646269 
    0.694678     0.469403     0.408506 
    0.619833     0.443992     0.340019 
    0.371398     0.619538     0.597976 
    0.340810     0.607156     0.393754 
    0.389793     0.354033     0.420164 
    0.606310     0.357970     0.581555 
EA44127 16.790 14.271 14.072 90.00 90.00 90.00 Sym.group:    0
1.0
   16.790263     0.000000     0.000000
    0.000000    14.270863     0.000000
    0.000000     0.000000    14.072320
   W   B
  19   6
Direct
    0.449133     0.546861     0.322774 
    0.585409     0.639448     0.348082 
    0.350649     0.332098     0.490527 
    0.500827     0.373558     0.367756 
    0.576836     0.515785     0.494558 
    0.726285     0.415200     0.463292 
    0.630212     0.463686     0.337101 
    0.499711     0.323294     0.538430 
    0.692354     0.504218     0.616546 
    0.419388     0.490874     0.489132 
    0.281144     0.464204     0.584335 
    0.520400     0.456432     0.657436 
    0.278886     0.511479     0.411585 
    0.337077     0.627360     0.569929 
    0.483315     0.678019     0.458057 
    0.622769     0.686741     0.545333 
    0.476426     0.631580     0.631715 
    0.724017     0.590031     0.464056 
    0.352004     0.399205     0.322433 
    0.611329     0.347160     0.452687 
    0.599260     0.592456     0.661294 
    0.400062     0.393941     0.628604 
    0.394619     0.510738     0.657474 
    0.361483     0.627953     0.415312 
    0.626405     0.377681     0.571553 
EA27433 16.838 14.449 14.038 90.00 90.00 90.00 Sym.group:    0
1.0
   16.837716     0.000000     0.000000
    0.000000    14.449119     0.000000
    0.000000     0.000000    14.038116
   W   B
  19   7
Direct
    0.336146     0.542411     0.345631 
    0.274223     0.461088     0.514396 
    0.492136     0.572616     0.330254 
    0.422368     0.502542     0.491615 
    0.489929     0.400851     0.349216 
    0.335596     0.366498     0.389487 
    0.478695     0.330560     0.512722 
    0.328711     0.299492     0.552912 
    0.389256     0.417747     0.655974 
    0.633902     0.350273     0.399806 
    0.662145     0.537161     0.676348 
    0.579419     0.489441     0.507469 
    0.698648     0.609418     0.521493 
    0.623366     0.305805     0.566907 
    0.527635     0.662895     0.479215 
    0.486470     0.583182     0.650126 
    0.329327     0.574119     0.644188 
    0.548533     0.419231     0.674980 
    0.722624     0.434781     0.544903 
    0.402216     0.653307     0.423380 
    0.321307     0.611919     0.487234 
    0.623657     0.592319     0.389283 
    0.602535     0.487556     0.334625 
    0.406119     0.654532     0.544472 
    0.686986     0.494585     0.404076 
    0.598053     0.645671     0.609288 
EA43978 16.882 14.396 14.515 90.00 90.00 90.00 Sym.group:    0
1.0
   16.882223     0.000000     0.000000
    0.000000    14.396215     0.000000
    0.000000     0.000000    14.515128
   W   B
  19   8
Direct
    0.346667     0.601326     0.376994 
    0.431146     0.496361     0.505111 
    0.478682     0.349464     0.418330 
    0.494927     0.524429     0.335345 
    0.295800     0.437309     0.591848 
    0.373475     0.569425     0.655730 
    0.671839     0.431144     0.626243 
    0.589506     0.499937     0.488847 
    0.522823     0.650054     0.562429 
    0.522408     0.517918     0.677334 
    0.741087     0.408463     0.483161 
    0.697680     0.554773     0.387638 
    0.529473     0.357778     0.600383 
    0.625244     0.303466     0.472958 
    0.610172     0.405437     0.335174 
    0.396772     0.300976     0.565710 
    0.363738     0.444223     0.321752 
    0.579622     0.667674     0.383548 
    0.666776     0.686003     0.509982 
    0.344920     0.378137     0.455307 
    0.293868     0.482641     0.448320 
    0.416107     0.421314     0.658211 
    0.389141     0.651220     0.525124 
    0.639404     0.580026     0.618578 
    0.716698     0.550327     0.543839 
    0.454596     0.652621     0.433970 
    0.307428     0.577557     0.518134 
EA38494 17.432 14.716 14.268 90.00 90.00 90.00 Sym.group:    0
1.0
   17.431839     0.000000     0.000000
    0.000000    14.715585     0.000000
    0.000000     0.000000    14.268066
   W   B
  19   9
Direct
    0.621637     0.594475     0.651607 
    0.588434     0.494378     0.504496 
    0.527611     0.617863     0.391984 
    0.735981     0.481151     0.599900 
    0.730245     0.481850     0.428000 
    0.664765     0.344846     0.545555 
    0.521901     0.328229     0.490932 
    0.497452     0.439543     0.343096 
    0.641105     0.366732     0.373168 
    0.403961     0.580661     0.310851 
    0.384777     0.684335     0.438487 
    0.274830     0.577118     0.456661 
    0.489533     0.626757     0.577451 
    0.403229     0.322749     0.402406 
    0.287239     0.385951     0.519110 
    0.497791     0.443344     0.638666 
    0.411646     0.501070     0.483420 
    0.273566     0.520201     0.618672 
    0.308873     0.441775     0.358022 
    0.654145     0.604453     0.412919 
    0.617898     0.516175     0.345543 
    0.607775     0.654912     0.509448 
    0.692476     0.599221     0.523530 
    0.624113     0.446742     0.657399 
    0.358589     0.622678     0.579502 
    0.409813     0.351047     0.561071 
    0.399859     0.541119     0.645907 
    0.370758     0.430623     0.632199 
EA43917 17.355 15.397 14.009 90.00 90.00 90.00 Sym.group:    0
1.0
   17.355273     0.000000     0.000000
    0.000000    15.397250     0.000000
    0.000000     0.000000    14.008899
   W   B
  19  10
Direct
    0.558505     0.389259     0.351658 
    0.488042     0.532515     0.324348 
    0.623335     0.282543     0.461081 
    0.692825     0.425714     0.428760 
    0.677060     0.410294     0.601012 
    0.750398     0.542071     0.550113 
    0.568522     0.508561     0.500023 
    0.637766     0.564003     0.654768 
    0.569641     0.650196     0.400910 
    0.447463     0.676676     0.523037 
    0.402059     0.664628     0.364998 
    0.418427     0.504485     0.499769 
    0.498017     0.424453     0.655821 
    0.299442     0.609078     0.474405 
    0.280561     0.441285     0.448795 
    0.487611     0.588283     0.667743 
    0.353359     0.374675     0.615836 
    0.482226     0.338098     0.497109 
    0.395836     0.395785     0.344830 
    0.618393     0.523279     0.339088 
    0.679045     0.571701     0.418150 
    0.570650     0.656448     0.562203 
    0.659590     0.632664     0.518118 
    0.353203     0.531352     0.355464 
    0.383846     0.499894     0.667647 
    0.305860     0.504099     0.592245 
    0.357561     0.334114     0.472977 
    0.362464     0.597270     0.612981 
    0.578294     0.326576     0.596111 
EA44053 17.123 14.488 13.922 90.00 90.00 90.00 Sym.group:    0
1.0
   17.122704     0.000000     0.000000
    0.000000    14.488091     0.000000
    0.000000     0.000000    13.922058
   W   B
  20   6
Direct
    0.508455     0.634513     0.357364 
    0.420657     0.509254     0.492727 
    0.270198     0.565636     0.537832 
    0.387079     0.309193     0.580564 
    0.480439     0.455273     0.333214 
    0.620425     0.369437     0.346869 
    0.636902     0.557158     0.343211 
    0.523031     0.323849     0.474172 
    0.354906     0.634966     0.652370 
    0.575326     0.493964     0.494099 
    0.488717     0.671343     0.537532 
    0.497082     0.545506     0.666594 
    0.656924     0.354350     0.555006 
    0.509856     0.370593     0.650232 
    0.357441     0.462555     0.658066 
    0.360943     0.670133     0.454649 
    0.382560     0.339169     0.396119 
    0.730172     0.446418     0.434945 
    0.626425     0.624247     0.620624 
    0.301454     0.472163     0.369839 
    0.310572     0.413654     0.514781 
    0.693813     0.500935     0.580135 
    0.690926     0.583171     0.488811 
    0.615763     0.470037     0.653329 
    0.608777     0.651742     0.465549 
    0.391155     0.570744     0.341367 
EA43979 16.798 15.818 14.323 90.00 90.00 90.00 Sym.group:    0
1.0
   16.798216     0.000000     0.000000
    0.000000    15.817620     0.000000
    0.000000     0.000000    14.323350
   W   B
  20   7
Direct
    0.511544     0.612070     0.398497 
    0.564386     0.651871     0.583715 
    0.576219     0.496700     0.508709 
    0.664542     0.642483     0.451377 
    0.715106     0.557196     0.576731 
    0.646905     0.393561     0.376204 
    0.518780     0.458380     0.314087 
    0.635368     0.411690     0.653365 
    0.390795     0.630936     0.615502 
    0.486045     0.511428     0.665198 
    0.264739     0.557215     0.569959 
    0.356834     0.392670     0.377561 
    0.340132     0.449513     0.651317 
    0.361782     0.320205     0.539716 
    0.418674     0.489925     0.496147 
    0.492862     0.357361     0.610638 
    0.500608     0.345901     0.431057 
    0.388187     0.538878     0.309856 
    0.469807     0.735428     0.497163 
    0.356945     0.640486     0.446260 
    0.613753     0.543596     0.665217 
    0.704304     0.507803     0.435506 
    0.696850     0.423920     0.515491 
    0.627762     0.532210     0.359828 
    0.613549     0.352624     0.520233 
    0.294882     0.513002     0.424875 
    0.288641     0.432955     0.505790 
EA27297 14.580 15.791 16.483 90.00 90.00 90.00 Sym.group:    0
1.0
   14.580376     0.000000     0.000000
    0.000000    15.790606     0.000000
    0.000000     0.000000    16.483428
   W   B
  20   8
Direct
    0.466310     0.404454     0.620904 
    0.270807     0.446942     0.604805 
    0.352676     0.358038     0.388817 
    0.309246     0.608270     0.606641 
    0.494242     0.585548     0.629362 
    0.313336     0.510489     0.372805 
    0.411656     0.504066     0.506121 
    0.414640     0.722303     0.574398 
    0.335200     0.652216     0.454428 
    0.518266     0.654647     0.480640 
    0.489341     0.334578     0.482720 
    0.618406     0.457771     0.666695 
    0.651116     0.345823     0.559157 
    0.598576     0.492106     0.507044 
    0.814178     0.524606     0.447142 
    0.693280     0.597012     0.574554 
    0.779875     0.460893     0.572964 
    0.675711     0.483598     0.355545 
    0.691509     0.633507     0.429202 
    0.495831     0.448546     0.363379 
    0.346762     0.361365     0.527711 
    0.268537     0.428388     0.476938 
    0.254533     0.535532     0.498723 
    0.381451     0.505816     0.665350 
    0.443123     0.583867     0.381819 
    0.621441     0.375849     0.420719 
    0.727385     0.408652     0.456609 
    0.562564     0.575118     0.374807 
EA43918 16.567 14.968 14.681 90.00 90.00 90.00 Sym.group:    0
1.0
   16.566500     0.000000     0.000000
    0.000000    14.968372     0.000000
    0.000000     0.000000    14.680564
   W   B
  20   9
Direct
    0.524500     0.322923     0.529346 
    0.407262     0.410925     0.328772 
    0.361348     0.566559     0.660962 
    0.491371     0.451282     0.653025 
    0.430355     0.519111     0.491243 
    0.290508     0.492939     0.405204 
    0.366289     0.358187     0.494358 
    0.415105     0.698628     0.518270 
    0.529366     0.527482     0.340979 
    0.514583     0.625433     0.622350 
    0.721394     0.595865     0.508298 
    0.567415     0.669390     0.462339 
    0.652153     0.548366     0.663219 
    0.592767     0.493968     0.503934 
    0.702565     0.444798     0.384473 
    0.572062     0.360365     0.367900 
    0.652599     0.705309     0.605257 
    0.280121     0.612647     0.538191 
    0.753382     0.436171     0.548864 
    0.635913     0.379341     0.644032 
    0.422344     0.331778     0.627178 
    0.299275     0.470706     0.559329 
    0.394667     0.558469     0.335373 
    0.348840     0.626910     0.409707 
    0.450549     0.642274     0.385244 
    0.656070     0.352021     0.491967 
    0.458639     0.301391     0.404534 
    0.358742     0.418213     0.635541 
    0.649817     0.578550     0.380114 
EA43916 17.131 15.738 14.617 90.00 90.00 90.00 Sym.group:    0
1.0
   17.130670     0.000000     0.000000
    0.000000    15.737671     0.000000
    0.000000     0.000000    14.617190
   W   B
  20  10
Direct
    0.496613     0.587986     0.362536 
    0.639405     0.548831     0.644388 
    0.475256     0.425766     0.340215 
    0.569703     0.476399     0.496388 
    0.597900     0.349437     0.378143 
    0.640832     0.607743     0.403644 
    0.501009     0.741123     0.404886 
    0.707757     0.457172     0.401993 
    0.666250     0.677185     0.556956 
    0.362227     0.349248     0.575162 
    0.363705     0.345733     0.405252 
    0.331063     0.497053     0.354638 
    0.415262     0.754307     0.532998 
    0.523182     0.641427     0.542001 
    0.487326     0.544090     0.676086 
    0.361268     0.604559     0.609780 
    0.416700     0.493064     0.503764 
    0.497161     0.391013     0.635079 
    0.364625     0.651430     0.423552 
    0.255727     0.562955     0.482103 
    0.577524     0.331042     0.529040 
    0.699491     0.450197     0.556206 
    0.667827     0.363042     0.504582 
    0.709447     0.551358     0.518757 
    0.484873     0.347356     0.482181 
    0.626411     0.394775     0.609839 
    0.595795     0.487061     0.334028 
    0.300744     0.473494     0.591324 
    0.379648     0.465441     0.659565 
    0.285265     0.429714     0.484911 
