EA3    16.207 16.207 15.315 90.00 90.00 90.00 Sym.group:    0
1.0
   16.207241     0.000000     0.000000
    0.000000    16.207241     0.000000
    0.000000     0.000000    15.315412
   W   B
  20  10
Direct
    0.386682     0.342579     0.423617 
    0.568360     0.351218     0.392121 
    0.599554     0.315347     0.555457 
    0.422424     0.304622     0.595330 
    0.445824     0.556754     0.297817 
    0.386553     0.678644     0.540794 
    0.353421     0.448332     0.668500 
    0.337034     0.610924     0.402950 
    0.621754     0.651595     0.471847 
    0.688179     0.408285     0.482440 
    0.535020     0.679794     0.626554 
    0.471590     0.675312     0.365569 
    0.671279     0.451791     0.326462 
    0.571780     0.552647     0.717731 
    0.676208     0.638045     0.622938 
    0.297434     0.378533     0.548458 
    0.651152     0.454335     0.645458 
    0.603839     0.586264     0.314510 
    0.309811     0.546552     0.557913 
    0.514709     0.396591     0.693576 
    0.355610     0.457201     0.351054 
    0.454710     0.421507     0.336614 
    0.666284     0.540485     0.429945 
    0.430589     0.573944     0.641265 
    0.494424     0.281905     0.484031 
    0.508273     0.713666     0.496305 
    0.543160     0.465751     0.312094 
    0.452695     0.506089     0.725045 
    0.689193     0.534392     0.536494 
    0.292455     0.476896     0.437110 
EA484  15.678 15.904 14.699 90.00 90.00 90.00 Sym.group:    0
1.0
   15.678014     0.000000     0.000000
    0.000000    15.904048     0.000000
    0.000000     0.000000    14.699313
   W   B
  19   8
Direct
    0.455279     0.640615     0.500246 
    0.616134     0.581122     0.522686 
    0.616495     0.412644     0.491198 
    0.458903     0.365181     0.471367 
    0.355135     0.508858     0.476614 
    0.347560     0.491535     0.666669 
    0.448522     0.621798     0.689429 
    0.607082     0.568156     0.698566 
    0.605698     0.401997     0.677343 
    0.446334     0.353670     0.660644 
    0.587943     0.696356     0.398804 
    0.713338     0.522198     0.389413 
    0.330401     0.386089     0.353386 
    0.559400     0.703977     0.613178 
    0.717787     0.482944     0.600141 
    0.559717     0.282318     0.580465 
    0.320340     0.372836     0.557779 
    0.315329     0.622776     0.594890 
    0.566046     0.551737     0.348866 
    0.646722     0.423609     0.339227 
    0.453873     0.365004     0.320803 
    0.351457     0.509069     0.326470 
    0.471149     0.670016     0.347715 
    0.502868     0.503701     0.483536 
    0.490628     0.487049     0.686276 
    0.403118     0.593330     0.355885 
    0.552739     0.381418     0.348402 
EA796  15.614 16.788 15.668 90.00 90.00 90.00 Sym.group:    0
1.0
   15.613621     0.000000     0.000000
    0.000000    16.787785     0.000000
    0.000000     0.000000    15.668360
   W   B
  18   9
Direct
    0.562440     0.521469     0.486825 
    0.459951     0.634253     0.415020 
    0.720720     0.490208     0.458575 
    0.480593     0.386501     0.561860 
    0.317117     0.398706     0.566047 
    0.649027     0.384163     0.560686 
    0.637392     0.638266     0.399427 
    0.649473     0.493120     0.322677 
    0.546961     0.258404     0.505532 
    0.329126     0.360258     0.410031 
    0.412886     0.547320     0.295022 
    0.303456     0.498784     0.684147 
    0.557772     0.464860     0.673471 
    0.698668     0.626833     0.540638 
    0.434783     0.555205     0.612083 
    0.548123     0.684887     0.543169 
    0.583105     0.375245     0.413420 
    0.392055     0.487999     0.442263 
    0.662229     0.513260     0.597680 
    0.410034     0.426813     0.677199 
    0.542911     0.577531     0.315776 
    0.445337     0.305357     0.441330 
    0.584389     0.585561     0.623089 
    0.510570     0.477399     0.347624 
    0.412406     0.673930     0.545417 
    0.347645     0.606672     0.508249 
    0.300830     0.526997     0.552743 
EA1163 16.421 15.447 14.985 90.00 90.00 90.00 Sym.group:    0
1.0
   16.421440     0.000000     0.000000
    0.000000    15.447163     0.000000
    0.000000     0.000000    14.984893
   W   B
  20   6
Direct
    0.710703     0.515781     0.463189 
    0.403219     0.498674     0.506380 
    0.531996     0.578219     0.598727 
    0.560380     0.480710     0.441914 
    0.604193     0.625259     0.390553 
    0.428721     0.522141     0.339160 
    0.400973     0.687710     0.544721 
    0.673714     0.391383     0.559709 
    0.460413     0.343679     0.385951 
    0.443836     0.449597     0.688585 
    0.686089     0.650986     0.552895 
    0.279042     0.595008     0.531514 
    0.686193     0.528635     0.647664 
    0.618570     0.325731     0.409453 
    0.289202     0.473075     0.636282 
    0.532881     0.230241     0.482976 
    0.358828     0.348651     0.529387 
    0.510522     0.369954     0.560817 
    0.554319     0.724710     0.524555 
    0.382241     0.590354     0.677305 
    0.579737     0.452418     0.666999 
    0.562437     0.527581     0.292996 
    0.376722     0.622741     0.420843 
    0.481469     0.620381     0.444843 
    0.350877     0.418623     0.399949 
    0.532723     0.427756     0.302633 
EA1660 15.894 15.103 14.260 90.00 90.00 90.00 Sym.group:    0
1.0
   15.893730     0.000000     0.000000
    0.000000    15.102578     0.000000
    0.000000     0.000000    14.260148
   W   B
  17   6
Direct
    0.537112     0.469709     0.666425 
    0.520612     0.349123     0.511924 
    0.473297     0.443912     0.343592 
    0.348303     0.353178     0.455806 
    0.311935     0.491378     0.376821 
    0.307123     0.614318     0.503170 
    0.367235     0.560674     0.649648 
    0.376719     0.393323     0.639730 
    0.260857     0.449185     0.549580 
    0.548625     0.594360     0.320722 
    0.626090     0.340987     0.643696 
    0.581343     0.322922     0.351934 
    0.681041     0.379006     0.488841 
    0.600578     0.526155     0.474141 
    0.646840     0.458171     0.313223 
    0.462800     0.671445     0.490951 
    0.442132     0.500608     0.510681 
    0.589784     0.674153     0.436067 
    0.597726     0.659530     0.550304 
    0.664970     0.474573     0.609204 
    0.515052     0.606333     0.613472 
    0.623722     0.578128     0.623884 
    0.416108     0.588828     0.376181 
EA2017 15.918 14.544 14.277 90.00 90.00 90.00 Sym.group:    0
1.0
   15.918301     0.000000     0.000000
    0.000000    14.544493     0.000000
    0.000000     0.000000    14.276718
   W   B
  17   6
Direct
    0.458215     0.467838     0.661574 
    0.459442     0.348856     0.502174 
    0.512876     0.449133     0.344141 
    0.628825     0.328050     0.461207 
    0.682549     0.462671     0.381625 
    0.697630     0.588524     0.495136 
    0.656731     0.529493     0.657673 
    0.603717     0.369251     0.633494 
    0.737141     0.419725     0.554707 
    0.350044     0.350853     0.632929 
    0.388282     0.327287     0.344489 
    0.303460     0.400951     0.474701 
    0.400295     0.538284     0.478508 
    0.364205     0.480689     0.309990 
    0.546933     0.682349     0.476799 
    0.556016     0.497270     0.514390 
    0.521183     0.634510     0.639912 
    0.422994     0.675527     0.424436 
    0.417967     0.677456     0.544220 
    0.329484     0.493796     0.607136 
    0.384231     0.595127     0.623510 
    0.591565     0.579495     0.373958 
    0.486215     0.602864     0.363291 
EA2371 15.848 14.532 14.176 90.00 90.00 90.00 Sym.group:    0
1.0
   15.848425     0.000000     0.000000
    0.000000    14.531758     0.000000
    0.000000     0.000000    14.176231
   W   B
  16   6
Direct
    0.359603     0.479525     0.440787 
    0.433850     0.634803     0.617272 
    0.417261     0.465620     0.631245 
    0.288278     0.577516     0.559010 
    0.639553     0.358141     0.513359 
    0.564779     0.406008     0.672358 
    0.565059     0.567961     0.700026 
    0.529633     0.515906     0.505080 
    0.512884     0.388559     0.380500 
    0.674915     0.386596     0.356224 
    0.462006     0.579104     0.349717 
    0.606728     0.656687     0.390739 
    0.697110     0.530317     0.455060 
    0.611025     0.661039     0.568552 
    0.353082     0.668624     0.438463 
    0.370534     0.319114     0.518055 
    0.289194     0.425975     0.566970 
    0.382995     0.340612     0.375995 
    0.504001     0.358853     0.534239 
    0.654126     0.494537     0.596469 
    0.593683     0.512530     0.349829 
    0.489703     0.671973     0.480052 
EA2565 17.132 16.573 14.256 90.00 90.00 90.00 Sym.group:    0
1.0
   17.132306     0.000000     0.000000
    0.000000    16.573333     0.000000
    0.000000     0.000000    14.256211
   W   B
  19   7
Direct
    0.415469     0.511233     0.573732 
    0.416885     0.627139     0.433002 
    0.466472     0.421345     0.407036 
    0.347892     0.330253     0.425960 
    0.289675     0.621495     0.517715 
    0.316427     0.379174     0.582992 
    0.456237     0.299321     0.535769 
    0.319733     0.491463     0.429097 
    0.435541     0.385183     0.672620 
    0.416985     0.657460     0.619268 
    0.681440     0.494431     0.618181 
    0.615066     0.485081     0.412062 
    0.557952     0.422659     0.567053 
    0.564898     0.591386     0.596560 
    0.588468     0.331214     0.390019 
    0.574449     0.644172     0.411683 
    0.504250     0.737084     0.522013 
    0.689420     0.363931     0.501912 
    0.700292     0.609963     0.504662 
    0.409958     0.525290     0.332500 
    0.277660     0.507205     0.573682 
    0.621493     0.701875     0.546048 
    0.586601     0.291421     0.533368 
    0.730576     0.486004     0.475605 
    0.506234     0.544454     0.344410 
    0.509927     0.539760     0.473051 
EA2771 16.712 16.067 14.460 90.00 90.00 90.00 Sym.group:    0
1.0
   16.711547     0.000000     0.000000
    0.000000    16.066748     0.000000
    0.000000     0.000000    14.459589
   W   B
  20   8
Direct
    0.414604     0.485117     0.517349 
    0.478503     0.536390     0.701561 
    0.327535     0.577379     0.648896 
    0.316656     0.510584     0.382381 
    0.286011     0.390219     0.484429 
    0.330749     0.430524     0.648745 
    0.611286     0.383033     0.404171 
    0.598708     0.313198     0.574822 
    0.631499     0.441652     0.676343 
    0.472093     0.338352     0.484957 
    0.571197     0.489758     0.520995 
    0.632497     0.558961     0.359891 
    0.704468     0.620233     0.492399 
    0.621595     0.609475     0.633853 
    0.483669     0.639443     0.567946 
    0.481589     0.591457     0.384236 
    0.343843     0.637409     0.480202 
    0.580547     0.702557     0.454963 
    0.489497     0.390447     0.666159 
    0.226921     0.519120     0.537724 
    0.489003     0.383320     0.344980 
    0.688297     0.407103     0.535420 
    0.536504     0.474952     0.320727 
    0.703561     0.480142     0.453680 
    0.705030     0.506355     0.573456 
    0.434705     0.475241     0.326289 
    0.390907     0.392696     0.379110 
    0.448524     0.714885     0.444315 
EA3173 16.292 15.734 14.007 90.00 90.00 90.00 Sym.group:    0
1.0
   16.292485     0.000000     0.000000
    0.000000    15.733776     0.000000
    0.000000     0.000000    14.007282
   W   B
  16  10
Direct
    0.536728     0.258442     0.546014 
    0.676346     0.467314     0.408192 
    0.648507     0.366936     0.553426 
    0.678410     0.544005     0.555155 
    0.534444     0.494462     0.474670 
    0.443644     0.463230     0.643222 
    0.531636     0.697401     0.640626 
    0.635638     0.630654     0.406686 
    0.427198     0.372609     0.453502 
    0.478262     0.637542     0.369121 
    0.431277     0.617976     0.546214 
    0.330994     0.609851     0.372196 
    0.430168     0.491121     0.317713 
    0.551945     0.400056     0.292355 
    0.417634     0.302232     0.625019 
    0.310218     0.416329     0.557017 
    0.568851     0.353605     0.434510 
    0.582901     0.462294     0.632275 
    0.538619     0.363715     0.645006 
    0.547351     0.564281     0.624411 
    0.333730     0.539724     0.619124 
    0.539841     0.703275     0.490495 
    0.302213     0.551449     0.508644 
    0.565103     0.532609     0.316267 
    0.629829     0.682308     0.547127 
    0.328515     0.476581     0.421010 
EA3394 16.715 16.697 15.146 90.00 90.00 90.00 Sym.group:    0
1.0
   16.714671     0.000000     0.000000
    0.000000    16.696602     0.000000
    0.000000     0.000000    15.146463
   W   B
  20  10
Direct
    0.486430     0.512240     0.699907 
    0.398967     0.398056     0.638120 
    0.564373     0.321590     0.416111 
    0.527573     0.445727     0.528524 
    0.701725     0.463300     0.572212 
    0.571557     0.653416     0.652285 
    0.607132     0.581412     0.514708 
    0.489276     0.292403     0.559707 
    0.578075     0.387953     0.674739 
    0.651326     0.324968     0.557881 
    0.421937     0.249878     0.417504 
    0.249837     0.455373     0.546024 
    0.388485     0.538593     0.564169 
    0.587572     0.471478     0.349491 
    0.517554     0.617614     0.338516 
    0.368695     0.379528     0.475273 
    0.471683     0.660645     0.499085 
    0.440324     0.491087     0.390288 
    0.286762     0.516277     0.411999 
    0.459002     0.354558     0.310860 
    0.452883     0.627488     0.638487 
    0.592793     0.713530     0.528712 
    0.667754     0.410198     0.443530 
    0.607257     0.519947     0.648346 
    0.689860     0.508636     0.431612 
    0.264705     0.581394     0.532757 
    0.595868     0.682886     0.421385 
    0.642107     0.590396     0.376489 
    0.327919     0.631106     0.471712 
    0.390569     0.618322     0.389566 
EA3851 16.778 14.873 14.702 90.00 90.00 90.00 Sym.group:    0
1.0
   16.778487     0.000000     0.000000
    0.000000    14.872623     0.000000
    0.000000     0.000000    14.701841
   W   B
  20   6
Direct
    0.480508     0.620308     0.625498 
    0.480276     0.643241     0.438959 
    0.268938     0.528220     0.543811 
    0.348547     0.661259     0.560653 
    0.290496     0.476932     0.375518 
    0.402373     0.545846     0.308280 
    0.417686     0.490964     0.493481 
    0.344770     0.395912     0.616887 
    0.342279     0.331104     0.452087 
    0.481838     0.444473     0.662763 
    0.710389     0.590036     0.531292 
    0.610462     0.586062     0.687621 
    0.665837     0.446325     0.645300 
    0.491286     0.325793     0.512422 
    0.576748     0.501741     0.515093 
    0.562137     0.524134     0.338246 
    0.709429     0.544149     0.364057 
    0.441134     0.385703     0.347952 
    0.606601     0.696684     0.548984 
    0.641437     0.330869     0.511644 
    0.342677     0.609433     0.425952 
    0.369224     0.537968     0.643358 
    0.565417     0.381007     0.397905 
    0.617784     0.630131     0.420484 
    0.659740     0.423873     0.400872 
    0.571989     0.347835     0.630882 
EA4163 16.798 14.891 13.898 90.00 90.00 90.00 Sym.group:    0
1.0
   16.797667     0.000000     0.000000
    0.000000    14.891197     0.000000
    0.000000     0.000000    13.898019
   W   B
  18   8
Direct
    0.344531     0.535305     0.335335 
    0.354784     0.366847     0.384509 
    0.416465     0.511421     0.498615 
    0.470093     0.313699     0.475963 
    0.367179     0.470449     0.674574 
    0.266971     0.453949     0.492531 
    0.639041     0.508458     0.337894 
    0.565823     0.696809     0.543791 
    0.626861     0.329745     0.560005 
    0.490407     0.391299     0.637708 
    0.515049     0.573634     0.645703 
    0.511784     0.620281     0.392820 
    0.390879     0.664569     0.571399 
    0.670301     0.597810     0.608681 
    0.374690     0.687605     0.394930 
    0.493808     0.447397     0.332782 
    0.599641     0.333167     0.386238 
    0.572258     0.483980     0.498969 
    0.299836     0.564426     0.588273 
    0.697740     0.454768     0.571910 
    0.643541     0.615320     0.452590 
    0.709293     0.528888     0.476423 
    0.295948     0.596653     0.472442 
    0.619769     0.464343     0.653924 
    0.695830     0.418183     0.453176 
    0.367480     0.370990     0.558815 
EA4550 16.469 15.178 14.164 90.00 90.00 90.00 Sym.group:    0
1.0
   16.468842     0.000000     0.000000
    0.000000    15.177937     0.000000
    0.000000     0.000000    14.164374
   W   B
  18   8
Direct
    0.659706     0.494205     0.344754 
    0.635147     0.661268     0.401678 
    0.583860     0.497043     0.501297 
    0.507844     0.685657     0.488325 
    0.632024     0.539881     0.679204 
    0.725958     0.573966     0.505277 
    0.351973     0.476789     0.333588 
    0.473171     0.322043     0.526448 
    0.354198     0.639605     0.561780 
    0.495189     0.599076     0.638922 
    0.493094     0.425543     0.652787 
    0.489859     0.401742     0.356231 
    0.630369     0.351339     0.577044 
    0.342310     0.373363     0.594546 
    0.630579     0.341552     0.407354 
    0.514153     0.563108     0.337222 
    0.386795     0.646231     0.386531 
    0.424431     0.499662     0.497651 
    0.710656     0.459353     0.591763 
    0.295777     0.509725     0.566327 
    0.367107     0.367408     0.435048 
    0.292395     0.439626     0.468246 
    0.716624     0.432455     0.475309 
    0.373361     0.509907     0.648966 
    0.296332     0.551981     0.453439 
    0.617086     0.637468     0.570261 
EA4882 16.848 14.639 13.922 90.00 90.00 90.00 Sym.group:    0
1.0
   16.848213     0.000000     0.000000
    0.000000    14.639149     0.000000
    0.000000     0.000000    13.922080
   W   B
  17   9
Direct
    0.497145     0.432399     0.335813 
    0.560276     0.600836     0.339338 
    0.586838     0.496157     0.482637 
    0.552047     0.320573     0.488838 
    0.686052     0.642727     0.479239 
    0.738360     0.494560     0.547880 
    0.324284     0.414246     0.370633 
    0.401717     0.560442     0.327852 
    0.449860     0.671684     0.587850 
    0.527141     0.416381     0.647723 
    0.427317     0.481676     0.498632 
    0.581307     0.596462     0.637073 
    0.362621     0.418922     0.649602 
    0.698812     0.383073     0.430503 
    0.703210     0.536340     0.352200 
    0.322073     0.577739     0.603523 
    0.418596     0.300913     0.407107 
    0.647524     0.469857     0.652812 
    0.291204     0.451842     0.518736 
    0.369130     0.631859     0.464071 
    0.304396     0.548878     0.448589 
    0.462021     0.649622     0.434166 
    0.646180     0.378906     0.580143 
    0.439907     0.331034     0.563640 
    0.448797     0.540288     0.662850 
    0.553186     0.652586     0.488548 
EA5050 16.962 16.236 14.738 90.00 90.00 90.00 Sym.group:    0
1.0
   16.961675     0.000000     0.000000
    0.000000    16.236366     0.000000
    0.000000     0.000000    14.738350
   W   B
  20  10
Direct
    0.685779     0.614685     0.418874 
    0.546386     0.662716     0.405415 
    0.543202     0.500643     0.336247 
    0.515716     0.364297     0.445684 
    0.587110     0.515873     0.498896 
    0.399806     0.393553     0.350616 
    0.735027     0.457780     0.504273 
    0.725787     0.594283     0.580610 
    0.655167     0.466858     0.647614 
    0.385269     0.639218     0.419001 
    0.485700     0.645672     0.563317 
    0.495804     0.507644     0.660039 
    0.288344     0.455086     0.641078 
    0.307340     0.392780     0.487478 
    0.276589     0.554708     0.517941 
    0.428383     0.496829     0.499845 
    0.336609     0.691277     0.565713 
    0.419410     0.367792     0.611671 
    0.363139     0.583847     0.674487 
    0.504178     0.257982     0.560669 
    0.615311     0.657496     0.538364 
    0.468260     0.605752     0.309825 
    0.675628     0.488870     0.376234 
    0.635591     0.403219     0.415812 
    0.552537     0.384161     0.608160 
    0.599503     0.593532     0.632288 
    0.409794     0.525070     0.327252 
    0.400950     0.296216     0.482786 
    0.631603     0.375808     0.530950 
    0.326080     0.506356     0.388861 
EA5622 16.837 15.484 14.422 90.00 90.00 90.00 Sym.group:    0
1.0
   16.836547     0.000000     0.000000
    0.000000    15.484256     0.000000
    0.000000     0.000000    14.422015
   W   B
  18   6
Direct
    0.498638     0.665804     0.609042 
    0.357759     0.617984     0.623503 
    0.326119     0.369950     0.522670 
    0.459336     0.358352     0.607680 
    0.459446     0.339376     0.427834 
    0.612345     0.385912     0.519255 
    0.578063     0.433418     0.355690 
    0.633253     0.569374     0.438326 
    0.489235     0.508568     0.505245 
    0.746038     0.473600     0.536180 
    0.502388     0.595211     0.335373 
    0.633882     0.548112     0.615573 
    0.412728     0.663240     0.462970 
    0.466907     0.524593     0.694338 
    0.299795     0.525481     0.493851 
    0.358180     0.569894     0.336075 
    0.723688     0.440878     0.385798 
    0.539046     0.243999     0.525865 
    0.555950     0.443263     0.641063 
    0.368200     0.440456     0.404265 
    0.449858     0.466427     0.343989 
    0.612983     0.669260     0.544108 
    0.371390     0.472164     0.612638 
    0.544773     0.674684     0.458668 
EA5947 15.826 15.020 14.432 90.00 90.00 90.00 Sym.group:    0
1.0
   15.826273     0.000000     0.000000
    0.000000    15.020219     0.000000
    0.000000     0.000000    14.432267
   W   B
  17   7
Direct
    0.526035     0.661876     0.501045 
    0.364562     0.389526     0.628870 
    0.524413     0.416915     0.653033 
    0.450655     0.316693     0.503352 
    0.614385     0.393323     0.510786 
    0.535327     0.371658     0.350892 
    0.584316     0.543730     0.371425 
    0.427414     0.638472     0.350580 
    0.465476     0.500624     0.495430 
    0.728333     0.511448     0.477919 
    0.346940     0.678888     0.485148 
    0.541969     0.589680     0.658405 
    0.323087     0.522400     0.389951 
    0.688184     0.496158     0.639588 
    0.302154     0.537486     0.565556 
    0.678151     0.649953     0.599421 
    0.456404     0.488529     0.277317 
    0.337431     0.408159     0.483272 
    0.556756     0.288922     0.590519 
    0.396853     0.395701     0.384177 
    0.656089     0.632154     0.458112 
    0.415918     0.519875     0.655238 
    0.664362     0.428481     0.371333 
    0.414786     0.619349     0.598633 
EA6293 15.775 14.921 14.400 90.00 90.00 90.00 Sym.group:    0
1.0
   15.775382     0.000000     0.000000
    0.000000    14.920578     0.000000
    0.000000     0.000000    14.400006
   W   B
  17   7
Direct
    0.490098     0.671853     0.510675 
    0.615469     0.639306     0.621526 
    0.635201     0.368470     0.606980 
    0.478220     0.398384     0.651974 
    0.534695     0.309169     0.483330 
    0.375185     0.399935     0.506685 
    0.444855     0.389855     0.349199 
    0.411779     0.558372     0.382694 
    0.562608     0.643631     0.360212 
    0.529953     0.499211     0.498681 
    0.271263     0.544715     0.492478 
    0.675208     0.672349     0.472124 
    0.467053     0.577788     0.672074 
    0.668300     0.519267     0.378163 
    0.288508     0.442979     0.365356 
    0.338969     0.497546     0.652560 
    0.700265     0.510730     0.552431 
    0.651347     0.394729     0.460384 
    0.431822     0.285887     0.574865 
    0.583482     0.401483     0.369778 
    0.354179     0.657421     0.475030 
    0.588421     0.495903     0.654566 
    0.536071     0.496318     0.326033 
    0.367050     0.624701     0.582205 
EA6632 15.915 14.850 14.237 90.00 90.00 90.00 Sym.group:    0
1.0
   15.914599     0.000000     0.000000
    0.000000    14.849539     0.000000
    0.000000     0.000000    14.236601
   W   B
  16   8
Direct
    0.548403     0.631685     0.401412 
    0.442717     0.710887     0.513877 
    0.366901     0.495596     0.672741 
    0.539848     0.503048     0.679880 
    0.594131     0.392040     0.562313 
    0.502284     0.311279     0.440050 
    0.571250     0.451495     0.366232 
    0.442963     0.549179     0.299957 
    0.469352     0.509802     0.498217 
    0.717152     0.451547     0.466754 
    0.361345     0.667335     0.377840 
    0.581624     0.648793     0.583233 
    0.321241     0.497549     0.395980 
    0.689565     0.542630     0.618398 
    0.321141     0.595068     0.545233 
    0.429690     0.355873     0.607009 
    0.327002     0.441962     0.540316 
    0.537226     0.359958     0.698328 
    0.667084     0.554314     0.375478 
    0.445954     0.609976     0.628338 
    0.431743     0.407854     0.360650 
    0.639882     0.336899     0.426435 
    0.673248     0.598329     0.479661 
    0.378255     0.376901     0.461670 
EA6996 15.803 14.923 14.062 90.00 90.00 90.00 Sym.group:    0
1.0
   15.803334     0.000000     0.000000
    0.000000    14.922824     0.000000
    0.000000     0.000000    14.061503
   W   B
  16   8
Direct
    0.514450     0.331694     0.490016 
    0.398805     0.345106     0.619835 
    0.376203     0.617619     0.637017 
    0.544485     0.579382     0.660986 
    0.618217     0.595601     0.504696 
    0.540580     0.626345     0.345524 
    0.575546     0.458716     0.364585 
    0.427248     0.374734     0.346043 
    0.467149     0.499159     0.501250 
    0.722559     0.473360     0.464936 
    0.323896     0.332572     0.471190 
    0.549381     0.400965     0.661725 
    0.322619     0.489717     0.390215 
    0.679790     0.481100     0.646512 
    0.305903     0.480075     0.574037 
    0.465888     0.686988     0.509180 
    0.345792     0.605176     0.488718 
    0.576465     0.705243     0.596294 
    0.647119     0.356181     0.438294 
    0.428444     0.485259     0.665405 
    0.448036     0.524573     0.321679 
    0.670101     0.566931     0.360340 
    0.645870     0.372604     0.552445 
    0.405451     0.610904     0.389075 
EA7275 15.672 15.924 14.862 90.00 90.00 90.00 Sym.group:    0
1.0
   15.671846     0.000000     0.000000
    0.000000    15.923544     0.000000
    0.000000     0.000000    14.862373
   W   B
  17   8
Direct
    0.499542     0.499662     0.499926 
    0.637954     0.637424     0.447924 
    0.498217     0.702923     0.397540 
    0.423749     0.679727     0.542821 
    0.578397     0.691911     0.592341 
    0.659569     0.401145     0.490113 
    0.425736     0.354824     0.431366 
    0.385413     0.586013     0.394877 
    0.487680     0.584386     0.668911 
    0.514895     0.343316     0.578961 
    0.564309     0.407544     0.349580 
    0.573446     0.275725     0.437104 
    0.348744     0.320858     0.576487 
    0.639670     0.544838     0.599991 
    0.314669     0.464943     0.512332 
    0.540944     0.566200     0.327473 
    0.407553     0.445400     0.655313 
    0.658743     0.504538     0.385808 
    0.714228     0.527621     0.476283 
    0.549945     0.457186     0.674726 
    0.341756     0.456314     0.372037 
    0.354817     0.566190     0.610897 
    0.631955     0.409704     0.630620 
    0.436242     0.468456     0.328057 
    0.311828     0.603153     0.518512 
EA7571 15.546 16.043 14.401 90.00 90.00 90.00 Sym.group:    0
1.0
   15.546352     0.000000     0.000000
    0.000000    16.042506     0.000000
    0.000000     0.000000    14.401004
   W   B
  19   6
Direct
    0.503354     0.496867     0.502085 
    0.640979     0.357183     0.465000 
    0.496762     0.300971     0.411603 
    0.407236     0.327303     0.540086 
    0.564152     0.302420     0.605321 
    0.667432     0.587921     0.511020 
    0.444079     0.642390     0.422690 
    0.386956     0.425957     0.383747 
    0.470049     0.413106     0.671829 
    0.518673     0.655009     0.585811 
    0.589043     0.585397     0.353256 
    0.593665     0.716358     0.447465 
    0.358075     0.687634     0.564287 
    0.630263     0.448012     0.619600 
    0.320278     0.543771     0.497927 
    0.553859     0.432866     0.330808 
    0.395767     0.558539     0.653076 
    0.450515     0.540307     0.256786 
    0.319082     0.560249     0.320941 
    0.672731     0.483745     0.404255 
    0.720380     0.461872     0.504330 
    0.533425     0.540173     0.685768 
    0.337675     0.441460     0.605143 
    0.624580     0.581958     0.652474 
    0.300991     0.408532     0.504689 
EA8021 16.632 14.318 14.498 90.00 90.00 90.00 Sym.group:    0
1.0
   16.632072     0.000000     0.000000
    0.000000    14.317907     0.000000
    0.000000     0.000000    14.498352
   W   B
  16   6
Direct
    0.502349     0.643231     0.585208 
    0.562571     0.486583     0.352786 
    0.662765     0.595640     0.593792 
    0.518981     0.650227     0.385972 
    0.689242     0.557856     0.431119 
    0.250341     0.489980     0.482218 
    0.336390     0.600888     0.576824 
    0.453065     0.495477     0.491463 
    0.426232     0.524886     0.683775 
    0.569590     0.452667     0.622199 
    0.347373     0.363051     0.461249 
    0.449846     0.347132     0.603055 
    0.528635     0.332592     0.458084 
    0.348614     0.546224     0.373715 
    0.429268     0.404954     0.323089 
    0.643855     0.316403     0.563282 
    0.572744     0.554674     0.491047 
    0.412196     0.653163     0.466463 
    0.692795     0.452390     0.538366 
    0.651634     0.407572     0.439410 
    0.345189     0.447230     0.589112 
    0.606324     0.677183     0.487771 
EA8352 16.607 14.471 14.573 90.00 90.00 90.00 Sym.group:    0
1.0
   16.607465     0.000000     0.000000
    0.000000    14.470872     0.000000
    0.000000     0.000000    14.572549
   W   B
  16   6
Direct
    0.499739     0.359104     0.593061 
    0.660558     0.413008     0.598183 
    0.517665     0.368900     0.388609 
    0.679731     0.443144     0.418053 
    0.246552     0.509829     0.489549 
    0.335548     0.405075     0.583941 
    0.451502     0.501252     0.496649 
    0.428450     0.486312     0.684185 
    0.569446     0.550505     0.617726 
    0.345357     0.628001     0.446127 
    0.444823     0.661082     0.586723 
    0.524871     0.659670     0.446340 
    0.341167     0.441245     0.382154 
    0.437606     0.556104     0.325232 
    0.642768     0.681940     0.545203 
    0.734477     0.548556     0.532487 
    0.572652     0.448295     0.498668 
    0.412761     0.347358     0.474103 
    0.644433     0.585968     0.426810 
    0.344468     0.558694     0.584970 
    0.603606     0.328542     0.489351 
    0.561820     0.517415     0.391875 
EA8681 17.401 14.269 14.460 90.00 90.00 90.00 Sym.group:    0
1.0
   17.400848     0.000000     0.000000
    0.000000    14.269048     0.000000
    0.000000     0.000000    14.460081
   W   B
  16   6
Direct
    0.493875     0.360145     0.595828 
    0.651119     0.403852     0.599171 
    0.512465     0.369892     0.389727 
    0.669778     0.435215     0.418174 
    0.258903     0.519415     0.480084 
    0.336384     0.409749     0.580335 
    0.453423     0.504231     0.498654 
    0.423055     0.490700     0.685137 
    0.568539     0.548919     0.621083 
    0.357434     0.634826     0.441509 
    0.450801     0.662268     0.589433 
    0.530046     0.660125     0.448951 
    0.351760     0.444563     0.377053 
    0.446562     0.556235     0.322567 
    0.643677     0.677833     0.548938 
    0.726003     0.538936     0.532975 
    0.567724     0.446527     0.501016 
    0.412355     0.348834     0.475713 
    0.642804     0.582385     0.426742 
    0.349147     0.565367     0.581483 
    0.592631     0.323417     0.491558 
    0.561514     0.516568     0.393867 
EA8986 15.389 14.519 14.393 90.00 90.00 90.00 Sym.group:    0
1.0
   15.389448     0.000000     0.000000
    0.000000    14.519412     0.000000
    0.000000     0.000000    14.393329
   W   B
  16   7
Direct
    0.393857     0.520341     0.613496 
    0.393879     0.396337     0.456604 
    0.397150     0.592280     0.427780 
    0.537481     0.500468     0.501408 
    0.571975     0.321682     0.501386 
    0.580276     0.586049     0.346261 
    0.577463     0.587117     0.654438 
    0.455859     0.342085     0.628377 
    0.460709     0.471893     0.296884 
    0.464496     0.689712     0.573990 
    0.631296     0.423929     0.348480 
    0.635501     0.663053     0.513192 
    0.626979     0.402039     0.640901 
    0.298807     0.381513     0.593456 
    0.304117     0.483348     0.341054 
    0.304062     0.648966     0.558755 
    0.288729     0.505259     0.498471 
    0.508005     0.462524     0.687315 
    0.509374     0.359958     0.373734 
    0.515487     0.677436     0.439388 
    0.681876     0.523919     0.563291 
    0.679308     0.427130     0.496720 
    0.683315     0.532959     0.444621 
EA9308 15.312 14.584 14.860 90.00 90.00 90.00 Sym.group:    0
1.0
   15.312450     0.000000     0.000000
    0.000000    14.583579     0.000000
    0.000000     0.000000    14.859609
   W   B
  16   7
Direct
    0.396382     0.392284     0.533233 
    0.399539     0.523894     0.387300 
    0.393197     0.584980     0.576012 
    0.536935     0.502284     0.498479 
    0.574674     0.470839     0.325761 
    0.571647     0.666050     0.565704 
    0.570979     0.365984     0.608565 
    0.459062     0.350277     0.367870 
    0.459362     0.691470     0.440862 
    0.455895     0.456132     0.699502 
    0.636379     0.518824     0.658849 
    0.627001     0.350146     0.426442 
    0.299549     0.388073     0.398119 
    0.303617     0.646349     0.448890 
    0.304269     0.463951     0.650097 
    0.709935     0.587812     0.529772 
    0.294013     0.501996     0.495981 
    0.509224     0.303707     0.494042 
    0.521758     0.605043     0.348321 
    0.507610     0.588337     0.667774 
    0.677868     0.440630     0.534880 
    0.679843     0.491171     0.428208 
    0.611260     0.609766     0.415334 
EA9352 16.793 15.974 15.277 90.00 90.00 90.00 Sym.group:    0
1.0
   16.793242     0.000000     0.000000
    0.000000    15.973715     0.000000
    0.000000     0.000000    15.277143
   W   B
  19  10
Direct
    0.652845     0.573159     0.413607 
    0.668739     0.539200     0.576260 
    0.548501     0.447970     0.374379 
    0.663229     0.334504     0.425908 
    0.575737     0.397101     0.540693 
    0.727471     0.387206     0.577844 
    0.391246     0.403634     0.356439 
    0.390141     0.464755     0.694638 
    0.421997     0.652310     0.434599 
    0.484890     0.312448     0.435873 
    0.419890     0.614510     0.600661 
    0.310026     0.548090     0.359359 
    0.270821     0.444620     0.466471 
    0.512308     0.734710     0.547223 
    0.429315     0.484967     0.500720 
    0.447456     0.343382     0.610749 
    0.527499     0.499367     0.655087 
    0.568988     0.710802     0.410598 
    0.288522     0.612163     0.495556 
    0.527048     0.583039     0.381656 
    0.711380     0.459963     0.462990 
    0.641841     0.424384     0.665774 
    0.314526     0.512268     0.589307 
    0.368451     0.347812     0.493952 
    0.560061     0.624801     0.610757 
    0.335034     0.404723     0.581016 
    0.442789     0.532723     0.352038 
    0.620398     0.658062     0.526459 
    0.678855     0.447327     0.359387 
EA9700 17.010 15.744 14.480 90.00 90.00 90.00 Sym.group:    0
1.0
   17.010472     0.000000     0.000000
    0.000000    15.743522     0.000000
    0.000000     0.000000    14.479578
   W   B
  19  10
Direct
    0.650380     0.401691     0.424970 
    0.664111     0.463673     0.590767 
    0.557207     0.528473     0.371913 
    0.674933     0.644545     0.401790 
    0.580137     0.608382     0.525992 
    0.732760     0.607770     0.567582 
    0.403493     0.581219     0.331689 
    0.386696     0.567190     0.694025 
    0.419818     0.343516     0.455187 
    0.488902     0.684360     0.407434 
    0.413457     0.408646     0.622706 
    0.316919     0.444029     0.355150 
    0.272862     0.559715     0.448635 
    0.499264     0.274069     0.591791 
    0.430951     0.523441     0.499183 
    0.448399     0.677843     0.581414 
    0.523694     0.526989     0.663218 
    0.558448     0.267740     0.447977 
    0.288829     0.397032     0.507814 
    0.527776     0.391943     0.384745 
    0.708078     0.520769     0.459512 
    0.642929     0.590713     0.661641 
    0.310484     0.510838     0.588705 
    0.368884     0.656122     0.460486 
    0.550876     0.393241     0.636461 
    0.335936     0.615939     0.563324 
    0.448650     0.448600     0.351986 
    0.610274     0.340618     0.556809 
    0.684852     0.520891     0.347089 
EA10328 16.258 14.637 13.899 90.00 90.00 90.00 Sym.group:    0
1.0
   16.258423     0.000000     0.000000
    0.000000    14.637086     0.000000
    0.000000     0.000000    13.898988
   W   B
  16   6
Direct
    0.462967     0.673784     0.582414 
    0.350641     0.342104     0.488583 
    0.524230     0.554721     0.685640 
    0.406003     0.425587     0.341951 
    0.407635     0.688552     0.413818 
    0.318271     0.610655     0.525623 
    0.447834     0.510410     0.489116 
    0.462822     0.402888     0.632679 
    0.500691     0.324642     0.454151 
    0.300955     0.453798     0.603883 
    0.602800     0.476801     0.545990 
    0.649997     0.321667     0.451929 
    0.558497     0.632905     0.428549 
    0.586445     0.454658     0.363136 
    0.698920     0.587983     0.395224 
    0.652674     0.643139     0.566706 
    0.349141     0.560319     0.377431 
    0.305098     0.478941     0.447069 
    0.396787     0.544265     0.650213 
    0.710356     0.451306     0.442800 
    0.730070     0.532030     0.531232 
    0.577166     0.328843     0.581864 
EA10389 16.163 15.642 14.393 90.00 90.00 90.00 Sym.group:    0
1.0
   16.163042     0.000000     0.000000
    0.000000    15.642012     0.000000
    0.000000     0.000000    14.392546
   W   B
  18  10
Direct
    0.378827     0.413813     0.660650 
    0.446945     0.466030     0.509512 
    0.330337     0.468113     0.382164 
    0.336392     0.570711     0.632277 
    0.480304     0.608401     0.413374 
    0.647312     0.654096     0.437914 
    0.728995     0.457839     0.582101 
    0.582960     0.545017     0.577061 
    0.540695     0.713387     0.536811 
    0.473095     0.450282     0.313018 
    0.598902     0.381335     0.499797 
    0.625909     0.354404     0.337276 
    0.726093     0.612133     0.574865 
    0.464013     0.320166     0.405566 
    0.616110     0.507035     0.369712 
    0.332968     0.332049     0.508328 
    0.376166     0.687031     0.514931 
    0.463478     0.298236     0.581839 
    0.394228     0.564142     0.303203 
    0.731353     0.535091     0.454407 
    0.622362     0.423400     0.654033 
    0.518867     0.426313     0.652301 
    0.300441     0.469413     0.538725 
    0.463350     0.523902     0.663340 
    0.300383     0.568480     0.484998 
    0.462752     0.610062     0.592701 
    0.717294     0.427831     0.431838 
    0.339466     0.611292     0.387254 
EA10953 17.143 15.050 14.410 90.00 90.00 90.00 Sym.group:    0
1.0
   17.142770     0.000000     0.000000
    0.000000    15.050406     0.000000
    0.000000     0.000000    14.409707
   W   B
  18   6
Direct
    0.529312     0.349662     0.641294 
    0.381939     0.698770     0.530982 
    0.292874     0.556982     0.560790 
    0.336889     0.613566     0.403474 
    0.405477     0.425592     0.568139 
    0.512465     0.656646     0.604727 
    0.357789     0.337084     0.427991 
    0.262947     0.396170     0.543161 
    0.515247     0.511605     0.681765 
    0.431553     0.477542     0.375057 
    0.658525     0.414080     0.422756 
    0.650227     0.425600     0.629640 
    0.542410     0.495755     0.502227 
    0.718782     0.566393     0.383691 
    0.589192     0.553677     0.323578 
    0.634148     0.655691     0.479869 
    0.506367     0.330004     0.446605 
    0.490687     0.643379     0.421218 
    0.309303     0.473914     0.434111 
    0.408278     0.573140     0.613898 
    0.550906     0.420044     0.344610 
    0.679067     0.525329     0.521384 
    0.622119     0.572583     0.608267 
    0.613497     0.326794     0.530765 
EA11317 17.151 14.861 14.346 90.00 90.00 90.00 Sym.group:    0
1.0
   17.151223     0.000000     0.000000
    0.000000    14.860886     0.000000
    0.000000     0.000000    14.345606
   W   B
  18   6
Direct
    0.477717     0.346609     0.645788 
    0.620881     0.699829     0.526555 
    0.709353     0.556826     0.546217 
    0.656989     0.617144     0.393503 
    0.595561     0.424778     0.563621 
    0.491290     0.657265     0.602189 
    0.641016     0.336864     0.414107 
    0.736384     0.392876     0.526529 
    0.492474     0.509713     0.684848 
    0.562979     0.477978     0.368783 
    0.337690     0.412837     0.431918 
    0.355700     0.425572     0.638060 
    0.457208     0.497029     0.503123 
    0.275493     0.566228     0.396440 
    0.403338     0.553641     0.329452 
    0.363628     0.658324     0.490011 
    0.495239     0.327672     0.450200 
    0.505500     0.647617     0.419589 
    0.687101     0.474473     0.421475 
    0.596798     0.573785     0.612118 
    0.443925     0.418317     0.350807 
    0.320857     0.524949     0.531658 
    0.382103     0.572906     0.615940 
    0.390775     0.326771     0.537066 
EA11352 17.353 14.955 14.341 90.00 90.00 90.00 Sym.group:    0
1.0
   17.353471     0.000000     0.000000
    0.000000    14.955346     0.000000
    0.000000     0.000000    14.341353
   W   B
  19  10
Direct
    0.579183     0.334058     0.616117 
    0.341841     0.359264     0.543134 
    0.263692     0.487627     0.444107 
    0.491598     0.338269     0.459823 
    0.357139     0.363538     0.378687 
    0.354148     0.611423     0.660212 
    0.269649     0.627066     0.527873 
    0.505773     0.545913     0.656706 
    0.386771     0.455474     0.694599 
    0.407102     0.508084     0.497042 
    0.637555     0.300499     0.474793 
    0.578695     0.492582     0.507904 
    0.608404     0.541309     0.339863 
    0.718532     0.422534     0.559597 
    0.458304     0.618067     0.365754 
    0.479892     0.458566     0.329908 
    0.701712     0.589896     0.597716 
    0.642335     0.477121     0.692854 
    0.470037     0.663662     0.539722 
    0.468027     0.402103     0.594693 
    0.358474     0.514779     0.342071 
    0.292167     0.495114     0.595424 
    0.336849     0.610699     0.402582 
    0.679622     0.429811     0.409305 
    0.708261     0.529235     0.454735 
    0.652749     0.620032     0.461922 
    0.592755     0.394519     0.366517 
    0.591940     0.652424     0.552625 
    0.566796     0.656334     0.433713 
EA11906 16.242 15.417 14.754 90.00 90.00 90.00 Sym.group:    0
1.0
   16.241570     0.000000     0.000000
    0.000000    15.417142     0.000000
    0.000000     0.000000    14.754002
   W   B
  17   8
Direct
    0.518315     0.486964     0.481276 
    0.442505     0.345976     0.411341 
    0.664478     0.376508     0.527314 
    0.649426     0.715598     0.572280 
    0.418764     0.363099     0.580441 
    0.641190     0.460197     0.670183 
    0.655708     0.471597     0.387048 
    0.414085     0.486055     0.309399 
    0.323104     0.599979     0.377053 
    0.337166     0.475473     0.474166 
    0.418991     0.639430     0.511289 
    0.554161     0.552726     0.290781 
    0.397334     0.527676     0.640785 
    0.679288     0.557580     0.540114 
    0.551162     0.595520     0.630615 
    0.257083     0.546868     0.591100 
    0.575343     0.647426     0.437711 
    0.538710     0.416633     0.330658 
    0.579272     0.352434     0.411672 
    0.299115     0.424532     0.617965 
    0.555642     0.363107     0.612530 
    0.522972     0.719475     0.554498 
    0.508343     0.450265     0.656052 
    0.457041     0.605135     0.373696 
    0.540801     0.319746     0.510036 
EA12034 17.018 14.978 14.404 90.00 90.00 90.00 Sym.group:    0
1.0
   17.017557     0.000000     0.000000
    0.000000    14.978154     0.000000
    0.000000     0.000000    14.403965
   W   B
  20   9
Direct
    0.422577     0.324257     0.568537 
    0.662987     0.350710     0.469664 
    0.742350     0.490188     0.415400 
    0.515061     0.364530     0.388259 
    0.644373     0.413799     0.312981 
    0.672415     0.524741     0.692157 
    0.733626     0.595184     0.554064 
    0.510816     0.472652     0.659369 
    0.635208     0.374097     0.651573 
    0.602241     0.507853     0.505991 
    0.362552     0.324719     0.414989 
    0.435200     0.478379     0.495675 
    0.372571     0.593570     0.374385 
    0.277105     0.407832     0.534068 
    0.506237     0.646878     0.464463 
    0.519806     0.524396     0.325139 
    0.353120     0.443332     0.669120 
    0.569242     0.630300     0.646485 
    0.418748     0.619394     0.604375 
    0.646024     0.603561     0.363499 
    0.541170     0.374242     0.540134 
    0.720764     0.446470     0.569158 
    0.631378     0.660207     0.507112 
    0.316971     0.461052     0.397128 
    0.275856     0.538895     0.465740 
    0.313821     0.634657     0.509884 
    0.403782     0.450062     0.338511 
    0.387683     0.698281     0.480857 
    0.306317     0.545764     0.581283 
EA12361 17.099 14.836 14.592 90.00 90.00 90.00 Sym.group:    0
1.0
   17.099110     0.000000     0.000000
    0.000000    14.836092     0.000000
    0.000000     0.000000    14.591503
   W   B
  20   9
Direct
    0.572233     0.364717     0.361953 
    0.341028     0.346580     0.479235 
    0.262228     0.460496     0.587914 
    0.488623     0.337005     0.549806 
    0.367472     0.356860     0.647326 
    0.319182     0.580303     0.341674 
    0.268698     0.607257     0.500205 
    0.485302     0.532051     0.343152 
    0.358678     0.428725     0.324091 
    0.402828     0.509586     0.504181 
    0.637250     0.305912     0.502044 
    0.573364     0.486241     0.491758 
    0.630413     0.540353     0.652145 
    0.717837     0.421456     0.424108 
    0.499893     0.629173     0.585092 
    0.487042     0.465320     0.669102 
    0.636244     0.506187     0.310747 
    0.426671     0.672827     0.420380 
    0.578191     0.656808     0.439653 
    0.359147     0.556075     0.668332 
    0.458888     0.398705     0.416845 
    0.277021     0.470549     0.433652 
    0.373874     0.657070     0.559273 
    0.684293     0.422262     0.576379 
    0.714882     0.519771     0.533541 
    0.679880     0.623961     0.533510 
    0.597674     0.394132     0.623458 
    0.614891     0.679768     0.589317 
    0.686273     0.569851     0.431126 
EA12701 16.828 14.878 15.235 90.00 90.00 90.00 Sym.group:    0
1.0
   16.827569     0.000000     0.000000
    0.000000    14.877899     0.000000
    0.000000     0.000000    15.235015
   W   B
  19  10
Direct
    0.772897     0.497554     0.452604 
    0.663107     0.576033     0.371792 
    0.543660     0.437809     0.364293 
    0.747614     0.542471     0.606678 
    0.658763     0.640417     0.529995 
    0.713806     0.370932     0.530676 
    0.605443     0.481185     0.511292 
    0.523160     0.444032     0.650056 
    0.501397     0.333421     0.503126 
    0.333315     0.631142     0.430587 
    0.403533     0.525326     0.331944 
    0.281713     0.425327     0.605593 
    0.391605     0.525274     0.664506 
    0.350758     0.322243     0.496932 
    0.253260     0.486894     0.458423 
    0.415056     0.484300     0.500139 
    0.431303     0.727931     0.357642 
    0.514022     0.614904     0.596273 
    0.517985     0.613073     0.411947 
    0.675464     0.422312     0.387459 
    0.621197     0.339538     0.433700 
    0.621553     0.546424     0.650799 
    0.661990     0.440638     0.647698 
    0.428467     0.375928     0.384022 
    0.334465     0.408445     0.383914 
    0.383256     0.638861     0.566592 
    0.304930     0.567367     0.561649 
    0.409790     0.374903     0.615261 
    0.436492     0.705320     0.494407 
EA13057 16.952 14.834 14.633 90.00 90.00 90.00 Sym.group:    0
1.0
   16.951517     0.000000     0.000000
    0.000000    14.833652     0.000000
    0.000000     0.000000    14.633099
   W   B
  20   9
Direct
    0.427303     0.649474     0.379856 
    0.659155     0.656465     0.501068 
    0.740627     0.529516     0.592410 
    0.508096     0.655185     0.568651 
    0.628624     0.624165     0.663461 
    0.682484     0.441240     0.335440 
    0.733724     0.396677     0.487557 
    0.516932     0.488281     0.342267 
    0.643051     0.595037     0.336044 
    0.598661     0.492348     0.505515 
    0.359043     0.689678     0.525648 
    0.425204     0.513092     0.492211 
    0.366467     0.439920     0.644348 
    0.280515     0.585737     0.433130 
    0.500849     0.362877     0.568418 
    0.511341     0.511495     0.672102 
    0.365286     0.515251     0.308579 
    0.576036     0.338805     0.404135 
    0.422693     0.352019     0.419216 
    0.645996     0.425334     0.661839 
    0.541770     0.611768     0.430507 
    0.724350     0.540343     0.439163 
    0.628617     0.339088     0.543292 
    0.311934     0.565192     0.584566 
    0.282784     0.473881     0.527839 
    0.320005     0.371640     0.515058 
    0.399974     0.587835     0.634241 
    0.385445     0.309410     0.563410 
    0.313033     0.438247     0.420031 
EA13546 17.545 14.801 14.358 90.00 90.00 90.00 Sym.group:    0
1.0
   17.545061     0.000000     0.000000
    0.000000    14.801140     0.000000
    0.000000     0.000000    14.357934
   W   B
  19   7
Direct
    0.381702     0.685769     0.585407 
    0.227304     0.542811     0.436796 
    0.340740     0.636421     0.426987 
    0.283736     0.408029     0.533752 
    0.407211     0.506717     0.540251 
    0.479679     0.368297     0.427154 
    0.457678     0.539604     0.368981 
    0.408845     0.336366     0.587875 
    0.333450     0.446525     0.371453 
    0.620586     0.641451     0.630540 
    0.506254     0.661133     0.492976 
    0.569445     0.499717     0.504397 
    0.592934     0.456927     0.327780 
    0.717405     0.542337     0.534939 
    0.621846     0.482250     0.669241 
    0.555661     0.326470     0.576455 
    0.717989     0.427908     0.412072 
    0.491870     0.591161     0.663530 
    0.273395     0.579139     0.589185 
    0.362538     0.323918     0.452050 
    0.665770     0.558848     0.394943 
    0.609972     0.359266     0.444632 
    0.577746     0.600985     0.375713 
    0.664728     0.396862     0.544738 
    0.498310     0.442638     0.635836 
    0.633203     0.638453     0.472317 
EA13888 17.848 14.866 13.956 90.00 90.00 90.00 Sym.group:    0
1.0
   17.847530     0.000000     0.000000
    0.000000    14.866315     0.000000
    0.000000     0.000000    13.955711
   W   B
  19   7
Direct
    0.621987     0.691456     0.550936 
    0.766382     0.516926     0.423936 
    0.657053     0.612009     0.398763 
    0.709041     0.404334     0.549362 
    0.592192     0.508127     0.540842 
    0.514986     0.354626     0.454078 
    0.540895     0.510351     0.360607 
    0.584259     0.350088     0.621395 
    0.658037     0.414204     0.379613 
    0.389002     0.669748     0.600744 
    0.500462     0.658388     0.462548 
    0.433716     0.505494     0.506418 
    0.407202     0.430903     0.334715 
    0.289038     0.560491     0.524358 
    0.379114     0.523621     0.674233 
    0.439186     0.348769     0.614924 
    0.284409     0.424302     0.425628 
    0.512459     0.617415     0.649076 
    0.725951     0.580673     0.571569 
    0.628795     0.310258     0.486451 
    0.339398     0.546219     0.380940 
    0.387700     0.359133     0.474278 
    0.427626     0.579355     0.354804 
    0.335427     0.417733     0.566777 
    0.501183     0.468456     0.651169 
    0.374496     0.636922     0.441837 
EA14091 17.250 15.212 14.077 90.00 90.00 90.00 Sym.group:    0
1.0
   17.250075     0.000000     0.000000
    0.000000    15.212218     0.000000
    0.000000     0.000000    14.077141
   W   B
  18  10
Direct
    0.523065     0.349881     0.620918 
    0.458906     0.348914     0.456193 
    0.274864     0.524225     0.399285 
    0.412031     0.513556     0.486668 
    0.397495     0.665273     0.588702 
    0.477242     0.511556     0.659566 
    0.376032     0.389226     0.613245 
    0.663191     0.359727     0.561892 
    0.254322     0.459700     0.553364 
    0.629935     0.659293     0.513431 
    0.492607     0.652642     0.443030 
    0.500538     0.504593     0.331383 
    0.648617     0.485691     0.294539 
    0.720218     0.578586     0.407857 
    0.605060     0.359005     0.385175 
    0.707815     0.520001     0.573768 
    0.565812     0.488670     0.498736 
    0.345331     0.669398     0.419280 
    0.604401     0.463255     0.657929 
    0.333116     0.394662     0.451553 
    0.380273     0.436259     0.356435 
    0.341972     0.540318     0.630799 
    0.295332     0.594155     0.538974 
    0.573085     0.279569     0.500067 
    0.524909     0.641338     0.607454 
    0.597775     0.598119     0.369820 
    0.598218     0.572582     0.642810 
    0.697842     0.439805     0.437129 
EA14420 16.702 14.666 14.379 90.00 90.00 90.00 Sym.group:    0
1.0
   16.702410     0.000000     0.000000
    0.000000    14.665855     0.000000
    0.000000     0.000000    14.378802
   W   B
  18  10
Direct
    0.489700     0.682522     0.511373 
    0.327889     0.517207     0.360291 
    0.406826     0.654876     0.359590 
    0.330089     0.503239     0.646026 
    0.300972     0.381206     0.497086 
    0.418166     0.523014     0.509074 
    0.360848     0.339199     0.643497 
    0.320429     0.664309     0.492145 
    0.501118     0.590323     0.665540 
    0.493885     0.415751     0.648183 
    0.651793     0.535879     0.669726 
    0.576094     0.494734     0.509748 
    0.725432     0.589153     0.529278 
    0.657647     0.530622     0.372445 
    0.488228     0.493841     0.333064 
    0.514474     0.327153     0.378192 
    0.575252     0.312134     0.529534 
    0.717595     0.425239     0.526762 
    0.390636     0.644276     0.615368 
    0.437037     0.352975     0.512857 
    0.400621     0.396460     0.403753 
    0.277126     0.523845     0.506996 
    0.616497     0.652054     0.461734 
    0.547462     0.615880     0.384543 
    0.598827     0.413262     0.308861 
    0.629783     0.397346     0.635038 
    0.641094     0.378452     0.409102 
    0.604475     0.645050     0.580194 
EA14794 16.394 15.135 14.342 90.00 90.00 90.00 Sym.group:    0
1.0
   16.394148     0.000000     0.000000
    0.000000    15.135490     0.000000
    0.000000     0.000000    14.342004
   W   B
  18   9
Direct
    0.347541     0.437664     0.344223 
    0.476588     0.355232     0.582295 
    0.414663     0.491794     0.509895 
    0.338408     0.644102     0.529762 
    0.502498     0.503148     0.693687 
    0.367663     0.432185     0.684139 
    0.504328     0.637703     0.577131 
    0.617444     0.394788     0.656850 
    0.656738     0.323862     0.508387 
    0.650403     0.565628     0.639154 
    0.535848     0.347875     0.407495 
    0.710969     0.583335     0.468876 
    0.707329     0.430353     0.395920 
    0.572364     0.659241     0.419025 
    0.574271     0.489503     0.494862 
    0.647787     0.708265     0.561942 
    0.257165     0.495426     0.460389 
    0.481651     0.524521     0.338620 
    0.405733     0.338421     0.442025 
    0.352386     0.577710     0.389635 
    0.388878     0.573264     0.648242 
    0.711485     0.455778     0.548898 
    0.624979     0.547335     0.349356 
    0.438029     0.630273     0.433562 
    0.592373     0.446993     0.323392 
    0.301556     0.529508     0.606485 
    0.320921     0.376094     0.485754 
EA15388 15.544 14.574 14.235 90.00 90.00 90.00 Sym.group:    0
1.0
   15.543839     0.000000     0.000000
    0.000000    14.574437     0.000000
    0.000000     0.000000    14.235180
   W   B
  16   6
Direct
    0.654910     0.616179     0.506022 
    0.584864     0.345733     0.516711 
    0.590536     0.564937     0.348344 
    0.454635     0.638645     0.324358 
    0.705495     0.472335     0.579139 
    0.702794     0.445970     0.421223 
    0.448125     0.458988     0.317213 
    0.291414     0.462109     0.620257 
    0.400509     0.704426     0.471712 
    0.491743     0.519852     0.501313 
    0.442761     0.478804     0.680777 
    0.345736     0.348836     0.373167 
    0.335331     0.507351     0.450515 
    0.400877     0.363988     0.543132 
    0.369272     0.614150     0.606489 
    0.523265     0.682132     0.593607 
    0.537312     0.676911     0.441722 
    0.566255     0.417312     0.386499 
    0.482970     0.340641     0.410272 
    0.585845     0.551538     0.627993 
    0.508961     0.351265     0.644590 
    0.576392     0.437901     0.634944 
EA15565 16.838 14.449 14.038 90.00 90.00 90.00 Sym.group:    0
1.0
   16.837716     0.000000     0.000000
    0.000000    14.449119     0.000000
    0.000000     0.000000    14.038116
   W   B
  19   7
Direct
    0.336146     0.542411     0.345631 
    0.274223     0.461088     0.514396 
    0.492136     0.572616     0.330254 
    0.422368     0.502542     0.491615 
    0.489929     0.400851     0.349216 
    0.335596     0.366498     0.389487 
    0.478695     0.330560     0.512722 
    0.328711     0.299492     0.552912 
    0.389256     0.417747     0.655974 
    0.633902     0.350273     0.399806 
    0.662145     0.537161     0.676348 
    0.579419     0.489441     0.507469 
    0.698648     0.609418     0.521493 
    0.623366     0.305805     0.566907 
    0.527635     0.662895     0.479215 
    0.486470     0.583182     0.650126 
    0.329327     0.574119     0.644188 
    0.548533     0.419231     0.674980 
    0.722624     0.434781     0.544903 
    0.402216     0.653307     0.423380 
    0.321307     0.611919     0.487234 
    0.623657     0.592319     0.389283 
    0.602535     0.487556     0.334625 
    0.406119     0.654532     0.544472 
    0.686986     0.494585     0.404076 
    0.598053     0.645671     0.609288 
EA16052 16.027 14.075 14.480 90.00 90.00 90.00 Sym.group:    0
1.0
   16.027076     0.000000     0.000000
    0.000000    14.074633     0.000000
    0.000000     0.000000    14.479732
   W   B
  17   6
Direct
    0.695693     0.488941     0.458274 
    0.469491     0.617097     0.375342 
    0.534761     0.507042     0.500860 
    0.588577     0.465578     0.320843 
    0.504828     0.336297     0.433666 
    0.655908     0.324001     0.392669 
    0.633842     0.364616     0.559479 
    0.472223     0.357371     0.610249 
    0.366919     0.450201     0.464601 
    0.314241     0.624338     0.478612 
    0.549099     0.477678     0.711310 
    0.413002     0.532829     0.625961 
    0.337569     0.548535     0.325725 
    0.456177     0.687126     0.532756 
    0.679961     0.516566     0.645224 
    0.658301     0.647115     0.530199 
    0.317348     0.380038     0.631265 
    0.567635     0.700141     0.443634 
    0.376698     0.304860     0.517439 
    0.277418     0.504960     0.570005 
    0.457733     0.457261     0.350264 
    0.612496     0.602064     0.391229 
    0.560080     0.605342     0.630392 
EA16112 16.864 15.347 14.082 90.00 90.00 90.00 Sym.group:    0
1.0
   16.863946     0.000000     0.000000
    0.000000    15.346657     0.000000
    0.000000     0.000000    14.081532
   W   B
  18  10
Direct
    0.497569     0.366805     0.436302 
    0.664488     0.454520     0.621798 
    0.606418     0.297009     0.574618 
    0.681543     0.526148     0.345812 
    0.680727     0.623901     0.515596 
    0.578822     0.505960     0.484818 
    0.615379     0.659027     0.357898 
    0.672608     0.362506     0.444616 
    0.516069     0.535206     0.323929 
    0.510069     0.653835     0.506647 
    0.371918     0.596985     0.337443 
    0.410693     0.510471     0.496890 
    0.280312     0.477471     0.367170 
    0.366169     0.358886     0.565278 
    0.506878     0.400640     0.629189 
    0.512007     0.566783     0.663176 
    0.373008     0.619288     0.631567 
    0.268717     0.577965     0.498416 
    0.592769     0.419706     0.343415 
    0.598156     0.669162     0.621243 
    0.644759     0.586635     0.667829 
    0.721737     0.488513     0.490329 
    0.365759     0.383234     0.415608 
    0.470092     0.278417     0.564840 
    0.397287     0.476237     0.662806 
    0.377054     0.657818     0.477810 
    0.309834     0.491388     0.609571 
    0.409160     0.455487     0.345388 
EA16581 16.593 15.098 14.607 90.00 90.00 90.00 Sym.group:    0
1.0
   16.593136     0.000000     0.000000
    0.000000    15.098015     0.000000
    0.000000     0.000000    14.606788
   W   B
  20   6
Direct
    0.530176     0.647032     0.473149 
    0.633440     0.562075     0.365925 
    0.679565     0.696011     0.461379 
    0.478990     0.492457     0.336422 
    0.497807     0.338022     0.458124 
    0.412251     0.499681     0.487270 
    0.285935     0.572078     0.388142 
    0.333504     0.345674     0.527036 
    0.264474     0.538989     0.552978 
    0.367697     0.664419     0.533165 
    0.411011     0.647905     0.366517 
    0.367296     0.366578     0.370523 
    0.461876     0.557749     0.648429 
    0.481788     0.721033     0.628673 
    0.461115     0.375806     0.630976 
    0.579929     0.460953     0.695905 
    0.610743     0.329594     0.600309 
    0.572942     0.483473     0.517280 
    0.717267     0.552337     0.516017 
    0.616472     0.639847     0.612907 
    0.685110     0.440143     0.415544 
    0.590399     0.417211     0.372228 
    0.631298     0.349735     0.451620 
    0.273955     0.443015     0.442954 
    0.354212     0.460253     0.626813 
    0.700747     0.397929     0.519717 
EA16803 16.829 15.164 14.014 90.00 90.00 90.00 Sym.group:    0
1.0
   16.829037     0.000000     0.000000
    0.000000    15.163750     0.000000
    0.000000     0.000000    14.013795
   W   B
  18  10
Direct
    0.497081     0.365749     0.570261 
    0.664843     0.456714     0.381521 
    0.608032     0.290957     0.437639 
    0.679545     0.531681     0.657281 
    0.679505     0.625695     0.484845 
    0.578280     0.503435     0.519152 
    0.609787     0.665413     0.641093 
    0.673432     0.363685     0.563893 
    0.511278     0.540413     0.676372 
    0.510762     0.655655     0.490964 
    0.367203     0.600553     0.656929 
    0.410475     0.509587     0.500883 
    0.276041     0.481006     0.622735 
    0.369146     0.352232     0.433133 
    0.509640     0.394164     0.376724 
    0.516111     0.563047     0.337371 
    0.376880     0.615786     0.360750 
    0.268679     0.580746     0.489604 
    0.591075     0.422656     0.664488 
    0.598875     0.672281     0.375649 
    0.649129     0.589927     0.330579 
    0.721788     0.490307     0.513448 
    0.363026     0.382918     0.582523 
    0.473016     0.270791     0.443737 
    0.402223     0.471564     0.334588 
    0.376718     0.659693     0.514736 
    0.313069     0.486831     0.384311 
    0.404360     0.456514     0.654792 
EA17334 16.751 14.525 14.049 90.00 90.00 90.00 Sym.group:    0
1.0
   16.751042     0.000000     0.000000
    0.000000    14.524891     0.000000
    0.000000     0.000000    14.048652
   W   B
  16   9
Direct
    0.494463     0.658207     0.411443 
    0.310707     0.349838     0.480078 
    0.404902     0.492043     0.519362 
    0.351979     0.612981     0.649179 
    0.445486     0.331955     0.416926 
    0.365988     0.689796     0.499844 
    0.274139     0.558611     0.469756 
    0.480258     0.489582     0.342072 
    0.325967     0.451868     0.345915 
    0.496880     0.634748     0.606450 
    0.637918     0.616000     0.353237 
    0.720719     0.525832     0.460839 
    0.565342     0.486176     0.677949 
    0.632751     0.680129     0.513773 
    0.564661     0.515065     0.491925 
    0.549585     0.348636     0.561783 
    0.455567     0.401253     0.657979 
    0.417951     0.336583     0.570166 
    0.379335     0.589264     0.377946 
    0.571226     0.374782     0.398972 
    0.633411     0.459264     0.361509 
    0.436511     0.511405     0.688751 
    0.666612     0.553655     0.599374 
    0.663140     0.437089     0.578953 
    0.654504     0.395236     0.465815 
EA17684 16.680 14.439 14.157 90.00 90.00 90.00 Sym.group:    0
1.0
   16.679618     0.000000     0.000000
    0.000000    14.438530     0.000000
    0.000000     0.000000    14.156629
   W   B
  16   9
Direct
    0.502560     0.649429     0.398753 
    0.692711     0.351828     0.493665 
    0.596707     0.498278     0.517065 
    0.649582     0.632428     0.631015 
    0.557769     0.323613     0.434841 
    0.633650     0.692978     0.474563 
    0.725970     0.559751     0.455569 
    0.516765     0.473990     0.345722 
    0.673585     0.437422     0.349833 
    0.502799     0.647425     0.590791 
    0.359287     0.599757     0.349418 
    0.276734     0.516103     0.459903 
    0.436101     0.505002     0.678145 
    0.363870     0.676930     0.506815 
    0.433420     0.511393     0.493864 
    0.453394     0.353506     0.578741 
    0.547091     0.420509     0.664969 
    0.585964     0.347790     0.585092 
    0.617914     0.578776     0.365617 
    0.430409     0.363069     0.415289 
    0.367186     0.442826     0.368816 
    0.565463     0.534141     0.682436 
    0.328103     0.556721     0.594511 
    0.337083     0.438830     0.586362 
    0.345882     0.387504     0.478202 
EA17844 17.224 14.582 13.933 90.00 90.00 90.00 Sym.group:    0
1.0
   17.223992     0.000000     0.000000
    0.000000    14.582076     0.000000
    0.000000     0.000000    13.933362
   W   B
  18   9
Direct
    0.358415     0.464313     0.343699 
    0.473726     0.311099     0.536838 
    0.429465     0.489854     0.504113 
    0.523094     0.452582     0.674443 
    0.354839     0.394820     0.623603 
    0.477137     0.624405     0.626270 
    0.616403     0.328197     0.597614 
    0.587245     0.338423     0.413510 
    0.718085     0.554205     0.491232 
    0.675594     0.455559     0.346136 
    0.578807     0.495518     0.510544 
    0.314828     0.568580     0.605936 
    0.519789     0.492867     0.330831 
    0.409447     0.621877     0.350839 
    0.348441     0.324801     0.453287 
    0.605926     0.673559     0.517051 
    0.617720     0.594821     0.673924 
    0.702079     0.453853     0.637262 
    0.319999     0.573606     0.450042 
    0.691920     0.399071     0.489436 
    0.621485     0.586747     0.379121 
    0.475081     0.680277     0.475287 
    0.533139     0.628470     0.395142 
    0.457098     0.367194     0.385596 
    0.408328     0.513026     0.689831 
    0.383932     0.648971     0.505706 
    0.297976     0.463306     0.492710 
EA18380 15.963 14.956 15.542 90.00 90.00 90.00 Sym.group:    0
1.0
   15.963060     0.000000     0.000000
    0.000000    14.956192     0.000000
    0.000000     0.000000    15.542201
   W   B
  18   6
Direct
    0.512306     0.645113     0.430707 
    0.646195     0.529127     0.350965 
    0.488075     0.508464     0.341610 
    0.318113     0.461570     0.382643 
    0.270696     0.596135     0.496505 
    0.459852     0.363885     0.431984 
    0.403339     0.502678     0.511439 
    0.353536     0.323047     0.557983 
    0.235426     0.443473     0.511476 
    0.477574     0.641211     0.596055 
    0.730753     0.541089     0.521517 
    0.609872     0.524814     0.662440 
    0.569409     0.500462     0.505363 
    0.629754     0.664448     0.577765 
    0.696864     0.404637     0.588344 
    0.597606     0.311367     0.492427 
    0.501441     0.368218     0.605419 
    0.336424     0.444373     0.643919 
    0.390582     0.664188     0.485135 
    0.590381     0.402499     0.382673 
    0.377235     0.600509     0.392866 
    0.682030     0.421585     0.441051 
    0.649649     0.630842     0.443766 
    0.472888     0.506264     0.645946 
EA18707 16.945 14.502 14.432 90.00 90.00 90.00 Sym.group:    0
1.0
   16.944986     0.000000     0.000000
    0.000000    14.502458     0.000000
    0.000000     0.000000    14.432128
   W   B
  16   9
Direct
    0.480660     0.635752     0.629661 
    0.555478     0.362167     0.486404 
    0.487064     0.412674     0.645884 
    0.364981     0.524436     0.686380 
    0.279061     0.507561     0.503047 
    0.340684     0.648586     0.564922 
    0.431252     0.501295     0.507433 
    0.544848     0.499581     0.373216 
    0.482059     0.663616     0.448412 
    0.428877     0.596854     0.299832 
    0.723364     0.463949     0.543481 
    0.583599     0.530631     0.568076 
    0.597971     0.716201     0.547528 
    0.348111     0.472308     0.348427 
    0.332542     0.380280     0.615373 
    0.690151     0.308237     0.514860 
    0.430982     0.336746     0.523769 
    0.350315     0.614964     0.417124 
    0.348842     0.372186     0.467054 
    0.670572     0.531597     0.426861 
    0.685527     0.617098     0.511300 
    0.607210     0.622831     0.429498 
    0.627786     0.388485     0.618742 
    0.438699     0.375545     0.408715 
    0.669367     0.416416     0.413998 
EA19122 15.425 15.926 14.475 90.00 90.00 90.00 Sym.group:    0
1.0
   15.425393     0.000000     0.000000
    0.000000    15.926412     0.000000
    0.000000     0.000000    14.474779
   W   B
  17   6
Direct
    0.549936     0.571048     0.624465 
    0.691880     0.612413     0.509524 
    0.530449     0.647849     0.473111 
    0.534620     0.514189     0.336028 
    0.375565     0.584924     0.372896 
    0.700489     0.518597     0.646452 
    0.309901     0.571854     0.528095 
    0.424032     0.675163     0.615057 
    0.457146     0.349607     0.398985 
    0.380653     0.449976     0.288261 
    0.466731     0.484709     0.488458 
    0.309650     0.428817     0.436427 
    0.559642     0.264083     0.514409 
    0.617174     0.386336     0.420460 
    0.426438     0.331435     0.574012 
    0.591927     0.399964     0.597589 
    0.320855     0.437256     0.620322 
    0.671047     0.515049     0.405022 
    0.689429     0.473701     0.508949 
    0.391647     0.683664     0.477189 
    0.405524     0.542802     0.641630 
    0.464694     0.449357     0.647912 
    0.630573     0.607207     0.374748 
EA19356 16.633 14.860 14.971 90.00 90.00 90.00 Sym.group:    0
1.0
   16.633304     0.000000     0.000000
    0.000000    14.859924     0.000000
    0.000000     0.000000    14.970547
   W   B
  16   9
Direct
    0.490228     0.376693     0.374454 
    0.546498     0.651132     0.511243 
    0.480078     0.572874     0.361606 
    0.631857     0.637309     0.383219 
    0.358330     0.460177     0.328385 
    0.269892     0.493362     0.471644 
    0.352159     0.340264     0.440706 
    0.422151     0.614885     0.624941 
    0.550093     0.500880     0.615316 
    0.473777     0.349527     0.551105 
    0.638291     0.362960     0.594151 
    0.600992     0.480974     0.452403 
    0.690682     0.561621     0.612862 
    0.597198     0.287139     0.460523 
    0.296486     0.525571     0.627950 
    0.423017     0.503593     0.494962 
    0.415314     0.659420     0.474250 
    0.345181     0.398522     0.579382 
    0.682014     0.655313     0.511155 
    0.729211     0.458759     0.523900 
    0.697296     0.372520     0.466737 
    0.718448     0.559010     0.471001 
    0.326934     0.619784     0.517602 
    0.416808     0.458929     0.643116 
    0.347062     0.598782     0.407390 
EA19682 15.919 15.919 15.919 90.00 90.00 90.00 Sym.group:    0
1.0
   15.918837     0.000000     0.000000
    0.000000    15.918837     0.000000
    0.000000     0.000000    15.918837
   W   B
  17   8
Direct
    0.500083     0.499242     0.500088 
    0.573915     0.368511     0.568520 
    0.416208     0.633764     0.444251 
    0.583548     0.632156     0.556010 
    0.426131     0.368088     0.431420 
    0.421075     0.599716     0.605709 
    0.451060     0.508889     0.334576 
    0.579019     0.599873     0.394104 
    0.329020     0.492006     0.492322 
    0.415670     0.399935     0.601552 
    0.548812     0.509383     0.665274 
    0.584121     0.400011     0.398618 
    0.671142     0.492247     0.508057 
    0.402125     0.486457     0.737464 
    0.292371     0.512203     0.650979 
    0.707663     0.512146     0.348813 
    0.597778     0.486416     0.262688 
    0.325780     0.551736     0.367473 
    0.538002     0.287094     0.463456 
    0.674363     0.551531     0.632571 
    0.473409     0.713001     0.545604 
    0.670054     0.447773     0.637506 
    0.462181     0.287084     0.536469 
    0.329961     0.447690     0.362264 
    0.526508     0.713047     0.454211 
EA19845 14.850 16.394 15.375 90.00 90.00 90.00 Sym.group:    0
1.0
   14.849840     0.000000     0.000000
    0.000000    16.393804     0.000000
    0.000000     0.000000    15.375349
   W   B
  20   7
Direct
    0.416279     0.504598     0.500133 
    0.287309     0.564606     0.607923 
    0.488128     0.394228     0.618677 
    0.244866     0.551133     0.434742 
    0.369561     0.659519     0.492919 
    0.396819     0.680889     0.651834 
    0.364741     0.337956     0.517712 
    0.437193     0.532286     0.676496 
    0.536015     0.271881     0.525950 
    0.623328     0.493259     0.656770 
    0.535612     0.624854     0.573026 
    0.517909     0.618141     0.393752 
    0.358049     0.580747     0.335799 
    0.719834     0.597322     0.541030 
    0.335644     0.420191     0.380509 
    0.500027     0.363291     0.402597 
    0.620560     0.485332     0.329167 
    0.585931     0.488547     0.496151 
    0.668375     0.365914     0.434084 
    0.754246     0.451634     0.561638 
    0.338367     0.436181     0.615476 
    0.275361     0.446623     0.522767 
    0.629852     0.371930     0.574590 
    0.668778     0.592932     0.403981 
    0.628213     0.670321     0.463078 
    0.472712     0.488778     0.356344 
    0.726285     0.506907     0.432856 
EA20262 17.016 14.637 14.158 90.00 90.00 90.00 Sym.group:    0
1.0
   17.015654     0.000000     0.000000
    0.000000    14.636845     0.000000
    0.000000     0.000000    14.158198
   W   B
  16  10
Direct
    0.670136     0.381922     0.594634 
    0.585245     0.499620     0.502159 
    0.640064     0.490874     0.332173 
    0.647035     0.643258     0.397683 
    0.730836     0.552372     0.504809 
    0.519569     0.604960     0.635324 
    0.667095     0.527577     0.668824 
    0.521960     0.429764     0.671238 
    0.489595     0.564925     0.364210 
    0.501313     0.394887     0.366767 
    0.425825     0.491857     0.523316 
    0.273596     0.546708     0.477886 
    0.360901     0.427362     0.348675 
    0.350455     0.614340     0.608125 
    0.386807     0.351802     0.622706 
    0.520064     0.327898     0.537522 
    0.700452     0.419708     0.449360 
    0.549890     0.658797     0.493912 
    0.452951     0.662227     0.520265 
    0.631900     0.638178     0.561008 
    0.359096     0.569067     0.366182 
    0.397378     0.340012     0.465547 
    0.313840     0.403796     0.495489 
    0.308147     0.467532     0.599750 
    0.376150     0.636418     0.456738 
    0.619704     0.354139     0.435696 
EA20518 17.086 14.385 14.302 90.00 90.00 90.00 Sym.group:    0
1.0
   17.086104     0.000000     0.000000
    0.000000    14.384688     0.000000
    0.000000     0.000000    14.301520
   W   B
  18  10
Direct
    0.504704     0.669585     0.490977 
    0.394139     0.662196     0.606837 
    0.537998     0.592228     0.648138 
    0.271542     0.597239     0.543554 
    0.411804     0.506230     0.508002 
    0.357925     0.505358     0.315152 
    0.349463     0.654688     0.416294 
    0.274782     0.445684     0.437572 
    0.352229     0.330917     0.538201 
    0.666986     0.435030     0.641392 
    0.499612     0.447293     0.340905 
    0.579375     0.499012     0.498887 
    0.664443     0.494055     0.347874 
    0.731064     0.552781     0.494269 
    0.729275     0.377523     0.500875 
    0.626074     0.335140     0.386182 
    0.491288     0.324871     0.473905 
    0.507385     0.402354     0.632892 
    0.629461     0.648817     0.540407 
    0.559597     0.587773     0.360512 
    0.428306     0.522587     0.676175 
    0.458972     0.588569     0.369368 
    0.301159     0.462798     0.592561 
    0.379020     0.424784     0.650461 
    0.632096     0.632049     0.425214 
    0.666060     0.581391     0.623632 
    0.608361     0.339240     0.544456 
    0.386878     0.379806     0.395306 
EA20883 16.856 15.508 14.190 90.00 90.00 90.00 Sym.group:    0
1.0
   16.856378     0.000000     0.000000
    0.000000    15.508333     0.000000
    0.000000     0.000000    14.190327
   W   B
  20   7
Direct
    0.366847     0.435411     0.348313 
    0.357805     0.324046     0.608869 
    0.431442     0.309841     0.457714 
    0.420802     0.472111     0.535033 
    0.286039     0.468641     0.596546 
    0.326176     0.607611     0.461233 
    0.451165     0.562185     0.375540 
    0.371815     0.718228     0.571556 
    0.493054     0.624671     0.564438 
    0.581859     0.491761     0.487437 
    0.642828     0.429780     0.657295 
    0.726628     0.405187     0.511043 
    0.598895     0.323790     0.485731 
    0.509482     0.358137     0.622254 
    0.651250     0.665168     0.542789 
    0.520775     0.399245     0.346266 
    0.680664     0.397325     0.347150 
    0.713669     0.558864     0.424697 
    0.562626     0.671391     0.409586 
    0.611226     0.539540     0.308237 
    0.314241     0.376451     0.476516 
    0.274132     0.471597     0.449128 
    0.357463     0.587187     0.612124 
    0.430199     0.699092     0.440479 
    0.602190     0.565874     0.636538 
    0.691686     0.539475     0.583150 
    0.525044     0.497392     0.640339 
EA21351 15.312 16.813 14.535 90.00 90.00 90.00 Sym.group:    0
1.0
   15.311907     0.000000     0.000000
    0.000000    16.813487     0.000000
    0.000000     0.000000    14.535376
   W   B
  16   9
Direct
    0.493099     0.500554     0.320086 
    0.520803     0.632467     0.404411 
    0.334399     0.570511     0.377899 
    0.489967     0.363960     0.407970 
    0.446020     0.508061     0.496313 
    0.357349     0.359690     0.507995 
    0.370996     0.572543     0.644153 
    0.246682     0.581352     0.516256 
    0.391408     0.665618     0.523844 
    0.653122     0.338244     0.452707 
    0.612767     0.493268     0.472002 
    0.679687     0.637192     0.487560 
    0.706267     0.418452     0.581223 
    0.524817     0.379043     0.576162 
    0.545058     0.608339     0.594792 
    0.647841     0.575807     0.333330 
    0.399202     0.434882     0.629520 
    0.369502     0.439378     0.377160 
    0.290374     0.468025     0.453412 
    0.309544     0.470382     0.574041 
    0.486253     0.489985     0.656660 
    0.749317     0.533877     0.523739 
    0.674543     0.549321     0.607119 
    0.595001     0.487357     0.639872 
    0.605985     0.421690     0.341774 
EA21563 17.332 14.481 14.204 90.00 90.00 90.00 Sym.group:    0
1.0
   17.332430     0.000000     0.000000
    0.000000    14.481067     0.000000
    0.000000     0.000000    14.204281
   W   B
  20   7
Direct
    0.503540     0.461401     0.342289 
    0.297947     0.463441     0.599893 
    0.417755     0.504125     0.504334 
    0.364895     0.667544     0.402708 
    0.260575     0.576229     0.466112 
    0.350879     0.311472     0.520471 
    0.363878     0.513126     0.324054 
    0.495807     0.343849     0.492537 
    0.409723     0.372299     0.663557 
    0.654211     0.487576     0.325244 
    0.722462     0.387360     0.443346 
    0.514995     0.624892     0.407749 
    0.510056     0.615976     0.610611 
    0.547550     0.439810     0.646187 
    0.593732     0.506106     0.494036 
    0.733033     0.552949     0.491303 
    0.649625     0.682867     0.544247 
    0.340403     0.639499     0.592971 
    0.655191     0.572523     0.665412 
    0.628918     0.311422     0.547196 
    0.393258     0.381889     0.394852 
    0.308645     0.431530     0.438296 
    0.600144     0.367975     0.402285 
    0.413137     0.522477     0.668355 
    0.682326     0.442136     0.594077 
    0.649089     0.622538     0.400174 
    0.438227     0.696991     0.517703 
EA21925 17.418 14.809 14.225 90.00 90.00 90.00 Sym.group:    0
1.0
   17.418189     0.000000     0.000000
    0.000000    14.809480     0.000000
    0.000000     0.000000    14.225286
   W   B
  20   7
Direct
    0.491655     0.453196     0.339386 
    0.698712     0.458006     0.599490 
    0.579955     0.503491     0.499178 
    0.639092     0.656852     0.391210 
    0.738417     0.564563     0.461455 
    0.639447     0.310267     0.521817 
    0.636422     0.504387     0.321534 
    0.498643     0.349624     0.498625 
    0.591386     0.376413     0.668587 
    0.345578     0.495673     0.330147 
    0.273904     0.404931     0.452536 
    0.489672     0.616109     0.394034 
    0.492665     0.612656     0.608392 
    0.451437     0.441568     0.650976 
    0.409762     0.508787     0.496561 
    0.273153     0.566864     0.498320 
    0.364326     0.685948     0.545837 
    0.661344     0.630962     0.584931 
    0.348920     0.577343     0.669083 
    0.364335     0.322033     0.551911 
    0.601565     0.379829     0.395304 
    0.687616     0.424306     0.440320 
    0.393273     0.374088     0.405829 
    0.586200     0.523106     0.665148 
    0.318352     0.451582     0.600797 
    0.360422     0.626991     0.402024 
    0.563747     0.680426     0.506571 
EA22295 16.431 14.882 14.336 90.00 90.00 90.00 Sym.group:    0
1.0
   16.431056     0.000000     0.000000
    0.000000    14.882072     0.000000
    0.000000     0.000000    14.335783
   W   B
  20   6
Direct
    0.326555     0.644541     0.541540 
    0.439149     0.675813     0.434190 
    0.577693     0.490566     0.512678 
    0.713110     0.479786     0.594772 
    0.604548     0.360102     0.630989 
    0.617286     0.540797     0.703605 
    0.625483     0.324212     0.454281 
    0.491497     0.535913     0.338708 
    0.417989     0.495517     0.497507 
    0.471214     0.463086     0.665017 
    0.329630     0.365375     0.600569 
    0.476551     0.317532     0.545875 
    0.480736     0.370699     0.380228 
    0.329546     0.336665     0.442437 
    0.268434     0.497204     0.478483 
    0.332557     0.594405     0.350813 
    0.508006     0.636627     0.589414 
    0.718866     0.445948     0.406033 
    0.659613     0.654577     0.596739 
    0.643669     0.569416     0.331407 
    0.598186     0.432737     0.347191 
    0.398591     0.584116     0.652320 
    0.326852     0.510398     0.624897 
    0.363542     0.455285     0.351904 
    0.688970     0.582173     0.472314 
    0.591729     0.636509     0.456089 
EA22605 17.164 15.279 14.419 90.00 90.00 90.00 Sym.group:    0
1.0
   17.164070     0.000000     0.000000
    0.000000    15.279350     0.000000
    0.000000     0.000000    14.418602
   W   B
  20   7
Direct
    0.503967     0.574935     0.357559 
    0.308469     0.525716     0.597329 
    0.437972     0.508250     0.506853 
    0.393670     0.424917     0.360083 
    0.260422     0.503632     0.432753 
    0.386055     0.677228     0.591152 
    0.354814     0.583032     0.332057 
    0.527712     0.652236     0.538402 
    0.440266     0.556644     0.684515 
    0.331711     0.373509     0.512401 
    0.534384     0.419045     0.649841 
    0.599431     0.568845     0.674261 
    0.682949     0.654311     0.550377 
    0.589890     0.502526     0.506382 
    0.715063     0.416827     0.412933 
    0.650449     0.347760     0.538171 
    0.718444     0.500186     0.583015 
    0.439785     0.281202     0.437015 
    0.635527     0.510521     0.317300 
    0.547281     0.382120     0.387655 
    0.418836     0.655121     0.443499 
    0.328332     0.615566     0.476871 
    0.620724     0.624592     0.418756 
    0.398381     0.420972     0.640893 
    0.527975     0.316245     0.532217 
    0.706307     0.562185     0.438069 
    0.441185     0.341877     0.579641 
EA23198 16.622 14.095 15.351 90.00 90.00 90.00 Sym.group:    0
1.0
   16.622268     0.000000     0.000000
    0.000000    14.094956     0.000000
    0.000000     0.000000    15.350965
   W   B
  16   6
Direct
    0.357197     0.675642     0.549016 
    0.362267     0.392126     0.560883 
    0.460686     0.660763     0.430629 
    0.443699     0.504392     0.345853 
    0.307394     0.436711     0.408994 
    0.350347     0.545436     0.656371 
    0.634342     0.531724     0.635661 
    0.438028     0.346765     0.421137 
    0.727602     0.577871     0.523866 
    0.529664     0.491741     0.500135 
    0.609112     0.665674     0.485597 
    0.493041     0.627680     0.605731 
    0.677999     0.412168     0.494826 
    0.475749     0.455081     0.664716 
    0.580773     0.418164     0.350178 
    0.603601     0.356588     0.620585 
    0.561645     0.332130     0.472462 
    0.489601     0.336005     0.555790 
    0.561552     0.579325     0.369422 
    0.645773     0.536956     0.414825 
    0.342821     0.530055     0.515203 
    0.347108     0.587005     0.418123 
EA23212 16.669 15.313 14.574 90.00 90.00 90.00 Sym.group:    0
1.0
   16.669090     0.000000     0.000000
    0.000000    15.312989     0.000000
    0.000000     0.000000    14.574249
   W   B
  20   9
Direct
    0.408928     0.462401     0.676724 
    0.491614     0.475461     0.336550 
    0.417244     0.480861     0.492136 
    0.351995     0.562654     0.340320 
    0.287804     0.605229     0.487384 
    0.268733     0.438125     0.448000 
    0.496564     0.356168     0.589471 
    0.726630     0.576770     0.546394 
    0.591112     0.490258     0.504514 
    0.627017     0.297643     0.504359 
    0.660777     0.656764     0.418648 
    0.639944     0.406423     0.357592 
    0.506667     0.630014     0.431032 
    0.396631     0.707890     0.551481 
    0.634886     0.564200     0.674083 
    0.323464     0.346408     0.583083 
    0.398162     0.317715     0.450088 
    0.492524     0.598739     0.613769 
    0.654726     0.393807     0.634996 
    0.736055     0.405775     0.487108 
    0.356622     0.581825     0.612593 
    0.384314     0.679195     0.411376 
    0.300933     0.493481     0.584149 
    0.605710     0.547322     0.350579 
    0.700429     0.527041     0.393802 
    0.543443     0.462792     0.680757 
    0.524212     0.371615     0.437599 
    0.366216     0.421532     0.350708 
    0.606639     0.641893     0.550703 
EA23562 17.022 15.130 14.395 90.00 90.00 90.00 Sym.group:    0
1.0
   17.021532     0.000000     0.000000
    0.000000    15.129798     0.000000
    0.000000     0.000000    14.394934
   W   B
  20   9
Direct
    0.588177     0.427609     0.665751 
    0.510567     0.499395     0.334614 
    0.581811     0.477762     0.490489 
    0.645223     0.589245     0.357082 
    0.710943     0.596349     0.506387 
    0.728803     0.436740     0.436302 
    0.496125     0.339076     0.562664 
    0.276889     0.585793     0.553331 
    0.409895     0.491790     0.507405 
    0.368771     0.298554     0.472113 
    0.348797     0.675593     0.439186 
    0.359607     0.431628     0.345109 
    0.496931     0.637831     0.456611 
    0.614300     0.693024     0.599985 
    0.366864     0.544290     0.678847 
    0.672867     0.326406     0.545323 
    0.589651     0.327569     0.411041 
    0.509334     0.583253     0.632248 
    0.343824     0.372054     0.616038 
    0.265005     0.422550     0.474877 
    0.641702     0.554070     0.627461 
    0.615976     0.692325     0.454730 
    0.696427     0.468381     0.582741 
    0.398006     0.569724     0.358704 
    0.305108     0.548314     0.400948 
    0.455531     0.441092     0.663117 
    0.469920     0.383742     0.417965 
    0.634714     0.443526     0.337589 
    0.398231     0.642318     0.571336 
EA23910 17.765 14.576 14.605 90.00 90.00 90.00 Sym.group:    0
1.0
   17.765485     0.000000     0.000000
    0.000000    14.576420     0.000000
    0.000000     0.000000    14.605118
   W   B
  19  10
Direct
    0.307618     0.438762     0.623944 
    0.405847     0.498690     0.502188 
    0.353338     0.561188     0.345017 
    0.286800     0.606285     0.506482 
    0.253800     0.454735     0.460416 
    0.521579     0.648116     0.524247 
    0.464232     0.538203     0.664800 
    0.702614     0.492841     0.585685 
    0.598604     0.586206     0.363789 
    0.559768     0.479374     0.516284 
    0.491827     0.459599     0.345147 
    0.687015     0.456291     0.411105 
    0.356744     0.399451     0.356771 
    0.354819     0.319584     0.524002 
    0.457728     0.366765     0.625212 
    0.602266     0.400048     0.668060 
    0.602231     0.571111     0.688754 
    0.583797     0.331282     0.395398 
    0.729689     0.611451     0.454780 
    0.401567     0.645587     0.574707 
    0.468794     0.606638     0.389273 
    0.402349     0.653440     0.459202 
    0.346155     0.580396     0.637181 
    0.607624     0.444922     0.299630 
    0.554785     0.319280     0.542641 
    0.645992     0.357781     0.529367 
    0.644901     0.627522     0.564301 
    0.476905     0.356556     0.473329 
    0.630611     0.687893     0.468291 
EA24257 17.483 15.689 14.355 90.00 90.00 90.00 Sym.group:    0
1.0
   17.483399     0.000000     0.000000
    0.000000    15.688518     0.000000
    0.000000     0.000000    14.354673
   W   B
  20   9
Direct
    0.503831     0.571881     0.329168 
    0.491287     0.673976     0.465070 
    0.516417     0.400697     0.362241 
    0.377579     0.490016     0.328508 
    0.353775     0.635080     0.408421 
    0.428221     0.496678     0.488245 
    0.250254     0.464528     0.582498 
    0.292649     0.396263     0.438041 
    0.240048     0.539231     0.428310 
    0.373254     0.537964     0.664799 
    0.377388     0.386657     0.607242 
    0.601386     0.462927     0.680144 
    0.578916     0.510613     0.492616 
    0.653840     0.502968     0.338402 
    0.715221     0.591168     0.473987 
    0.622917     0.651973     0.363311 
    0.510974     0.600597     0.624698 
    0.526322     0.363976     0.565802 
    0.552492     0.262111     0.433444 
    0.419211     0.310327     0.446003 
    0.396077     0.638475     0.557697 
    0.311012     0.587524     0.543328 
    0.652381     0.398488     0.559564 
    0.627315     0.380026     0.443575 
    0.693595     0.494431     0.581547 
    0.610398     0.653222     0.529567 
    0.642713     0.583770     0.614605 
    0.701532     0.449138     0.472267 
    0.479000     0.465295     0.676899 
EA24637 14.886 16.281 15.353 90.00 90.00 90.00 Sym.group:    0
1.0
   14.886492     0.000000     0.000000
    0.000000    16.281443     0.000000
    0.000000     0.000000    15.353128
   W   B
  17  10
Direct
    0.676670     0.524220     0.352334 
    0.590477     0.505784     0.498926 
    0.598171     0.446174     0.653044 
    0.676284     0.600562     0.603963 
    0.637911     0.373324     0.385808 
    0.496837     0.580534     0.629383 
    0.531576     0.611726     0.383826 
    0.500704     0.454004     0.354595 
    0.518770     0.361695     0.514289 
    0.225940     0.539522     0.457936 
    0.405730     0.499749     0.504761 
    0.426274     0.419611     0.664775 
    0.263330     0.453634     0.592779 
    0.329843     0.468845     0.336483 
    0.355641     0.330571     0.551790 
    0.358264     0.611195     0.384606 
    0.308019     0.626119     0.558059 
    0.731193     0.444831     0.461692 
    0.670933     0.385711     0.534741 
    0.740881     0.546091     0.486264 
    0.667808     0.623938     0.460178 
    0.722200     0.473103     0.571965 
    0.571398     0.649888     0.518128 
    0.395387     0.377775     0.421414 
    0.289628     0.410444     0.458137 
    0.359822     0.536968     0.654193 
    0.450307     0.643981     0.505933 
EA24995 16.906 14.247 14.302 90.00 90.00 90.00 Sym.group:    0
1.0
   16.906211     0.000000     0.000000
    0.000000    14.246561     0.000000
    0.000000     0.000000    14.301661
   W   B
  17  10
Direct
    0.333433     0.509110     0.651588 
    0.421490     0.502483     0.501755 
    0.425062     0.435172     0.332409 
    0.341282     0.607687     0.384239 
    0.383724     0.349729     0.615154 
    0.493865     0.594652     0.366061 
    0.454609     0.623293     0.640242 
    0.502986     0.450321     0.654406 
    0.497165     0.343056     0.480474 
    0.739737     0.566886     0.545800 
    0.585902     0.501552     0.495570 
    0.576016     0.416953     0.321472 
    0.717187     0.473647     0.403422 
    0.652822     0.463261     0.679449 
    0.643215     0.317274     0.438470 
    0.606176     0.622057     0.633963 
    0.654157     0.658671     0.452700 
    0.299270     0.420653     0.526507 
    0.361947     0.361552     0.452614 
    0.284989     0.536878     0.504547 
    0.341558     0.628188     0.541928 
    0.311960     0.459317     0.412004 
    0.425795     0.667062     0.488707 
    0.603252     0.363446     0.580219 
    0.694358     0.411538     0.544998 
    0.621583     0.558987     0.342748 
    0.526457     0.656575     0.508554 
EA25561 16.495 14.988 14.008 90.00 90.00 90.00 Sym.group:    0
1.0
   16.494956     0.000000     0.000000
    0.000000    14.987892     0.000000
    0.000000     0.000000    14.008475
   W   B
  17   6
Direct
    0.312711     0.488838     0.679731 
    0.462104     0.504478     0.497913 
    0.385322     0.444681     0.348987 
    0.442740     0.567869     0.673554 
    0.399684     0.621154     0.380873 
    0.571976     0.626808     0.605868 
    0.550033     0.504386     0.331900 
    0.309555     0.429445     0.506195 
    0.634393     0.395001     0.433578 
    0.540411     0.309652     0.537458 
    0.712256     0.494391     0.555328 
    0.576749     0.450983     0.624354 
    0.419860     0.384726     0.630595 
    0.330444     0.600144     0.539899 
    0.453075     0.710970     0.536009 
    0.553814     0.657034     0.419019 
    0.693324     0.544060     0.371280 
    0.671043     0.624149     0.497783 
    0.597180     0.530457     0.485434 
    0.421540     0.348411     0.470680 
    0.670850     0.353807     0.575184 
    0.498728     0.372768     0.395714 
    0.292205     0.535788     0.402662 
EA25889 16.495 14.988 14.008 90.00 90.00 90.00 Sym.group:    0
1.0
   16.494956     0.000000     0.000000
    0.000000    14.987892     0.000000
    0.000000     0.000000    14.008475
   W   B
  17   6
Direct
    0.309623     0.485351     0.681110 
    0.464420     0.497693     0.500078 
    0.372606     0.452415     0.342827 
    0.440404     0.571541     0.670907 
    0.412763     0.609795     0.378407 
    0.573023     0.628829     0.598446 
    0.553870     0.518214     0.338933 
    0.302870     0.440408     0.510866 
    0.650557     0.394808     0.437951 
    0.535590     0.318015     0.529669 
    0.715159     0.511193     0.554326 
    0.581549     0.458881     0.627324 
    0.501181     0.365298     0.355924 
    0.418986     0.384956     0.633345 
    0.331085     0.602152     0.545825 
    0.689961     0.339441     0.588370 
    0.673453     0.655538     0.470463 
    0.597820     0.532169     0.482752 
    0.408613     0.356380     0.472388 
    0.682939     0.533892     0.398045 
    0.535870     0.638825     0.445472 
    0.457454     0.653460     0.528919 
    0.290203     0.550746     0.407652 
EA25970 16.538 14.978 13.847 90.00 90.00 90.00 Sym.group:    0
1.0
   16.537577     0.000000     0.000000
    0.000000    14.978473     0.000000
    0.000000     0.000000    13.846593
   W   B
  18  10
Direct
    0.573642     0.500150     0.490815 
    0.474695     0.439177     0.333910 
    0.697633     0.551782     0.348210 
    0.663403     0.588603     0.635835 
    0.645339     0.667079     0.472464 
    0.553300     0.592042     0.328393 
    0.644331     0.327967     0.571573 
    0.566713     0.328414     0.423399 
    0.402150     0.321935     0.445603 
    0.390584     0.582550     0.338215 
    0.476247     0.656364     0.482532 
    0.345939     0.474635     0.673636 
    0.413260     0.492647     0.507454 
    0.506672     0.557331     0.659275 
    0.367848     0.631151     0.631232 
    0.562315     0.708794     0.621075 
    0.499525     0.371638     0.601552 
    0.273858     0.401521     0.501021 
    0.616733     0.444715     0.344174 
    0.696743     0.456984     0.575146 
    0.718661     0.538222     0.495601 
    0.610178     0.451019     0.649398 
    0.685688     0.421116     0.447595 
    0.339495     0.444211     0.370703 
    0.280229     0.543370     0.551421 
    0.336274     0.624133     0.478863 
    0.367799     0.351555     0.593791 
    0.290750     0.530896     0.427110 
EA26397 16.964 14.602 14.423 90.00 90.00 90.00 Sym.group:    0
1.0
   16.963898     0.000000     0.000000
    0.000000    14.601507     0.000000
    0.000000     0.000000    14.422801
   W   B
  16  10
Direct
    0.323273     0.654061     0.570964 
    0.426185     0.524507     0.483891 
    0.392835     0.329871     0.450661 
    0.521963     0.322809     0.543343 
    0.474657     0.611145     0.639164 
    0.646368     0.520248     0.683667 
    0.651222     0.365390     0.630397 
    0.504340     0.447829     0.672830 
    0.348382     0.517840     0.650056 
    0.565302     0.666833     0.481643 
    0.461195     0.671660     0.362812 
    0.577868     0.501869     0.526062 
    0.731192     0.460171     0.515545 
    0.575314     0.571176     0.331313 
    0.519881     0.403778     0.379379 
    0.710989     0.616144     0.557364 
    0.292214     0.528516     0.506017 
    0.315993     0.449066     0.424869 
    0.406656     0.382825     0.591267 
    0.628854     0.364964     0.461978 
    0.322049     0.418121     0.537142 
    0.450891     0.528178     0.323876 
    0.435487     0.679751     0.511859 
    0.676245     0.567804     0.423505 
    0.392034     0.440325     0.350544 
    0.648609     0.455120     0.389852 
EA26889 16.512 14.138 14.475 90.00 90.00 90.00 Sym.group:    0
1.0
   16.512487     0.000000     0.000000
    0.000000    14.138086     0.000000
    0.000000     0.000000    14.475155
   W   B
  18   6
Direct
    0.427162     0.669438     0.589954 
    0.663671     0.562044     0.631531 
    0.599331     0.506223     0.493570 
    0.637795     0.372691     0.638427 
    0.735236     0.416450     0.534659 
    0.508920     0.516130     0.658881 
    0.669193     0.418255     0.358333 
    0.510519     0.671591     0.443507 
    0.652636     0.600094     0.356329 
    0.295420     0.610865     0.523799 
    0.361165     0.344646     0.466677 
    0.368961     0.609318     0.372900 
    0.379464     0.431988     0.324196 
    0.438359     0.504199     0.492850 
    0.523339     0.538826     0.315228 
    0.525722     0.370587     0.376924 
    0.505209     0.341006     0.553859 
    0.393520     0.390255     0.657215 
    0.560517     0.650772     0.588891 
    0.312667     0.458810     0.557247 
    0.301476     0.482580     0.440741 
    0.630406     0.337252     0.486030 
    0.366832     0.536237     0.632070 
    0.632480     0.659742     0.506183 
EA27079 16.306 15.033 14.225 90.00 90.00 90.00 Sym.group:    0
1.0
   16.305705     0.000000     0.000000
    0.000000    15.033476     0.000000
    0.000000     0.000000    14.224900
   W   B
  16  10
Direct
    0.520933     0.441216     0.341977 
    0.577139     0.493204     0.498155 
    0.619671     0.325089     0.426702 
    0.712193     0.413781     0.537898 
    0.529444     0.588380     0.630517 
    0.493929     0.627275     0.402740 
    0.636347     0.595989     0.344039 
    0.418187     0.495050     0.493268 
    0.387441     0.661268     0.550523 
    0.312432     0.594695     0.416334 
    0.477728     0.331962     0.491594 
    0.323999     0.411113     0.623890 
    0.632796     0.450914     0.681049 
    0.477514     0.423555     0.652794 
    0.366568     0.407544     0.348525 
    0.636995     0.667082     0.497475 
    0.706939     0.541636     0.464704 
    0.411112     0.538316     0.330541 
    0.514081     0.707382     0.535801 
    0.302338     0.542533     0.569706 
    0.283053     0.461897     0.477598 
    0.390319     0.544827     0.644701 
    0.587173     0.352932     0.580452 
    0.335955     0.362801     0.486721 
    0.669057     0.459394     0.384714 
    0.676653     0.560164     0.587580 
EA27356 16.739 15.633 14.268 90.00 90.00 90.00 Sym.group:    0
1.0
   16.739379     0.000000     0.000000
    0.000000    15.632930     0.000000
    0.000000     0.000000    14.268434
   W   B
  20   7
Direct
    0.504028     0.604813     0.387177 
    0.571191     0.658039     0.565688 
    0.577458     0.496108     0.504746 
    0.660702     0.636598     0.423701 
    0.721927     0.558379     0.550963 
    0.638095     0.381107     0.372746 
    0.504901     0.443278     0.318841 
    0.644886     0.418598     0.649820 
    0.400278     0.641990     0.612207 
    0.498369     0.524902     0.666412 
    0.270707     0.567385     0.585488 
    0.346678     0.385066     0.400984 
    0.351779     0.464963     0.670069 
    0.363063     0.325470     0.565245 
    0.418287     0.491305     0.503672 
    0.499811     0.365489     0.622915 
    0.496572     0.338889     0.446014 
    0.374082     0.526997     0.315163 
    0.470634     0.736614     0.478102 
    0.352523     0.640345     0.445369 
    0.627285     0.553985     0.651293 
    0.699516     0.499499     0.416294 
    0.697706     0.420712     0.504938 
    0.617301     0.520251     0.346435 
    0.614766     0.350525     0.523000 
    0.289410     0.511074     0.441870 
    0.288050     0.437618     0.530849 
EA27889 16.357 14.421 14.576 90.00 90.00 90.00 Sym.group:    0
1.0
   16.356757     0.000000     0.000000
    0.000000    14.420652     0.000000
    0.000000     0.000000    14.575988
   W   B
  17   7
Direct
    0.414705     0.334171     0.604033 
    0.662804     0.426847     0.634985 
    0.605115     0.491328     0.480354 
    0.652190     0.589298     0.664709 
    0.743989     0.550049     0.540787 
    0.510439     0.498092     0.658176 
    0.647802     0.589153     0.340579 
    0.483432     0.328188     0.443730 
    0.310257     0.394479     0.509893 
    0.443991     0.495077     0.494449 
    0.512772     0.472360     0.323489 
    0.514287     0.645189     0.387429 
    0.521894     0.653170     0.561806 
    0.629856     0.307040     0.495559 
    0.367283     0.421067     0.345137 
    0.378348     0.664084     0.482152 
    0.662834     0.676479     0.482760 
    0.539757     0.374393     0.577635 
    0.317782     0.544847     0.552410 
    0.315124     0.534928     0.435497 
    0.393256     0.568671     0.362882 
    0.603405     0.376501     0.374467 
    0.399679     0.588724     0.615414 
    0.368995     0.475867     0.631664 
EA28025 16.798 15.818 14.323 90.00 90.00 90.00 Sym.group:    0
1.0
   16.798216     0.000000     0.000000
    0.000000    15.817620     0.000000
    0.000000     0.000000    14.323350
   W   B
  20   7
Direct
    0.511544     0.612070     0.398497 
    0.564386     0.651871     0.583715 
    0.576219     0.496700     0.508709 
    0.664542     0.642483     0.451377 
    0.715106     0.557196     0.576731 
    0.646905     0.393561     0.376204 
    0.518780     0.458380     0.314087 
    0.635368     0.411690     0.653365 
    0.390795     0.630936     0.615502 
    0.486045     0.511428     0.665198 
    0.264739     0.557215     0.569959 
    0.356834     0.392670     0.377561 
    0.340132     0.449513     0.651317 
    0.361782     0.320205     0.539716 
    0.418674     0.489925     0.496147 
    0.492862     0.357361     0.610638 
    0.500608     0.345901     0.431057 
    0.388187     0.538878     0.309856 
    0.469807     0.735428     0.497163 
    0.356945     0.640486     0.446260 
    0.613753     0.543596     0.665217 
    0.704304     0.507803     0.435506 
    0.696850     0.423920     0.515491 
    0.627762     0.532210     0.359828 
    0.613549     0.352624     0.520233 
    0.294882     0.513002     0.424875 
    0.288641     0.432955     0.505790 
EA28337 16.124 15.626 14.286 90.00 90.00 90.00 Sym.group:    0
1.0
   16.124376     0.000000     0.000000
    0.000000    15.625916     0.000000
    0.000000     0.000000    14.285838
   W   B
  19   8
Direct
    0.508147     0.611584     0.602353 
    0.437460     0.661583     0.440930 
    0.421618     0.498560     0.497156 
    0.336012     0.638973     0.580226 
    0.276085     0.563893     0.447883 
    0.358916     0.386164     0.628189 
    0.503363     0.452912     0.680903 
    0.354137     0.424976     0.349950 
    0.510095     0.531497     0.338512 
    0.665550     0.578206     0.401638 
    0.658652     0.385963     0.617897 
    0.638460     0.310353     0.470698 
    0.582466     0.478637     0.504191 
    0.500745     0.368323     0.384437 
    0.492368     0.330717     0.562438 
    0.636073     0.534831     0.684254 
    0.574419     0.720518     0.499040 
    0.744210     0.420775     0.452772 
    0.652238     0.437130     0.322311 
    0.378465     0.560528     0.351987 
    0.297511     0.504325     0.583833 
    0.295453     0.425661     0.494826 
    0.385157     0.525488     0.654432 
    0.378429     0.352604     0.475924 
    0.712575     0.525647     0.551668 
    0.641876     0.611133     0.552408 
    0.559519     0.659020     0.369148 
EA28743 17.451 15.920 14.161 90.00 90.00 90.00 Sym.group:    0
1.0
   17.451025     0.000000     0.000000
    0.000000    15.919765     0.000000
    0.000000     0.000000    14.160597
   W   B
  20   6
Direct
    0.529161     0.732587     0.390339 
    0.584594     0.580028     0.341426 
    0.592505     0.649878     0.510822 
    0.564769     0.551119     0.674028 
    0.560805     0.482248     0.506099 
    0.681502     0.378297     0.479316 
    0.563230     0.328482     0.402960 
    0.451784     0.351936     0.527359 
    0.494840     0.454380     0.332827 
    0.446425     0.610657     0.432832 
    0.419865     0.518028     0.609294 
    0.325948     0.384329     0.607807 
    0.309482     0.527443     0.488000 
    0.349220     0.379397     0.399896 
    0.233489     0.397537     0.489167 
    0.697432     0.532916     0.432158 
    0.518332     0.397240     0.683797 
    0.693142     0.552590     0.608549 
    0.364668     0.664202     0.564606 
    0.652708     0.404368     0.653674 
    0.576941     0.332432     0.559761 
    0.377824     0.508820     0.361651 
    0.429890     0.472021     0.463588 
    0.474416     0.724207     0.522128 
    0.485515     0.640482     0.599528 
    0.621513     0.444374     0.358387 
EA29038 16.788 15.649 14.411 90.00 90.00 90.00 Sym.group:    0
1.0
   16.788224     0.000000     0.000000
    0.000000    15.649212     0.000000
    0.000000     0.000000    14.410650
   W   B
  17  10
Direct
    0.499254     0.595883     0.622873 
    0.435495     0.675335     0.484348 
    0.425356     0.497448     0.499425 
    0.331668     0.618422     0.600043 
    0.291927     0.560517     0.442391 
    0.365967     0.363389     0.596620 
    0.499242     0.420805     0.672273 
    0.345006     0.439352     0.326743 
    0.664425     0.592510     0.432838 
    0.662350     0.379211     0.595086 
    0.577542     0.483410     0.512230 
    0.494992     0.417070     0.360577 
    0.501733     0.335037     0.524790 
    0.627483     0.500920     0.693587 
    0.575497     0.708220     0.521608 
    0.727543     0.432871     0.449576 
    0.420194     0.575048     0.340015 
    0.303850     0.485370     0.574707 
    0.303778     0.422294     0.474904 
    0.386218     0.497548     0.652441 
    0.386535     0.359467     0.440667 
    0.704062     0.519502     0.562814 
    0.636252     0.600507     0.585419 
    0.539063     0.644658     0.394191 
    0.623211     0.464039     0.362570 
    0.556051     0.544572     0.357173 
    0.615309     0.366594     0.420091 
EA29455 16.796 15.167 14.429 90.00 90.00 90.00 Sym.group:    0
1.0
   16.795524     0.000000     0.000000
    0.000000    15.167202     0.000000
    0.000000     0.000000    14.429045
   W   B
  16  10
Direct
    0.428226     0.497489     0.502401 
    0.405960     0.325538     0.437335 
    0.283554     0.433583     0.520743 
    0.494481     0.608668     0.632323 
    0.413836     0.474374     0.677456 
    0.514182     0.363042     0.569732 
    0.377583     0.674282     0.543325 
    0.662207     0.560383     0.643709 
    0.504922     0.658671     0.443495 
    0.591232     0.583762     0.317363 
    0.577608     0.516970     0.504241 
    0.733102     0.479200     0.526151 
    0.519425     0.416948     0.368104 
    0.338940     0.466298     0.364956 
    0.682169     0.624146     0.435502 
    0.640863     0.356218     0.464142 
    0.306896     0.568852     0.472960 
    0.553724     0.472763     0.667629 
    0.383228     0.366116     0.581311 
    0.322339     0.553381     0.590787 
    0.604779     0.658705     0.551160 
    0.658330     0.477328     0.380524 
    0.632464     0.419403     0.613450 
    0.381898     0.609198     0.403487 
    0.456959     0.550026     0.350047 
    0.531091     0.284654     0.437667 
EA29760 16.790 15.150 14.436 90.00 90.00 90.00 Sym.group:    0
1.0
   16.790381     0.000000     0.000000
    0.000000    15.149563     0.000000
    0.000000     0.000000    14.435805
   W   B
  16  10
Direct
    0.579518     0.493071     0.510517 
    0.589006     0.326986     0.440143 
    0.736533     0.442590     0.491579 
    0.504294     0.604058     0.632172 
    0.570612     0.462959     0.690824 
    0.481580     0.357912     0.562523 
    0.616115     0.676910     0.543782 
    0.339199     0.558748     0.658827 
    0.481817     0.663734     0.450712 
    0.427948     0.512659     0.504017 
    0.280381     0.515829     0.517160 
    0.473727     0.417088     0.362245 
    0.645999     0.473445     0.357985 
    0.352359     0.361896     0.456733 
    0.691037     0.555320     0.614451 
    0.654074     0.357820     0.598706 
    0.688245     0.580143     0.460250 
    0.435969     0.459978     0.665431 
    0.369880     0.641537     0.541823 
    0.352728     0.492306     0.373379 
    0.356698     0.417747     0.601616 
    0.605533     0.614538     0.402949 
    0.527138     0.555737     0.363014 
    0.460691     0.286868     0.428200 
    0.352776     0.606755     0.421430 
    0.426145     0.563369     0.349532 
EA30142 16.640 15.422 14.747 90.00 90.00 90.00 Sym.group:    0
1.0
   16.639996     0.000000     0.000000
    0.000000    15.422124     0.000000
    0.000000     0.000000    14.746843
   W   B
  18   8
Direct
    0.572549     0.508409     0.489964 
    0.617185     0.333490     0.512371 
    0.486864     0.659127     0.414466 
    0.629889     0.584866     0.331375 
    0.496139     0.378606     0.400193 
    0.631907     0.663537     0.474108 
    0.327977     0.574810     0.370366 
    0.480624     0.643207     0.585859 
    0.397922     0.523443     0.687368 
    0.416902     0.516637     0.498432 
    0.261968     0.464235     0.466053 
    0.475931     0.390240     0.606930 
    0.627762     0.441800     0.638841 
    0.297267     0.580255     0.583803 
    0.360160     0.341252     0.489478 
    0.653556     0.424412     0.369621 
    0.484394     0.253624     0.515526 
    0.474691     0.526002     0.323771 
    0.689434     0.551008     0.561791 
    0.704717     0.540887     0.446657 
    0.368210     0.658032     0.487667 
    0.336409     0.434752     0.599234 
    0.370479     0.434481     0.372603 
    0.607409     0.594020     0.615358 
    0.528507     0.528800     0.648424 
    0.701147     0.450066     0.509738 
EA30428 15.903 14.998 15.754 90.00 90.00 90.00 Sym.group:    0
1.0
   15.903064     0.000000     0.000000
    0.000000    14.998481     0.000000
    0.000000     0.000000    15.753837
   W   B
  20   6
Direct
    0.371194     0.331009     0.484021 
    0.500381     0.392981     0.597078 
    0.700049     0.575238     0.614195 
    0.600051     0.532333     0.324938 
    0.589166     0.522735     0.503010 
    0.750334     0.450085     0.517919 
    0.521716     0.393486     0.398077 
    0.722964     0.570238     0.416718 
    0.636455     0.332080     0.506899 
    0.503448     0.253112     0.502821 
    0.565178     0.531473     0.680351 
    0.422977     0.500836     0.489943 
    0.531298     0.667641     0.594800 
    0.407058     0.552138     0.654963 
    0.374949     0.661753     0.531291 
    0.506579     0.642910     0.427403 
    0.327737     0.445843     0.369888 
    0.333704     0.409008     0.622440 
    0.656338     0.693991     0.506052 
    0.447031     0.522641     0.310055 
    0.662030     0.430946     0.404417 
    0.643107     0.430031     0.611020 
    0.289538     0.559362     0.462766 
    0.294650     0.541959     0.569474 
    0.364292     0.603377     0.396312 
    0.277775     0.452791     0.503149 
EA30760 17.153 14.724 14.827 90.00 90.00 90.00 Sym.group:    0
1.0
   17.152915     0.000000     0.000000
    0.000000    14.723821     0.000000
    0.000000     0.000000    14.827047
   W   B
  18   9
Direct
    0.491685     0.606531     0.638851 
    0.664744     0.521068     0.351975 
    0.555227     0.507112     0.492122 
    0.676980     0.387929     0.472662 
    0.709246     0.522599     0.563309 
    0.516095     0.423694     0.661518 
    0.535460     0.512376     0.285777 
    0.446441     0.324966     0.540396 
    0.390844     0.693915     0.543448 
    0.297508     0.599322     0.616235 
    0.402432     0.497262     0.552462 
    0.252012     0.469024     0.522301 
    0.451065     0.406160     0.384017 
    0.435897     0.594096     0.401344 
    0.318954     0.489818     0.371868 
    0.535209     0.698125     0.495717 
    0.662435     0.395817     0.655115 
    0.667774     0.654101     0.458659 
    0.614723     0.622346     0.589650 
    0.578721     0.346221     0.557731 
    0.585806     0.400486     0.361803 
    0.343444     0.375535     0.461332 
    0.327530     0.363289     0.573095 
    0.313242     0.597451     0.471723 
    0.553737     0.339919     0.448836 
    0.565830     0.622010     0.373132 
    0.606959     0.528828     0.654926 
EA31144 16.865 15.135 14.142 90.00 90.00 90.00 Sym.group:    0
1.0
   16.865076     0.000000     0.000000
    0.000000    15.134524     0.000000
    0.000000     0.000000    14.141882
   W   B
  18   8
Direct
    0.421709     0.499594     0.509656 
    0.404064     0.328870     0.449815 
    0.262436     0.452637     0.497204 
    0.502299     0.615222     0.625076 
    0.425447     0.475750     0.690778 
    0.510969     0.359627     0.579820 
    0.383407     0.686031     0.540880 
    0.517728     0.660223     0.448024 
    0.573885     0.505546     0.485718 
    0.715989     0.513617     0.512211 
    0.522548     0.397819     0.361353 
    0.343234     0.483621     0.357538 
    0.643477     0.336638     0.476641 
    0.311429     0.567796     0.622271 
    0.343295     0.367196     0.607994 
    0.482689     0.554660     0.314588 
    0.625011     0.559702     0.313154 
    0.662750     0.409244     0.627933 
    0.308424     0.586034     0.464988 
    0.556349     0.482512     0.666008 
    0.626593     0.633665     0.551470 
    0.660174     0.438711     0.375429 
    0.386990     0.621515     0.402089 
    0.525945     0.278231     0.450184 
    0.651577     0.631965     0.437944 
    0.631582     0.553576     0.631237 
EA31585 16.804 15.182 14.308 90.00 90.00 90.00 Sym.group:    0
1.0
   16.804236     0.000000     0.000000
    0.000000    15.181506     0.000000
    0.000000     0.000000    14.307729
   W   B
  18   8
Direct
    0.579901     0.509508     0.493494 
    0.571959     0.674870     0.573017 
    0.732500     0.575470     0.520433 
    0.516920     0.392609     0.368208 
    0.581373     0.543095     0.317433 
    0.476821     0.643243     0.429580 
    0.637838     0.331670     0.457469 
    0.497725     0.339383     0.541366 
    0.426591     0.487801     0.508332 
    0.288520     0.459423     0.471542 
    0.453775     0.591008     0.647103 
    0.649537     0.525238     0.651075 
    0.337193     0.643049     0.519854 
    0.700317     0.461452     0.386908 
    0.644404     0.657569     0.417102 
    0.514523     0.441243     0.680285 
    0.373399     0.414700     0.669918 
    0.334350     0.575301     0.366607 
    0.699067     0.435685     0.541475 
    0.452375     0.520387     0.335030 
    0.392603     0.356771     0.432544 
    0.325497     0.532990     0.612938 
    0.621562     0.388597     0.597507 
    0.446772     0.712038     0.561779 
    0.361459     0.347934     0.541686 
    0.383019     0.438965     0.357316 
EA31845 16.755 15.853 15.074 90.00 90.00 90.00 Sym.group:    0
1.0
   16.755132     0.000000     0.000000
    0.000000    15.852511     0.000000
    0.000000     0.000000    15.073588
   W   B
  17   9
Direct
    0.497110     0.615916     0.388279 
    0.321013     0.434970     0.392385 
    0.394008     0.476721     0.684162 
    0.417799     0.502436     0.512531 
    0.264833     0.556632     0.471715 
    0.273667     0.448841     0.589942 
    0.379954     0.659841     0.500427 
    0.531028     0.649211     0.552016 
    0.464277     0.480746     0.328676 
    0.572578     0.500327     0.483978 
    0.480002     0.354295     0.426448 
    0.620362     0.338227     0.492494 
    0.499561     0.382727     0.599697 
    0.675810     0.560650     0.603460 
    0.629585     0.545233     0.334307 
    0.359622     0.339073     0.526865 
    0.541018     0.531861     0.665106 
    0.327410     0.575953     0.604245 
    0.368599     0.569386     0.376570 
    0.700358     0.445253     0.526395 
    0.681855     0.434066     0.412799 
    0.626669     0.431152     0.606860 
    0.708577     0.530646     0.457160 
    0.594354     0.411943     0.358891 
    0.422471     0.607001     0.632326 
    0.647478     0.616891     0.472266 
EA32162 16.675 14.338 14.598 90.00 90.00 90.00 Sym.group:    0
1.0
   16.674985     0.000000     0.000000
    0.000000    14.338385     0.000000
    0.000000     0.000000    14.598445
   W   B
  16  10
Direct
    0.496224     0.457264     0.657809 
    0.342546     0.332421     0.481788 
    0.375722     0.634842     0.393568 
    0.416265     0.489836     0.495819 
    0.277348     0.454502     0.580285 
    0.261791     0.512607     0.423010 
    0.514590     0.632642     0.616568 
    0.493985     0.322452     0.548891 
    0.571183     0.499384     0.500060 
    0.500657     0.368025     0.380714 
    0.639493     0.446518     0.345599 
    0.498421     0.538882     0.337130 
    0.652480     0.653831     0.534259 
    0.638126     0.383687     0.615094 
    0.361245     0.426683     0.332103 
    0.515059     0.680286     0.452294 
    0.314837     0.595618     0.535662 
    0.385467     0.381457     0.618212 
    0.699147     0.540134     0.444955 
    0.694574     0.423057     0.480452 
    0.621738     0.598032     0.387383 
    0.701626     0.510885     0.563465 
    0.614289     0.348230     0.469131 
    0.401291     0.655716     0.540449 
    0.625845     0.539448     0.640681 
    0.386051     0.573560     0.624621 
EA32452 17.150 14.753 14.738 90.00 90.00 90.00 Sym.group:    0
1.0
   17.150030     0.000000     0.000000
    0.000000    14.752693     0.000000
    0.000000     0.000000    14.738048
   W   B
  18   9
Direct
    0.501456     0.603266     0.353574 
    0.339334     0.526402     0.655022 
    0.444740     0.509676     0.507592 
    0.324443     0.389687     0.537539 
    0.287890     0.520208     0.441612 
    0.481861     0.419718     0.341579 
    0.471167     0.520660     0.715425 
    0.553771     0.323544     0.462412 
    0.609869     0.686709     0.441265 
    0.707932     0.591671     0.377593 
    0.596465     0.495582     0.441864 
    0.748877     0.467711     0.478158 
    0.550294     0.411189     0.616622 
    0.565307     0.599523     0.591917 
    0.680826     0.493035     0.627611 
    0.463725     0.697607     0.494968 
    0.333756     0.390087     0.354805 
    0.332612     0.653999     0.541183 
    0.380057     0.619603     0.406781 
    0.420516     0.345099     0.449088 
    0.417818     0.406304     0.644421 
    0.656537     0.377521     0.539730 
    0.672047     0.362275     0.428222 
    0.686719     0.596559     0.521962 
    0.447825     0.341991     0.558195 
    0.436318     0.627553     0.625015 
    0.387837     0.522822     0.345844 
EA32774 16.705 15.055 14.159 90.00 90.00 90.00 Sym.group:    0
1.0
   16.704897     0.000000     0.000000
    0.000000    15.055058     0.000000
    0.000000     0.000000    14.159386
   W   B
  18   9
Direct
    0.506339     0.416080     0.364007 
    0.550808     0.323680     0.516639 
    0.579761     0.504378     0.505111 
    0.674404     0.618614     0.422221 
    0.521735     0.594018     0.338690 
    0.648951     0.510196     0.678689 
    0.312570     0.423849     0.546022 
    0.375663     0.652589     0.407592 
    0.425193     0.511037     0.488235 
    0.492785     0.576398     0.649566 
    0.516674     0.674228     0.502810 
    0.532914     0.404754     0.668133 
    0.279714     0.529266     0.388010 
    0.642088     0.659637     0.590242 
    0.409984     0.320790     0.624780 
    0.636951     0.495088     0.308310 
    0.348661     0.393202     0.358050 
    0.690580     0.390241     0.566487 
    0.709273     0.473530     0.439125 
    0.717644     0.535955     0.540440 
    0.357835     0.551951     0.626563 
    0.407631     0.460128     0.660189 
    0.391512     0.642455     0.564178 
    0.403860     0.523367     0.323923 
    0.306259     0.582808     0.529233 
    0.638674     0.389817     0.417795 
    0.421537     0.341943     0.474959 
EA33230 16.662 14.317 14.063 90.00 90.00 90.00 Sym.group:    0
1.0
   16.662481     0.000000     0.000000
    0.000000    14.316545     0.000000
    0.000000     0.000000    14.062815
   W   B
  17   9
Direct
    0.493603     0.556488     0.334818 
    0.650413     0.667678     0.523439 
    0.626876     0.355815     0.604238 
    0.582758     0.506379     0.509115 
    0.729462     0.551830     0.429235 
    0.735755     0.477526     0.592681 
    0.629185     0.455153     0.336538 
    0.487169     0.378570     0.369397 
    0.506309     0.680263     0.459346 
    0.429195     0.500873     0.499947 
    0.496051     0.632472     0.631378 
    0.362341     0.542314     0.664858 
    0.501497     0.450767     0.667062 
    0.348936     0.348303     0.455844 
    0.354618     0.624110     0.390353 
    0.631716     0.563081     0.678359 
    0.487786     0.317447     0.536542 
    0.689051     0.404275     0.469318 
    0.614147     0.612664     0.378346 
    0.302461     0.453946     0.555216 
    0.304129     0.572822     0.526820 
    0.380396     0.392700     0.608722 
    0.297900     0.490754     0.434663 
    0.383002     0.649348     0.543012 
    0.602998     0.344002     0.448889 
    0.372251     0.470418     0.351864 
EA33662 16.752 14.427 14.009 90.00 90.00 90.00 Sym.group:    0
1.0
   16.751946     0.000000     0.000000
    0.000000    14.426713     0.000000
    0.000000     0.000000    14.008560
   W   B
  18   7
Direct
    0.451179     0.454662     0.323350 
    0.597218     0.529328     0.303386 
    0.343431     0.362987     0.572320 
    0.486063     0.327901     0.448397 
    0.578045     0.500544     0.488552 
    0.715562     0.392651     0.514931 
    0.619918     0.364929     0.382441 
    0.489715     0.369342     0.626042 
    0.693452     0.544406     0.597868 
    0.420215     0.497659     0.493493 
    0.277863     0.522358     0.584307 
    0.521833     0.542549     0.658357 
    0.277829     0.483831     0.417001 
    0.344896     0.654879     0.486196 
    0.492970     0.627033     0.369577 
    0.633565     0.671792     0.445943 
    0.485644     0.678633     0.547383 
    0.724847     0.546345     0.416687 
    0.598922     0.333375     0.541521 
    0.606791     0.653004     0.595260 
    0.397409     0.480601     0.659638 
    0.396626     0.596100     0.627208 
    0.366101     0.575976     0.357297 
    0.619295     0.418404     0.627930 
    0.360612     0.370710     0.414913 
EA33784 15.957 16.509 14.399 90.00 90.00 90.00 Sym.group:    0
1.0
   15.956540     0.000000     0.000000
    0.000000    16.508628     0.000000
    0.000000     0.000000    14.399315
   W   B
  18   9
Direct
    0.642585     0.351655     0.424938 
    0.513559     0.403701     0.346266 
    0.376878     0.489544     0.323438 
    0.503512     0.338416     0.509774 
    0.279805     0.569393     0.440361 
    0.421168     0.493460     0.499495 
    0.352556     0.360845     0.562963 
    0.242437     0.481332     0.565149 
    0.525178     0.554990     0.342239 
    0.676501     0.487498     0.347652 
    0.649791     0.390949     0.613877 
    0.502896     0.429494     0.657156 
    0.479717     0.588134     0.623955 
    0.351622     0.475916     0.684024 
    0.518896     0.663088     0.474613 
    0.583179     0.496711     0.502148 
    0.736719     0.515408     0.615787 
    0.646903     0.632005     0.576253 
    0.299386     0.430910     0.437883 
    0.389221     0.374813     0.412802 
    0.726566     0.452126     0.484934 
    0.384080     0.636091     0.511441 
    0.407322     0.610541     0.397961 
    0.331815     0.582279     0.590772 
    0.605162     0.524980     0.662131 
    0.715183     0.555194     0.470907 
    0.637362     0.610527     0.421077 
EA34160 16.662 14.063 14.384 90.00 90.00 90.00 Sym.group:    0
1.0
   16.661538     0.000000     0.000000
    0.000000    14.063500     0.000000
    0.000000     0.000000    14.383923
   W   B
  17  10
Direct
    0.486626     0.667633     0.495544 
    0.467314     0.585126     0.341209 
    0.412558     0.493161     0.489525 
    0.341132     0.655460     0.418660 
    0.326929     0.495213     0.651503 
    0.459393     0.573222     0.660649 
    0.350761     0.363894     0.398157 
    0.702472     0.543467     0.419626 
    0.612175     0.490725     0.678153 
    0.571931     0.498359     0.499739 
    0.508412     0.315037     0.481718 
    0.481514     0.397932     0.642451 
    0.720729     0.430415     0.554322 
    0.501414     0.404791     0.331162 
    0.709199     0.597369     0.599486 
    0.360340     0.326547     0.562580 
    0.646370     0.389856     0.357929 
    0.285594     0.560844     0.522482 
    0.278630     0.441962     0.509659 
    0.361876     0.630615     0.565440 
    0.623389     0.657712     0.498105 
    0.590674     0.530498     0.326313 
    0.639048     0.323354     0.491641 
    0.603185     0.354535     0.594348 
    0.291399     0.511664     0.411982 
    0.580592     0.629894     0.605502 
    0.586345     0.630715     0.392115 
EA34688 16.666 14.455 14.365 90.00 90.00 90.00 Sym.group:    0
1.0
   16.666125     0.000000     0.000000
    0.000000    14.455464     0.000000
    0.000000     0.000000    14.365053
   W   B
  18   7
Direct
    0.550274     0.435909     0.667983 
    0.401283     0.366971     0.650589 
    0.522684     0.606030     0.631155 
    0.424576     0.492025     0.505329 
    0.293064     0.526822     0.404172 
    0.580521     0.493289     0.496935 
    0.718848     0.547028     0.447776 
    0.718470     0.427989     0.580409 
    0.641274     0.348204     0.420408 
    0.491784     0.321003     0.524280 
    0.355709     0.341330     0.443339 
    0.505109     0.382945     0.349342 
    0.275212     0.440728     0.546756 
    0.676903     0.567767     0.640981 
    0.483751     0.562123     0.347829 
    0.388181     0.537427     0.672007 
    0.630589     0.489648     0.314931 
    0.505812     0.678448     0.472966 
    0.402954     0.651079     0.565000 
    0.385669     0.447837     0.342439 
    0.609775     0.620283     0.395605 
    0.373883     0.635220     0.449529 
    0.632367     0.643538     0.512929 
    0.318527     0.589002     0.546971 
    0.612780     0.347355     0.570336 
EA34856 14.157 16.643 15.216 90.00 90.00 90.00 Sym.group:    0
1.0
   14.156956     0.000000     0.000000
    0.000000    16.642678     0.000000
    0.000000     0.000000    15.215926
   W   B
  19   7
Direct
    0.671181     0.637474     0.574927 
    0.589629     0.504794     0.505778 
    0.820477     0.587905     0.498247 
    0.741409     0.503376     0.607672 
    0.495207     0.657016     0.519001 
    0.672711     0.615947     0.408059 
    0.498185     0.593698     0.372208 
    0.408232     0.501897     0.507272 
    0.521229     0.547370     0.655722 
    0.348539     0.487027     0.673710 
    0.328617     0.640984     0.467540 
    0.237691     0.566408     0.588640 
    0.480021     0.384221     0.599425 
    0.541790     0.297273     0.449166 
    0.468844     0.436915     0.364385 
    0.252739     0.422766     0.543902 
    0.656851     0.360647     0.540142 
    0.381261     0.335602     0.468630 
    0.751506     0.468487     0.429418 
    0.254562     0.522084     0.446545 
    0.345286     0.535608     0.371470 
    0.382554     0.608976     0.609395 
    0.310028     0.440002     0.401367 
    0.614756     0.498205     0.353423 
    0.609893     0.442489     0.646310 
    0.616801     0.402831     0.397642 
EA35201 15.338 16.374 15.704 90.00 90.00 90.00 Sym.group:    0
1.0
   15.338485     0.000000     0.000000
    0.000000    16.373813     0.000000
    0.000000     0.000000    15.704482
   W   B
  18   8
Direct
    0.656383     0.336889     0.526743 
    0.350337     0.547073     0.351214 
    0.419696     0.512407     0.502945 
    0.490354     0.365332     0.475798 
    0.503879     0.465182     0.345684 
    0.526727     0.399613     0.631575 
    0.252826     0.591367     0.469776 
    0.273914     0.482732     0.583145 
    0.524558     0.607074     0.382270 
    0.382272     0.673605     0.475791 
    0.539404     0.659717     0.536751 
    0.368512     0.603032     0.624381 
    0.589584     0.496065     0.502755 
    0.701790     0.462258     0.612323 
    0.679445     0.616279     0.601115 
    0.668908     0.528386     0.360835 
    0.750177     0.417801     0.448224 
    0.525683     0.549114     0.653144 
    0.338785     0.387148     0.491830 
    0.389736     0.387583     0.585417 
    0.372074     0.417536     0.393480 
    0.284215     0.462752     0.441590 
    0.402724     0.469081     0.652284 
    0.618515     0.392318     0.398745 
    0.731674     0.546727     0.492685 
    0.657829     0.622930     0.459496 
EA35567 16.993 14.595 14.041 90.00 90.00 90.00 Sym.group:    0
1.0
   16.992674     0.000000     0.000000
    0.000000    14.594766     0.000000
    0.000000     0.000000    14.040817
   W   B
  18   8
Direct
    0.649262     0.678530     0.463177 
    0.368052     0.455378     0.671389 
    0.426400     0.488737     0.499492 
    0.495846     0.651463     0.525499 
    0.508385     0.544917     0.672748 
    0.528055     0.609603     0.350218 
    0.276548     0.407205     0.542992 
    0.295746     0.526622     0.415618 
    0.516457     0.382110     0.630488 
    0.388179     0.305858     0.527106 
    0.526139     0.321983     0.455314 
    0.378197     0.386442     0.362655 
    0.581127     0.502501     0.495690 
    0.679357     0.535999     0.370025 
    0.655507     0.362169     0.385547 
    0.650674     0.460643     0.654495 
    0.728999     0.579092     0.552205 
    0.519294     0.442200     0.325512 
    0.359083     0.632532     0.510908 
    0.403760     0.627079     0.405359 
    0.390304     0.599875     0.622105 
    0.308669     0.552340     0.571999 
    0.411204     0.535359     0.331029 
    0.614013     0.618449     0.608431 
    0.706328     0.436294     0.506259 
    0.634415     0.356622     0.543738 
EA35882 16.928 14.679 14.115 90.00 90.00 90.00 Sym.group:    0
1.0
   16.928361     0.000000     0.000000
    0.000000    14.679060     0.000000
    0.000000     0.000000    14.115480
   W   B
  18   8
Direct
    0.643761     0.666914     0.554383 
    0.366435     0.458604     0.333086 
    0.425803     0.497644     0.497754 
    0.494743     0.658825     0.481016 
    0.508691     0.549799     0.334972 
    0.525814     0.595556     0.648164 
    0.280618     0.412521     0.470273 
    0.290830     0.538147     0.584016 
    0.513440     0.383638     0.357333 
    0.514561     0.333527     0.533371 
    0.379111     0.364385     0.610082 
    0.577889     0.494547     0.505647 
    0.686682     0.515905     0.627361 
    0.660763     0.350708     0.602280 
    0.653564     0.477196     0.344966 
    0.728543     0.579935     0.451300 
    0.538192     0.421067     0.684217 
    0.402989     0.502924     0.701521 
    0.359190     0.637884     0.492256 
    0.404258     0.626169     0.598331 
    0.388267     0.605155     0.380007 
    0.306543     0.558979     0.430026 
    0.612413     0.622118     0.402569 
    0.705804     0.436240     0.488474 
    0.630211     0.362524     0.445437 
    0.400886     0.349087     0.441160 
EA36116 14.462 15.411 16.642 90.00 90.00 90.00 Sym.group:    0
1.0
   14.462333     0.000000     0.000000
    0.000000    15.411112     0.000000
    0.000000     0.000000    16.642102
   W   B
  20   9
Direct
    0.519996     0.339110     0.472739 
    0.403158     0.477156     0.328448 
    0.332784     0.521442     0.639333 
    0.474414     0.405335     0.615044 
    0.304237     0.363166     0.619009 
    0.421262     0.514309     0.495752 
    0.262288     0.530918     0.407068 
    0.348103     0.375203     0.445512 
    0.393726     0.669761     0.582880 
    0.467895     0.328327     0.329318 
    0.705115     0.616434     0.403200 
    0.533222     0.585873     0.377945 
    0.517049     0.574481     0.642239 
    0.759750     0.573881     0.544293 
    0.585196     0.664115     0.519263 
    0.670547     0.481857     0.655363 
    0.602424     0.497701     0.504557 
    0.768880     0.467715     0.415290 
    0.604335     0.432330     0.357417 
    0.674025     0.644104     0.654799 
    0.401223     0.298064     0.549571 
    0.267249     0.465848     0.530262 
    0.385082     0.611173     0.381781 
    0.273493     0.580548     0.531982 
    0.328490     0.644560     0.466661 
    0.444510     0.669768     0.455088 
    0.634993     0.372357     0.566687 
    0.676815     0.368348     0.468215 
    0.739739     0.426116     0.540284 
EA36674 15.580 15.277 15.367 90.00 90.00 90.00 Sym.group:    0
1.0
   15.579838     0.000000     0.000000
    0.000000    15.276662     0.000000
    0.000000     0.000000    15.366852
   W   B
  17   8
Direct
    0.546999     0.362386     0.482738 
    0.552944     0.514005     0.364222 
    0.559335     0.633477     0.516264 
    0.555603     0.480837     0.633462 
    0.446555     0.348616     0.621091 
    0.459303     0.621297     0.652399 
    0.456506     0.655939     0.380673 
    0.443580     0.383130     0.349524 
    0.705256     0.555734     0.577469 
    0.697744     0.395047     0.569914 
    0.696059     0.427868     0.414031 
    0.705203     0.587813     0.422975 
    0.304563     0.436875     0.413468 
    0.306581     0.415372     0.575778 
    0.312817     0.578067     0.592697 
    0.312112     0.600943     0.431309 
    0.451966     0.503390     0.501222 
    0.582933     0.336735     0.621792 
    0.582274     0.373092     0.342279 
    0.593333     0.654561     0.374985 
    0.598074     0.618251     0.654863 
    0.400691     0.351489     0.484172 
    0.409438     0.484986     0.653244 
    0.413715     0.656882     0.519413 
    0.406415     0.523209     0.350016 
EA37125 16.477 14.584 14.197 90.00 90.00 90.00 Sym.group:    0
1.0
   16.476828     0.000000     0.000000
    0.000000    14.584227     0.000000
    0.000000     0.000000    14.196591
   W   B
  16   6
Direct
    0.524504     0.331332     0.580106 
    0.553934     0.500507     0.507428 
    0.697342     0.461246     0.425669 
    0.466299     0.360520     0.422111 
    0.581427     0.439737     0.323829 
    0.662020     0.541864     0.653010 
    0.673420     0.633886     0.507045 
    0.427656     0.620232     0.577696 
    0.269267     0.537430     0.569133 
    0.312018     0.389120     0.461557 
    0.528303     0.506335     0.690328 
    0.407002     0.535076     0.420865 
    0.304241     0.665678     0.488227 
    0.539624     0.679098     0.457811 
    0.403308     0.446413     0.593388 
    0.670760     0.382791     0.576079 
    0.620750     0.579025     0.378537 
    0.602611     0.350299     0.449166 
    0.274873     0.532640     0.420307 
    0.563748     0.632885     0.605779 
    0.522818     0.571079     0.352444 
    0.394079     0.302807     0.539484 
EA37166 14.804 16.774 14.760 90.00 90.00 90.00 Sym.group:    0
1.0
   14.804374     0.000000     0.000000
    0.000000    16.773956     0.000000
    0.000000     0.000000    14.759856
   W   B
  18   9
Direct
    0.653608     0.633770     0.426330 
    0.588919     0.497174     0.487238 
    0.757888     0.516764     0.389940 
    0.741285     0.425831     0.522968 
    0.492344     0.600682     0.362072 
    0.624302     0.500017     0.300075 
    0.464502     0.446276     0.338722 
    0.635258     0.369805     0.400304 
    0.479488     0.345696     0.474250 
    0.479754     0.387931     0.631452 
    0.321262     0.365557     0.401155 
    0.311298     0.385712     0.575707 
    0.408371     0.495626     0.497284 
    0.521073     0.540857     0.643345 
    0.509377     0.654914     0.525009 
    0.326357     0.544748     0.354854 
    0.220778     0.469059     0.459168 
    0.370090     0.619348     0.610970 
    0.678705     0.519134     0.617367 
    0.622084     0.433375     0.629931 
    0.642783     0.608143     0.576235 
    0.731538     0.560582     0.527541 
    0.610373     0.359719     0.552069 
    0.281878     0.582226     0.497918 
    0.277564     0.515809     0.588928 
    0.374421     0.633134     0.457041 
    0.374702     0.488107     0.652130 
EA37549 16.926 14.474 14.405 90.00 90.00 90.00 Sym.group:    0
1.0
   16.926498     0.000000     0.000000
    0.000000    14.473700     0.000000
    0.000000     0.000000    14.404816
   W   B
  17  10
Direct
    0.635061     0.614670     0.629001 
    0.570483     0.502012     0.494481 
    0.515971     0.364555     0.594509 
    0.488266     0.527745     0.661566 
    0.715200     0.607420     0.484655 
    0.706910     0.435330     0.437055 
    0.625817     0.577262     0.348878 
    0.334961     0.422218     0.363506 
    0.413886     0.484713     0.499064 
    0.478504     0.646663     0.420264 
    0.481919     0.507560     0.317497 
    0.269433     0.412448     0.517817 
    0.316370     0.554761     0.610228 
    0.475685     0.350148     0.402419 
    0.377400     0.301624     0.540164 
    0.374316     0.415229     0.678883 
    0.612347     0.307024     0.448408 
    0.648847     0.384222     0.571738 
    0.612251     0.464317     0.648134 
    0.692849     0.488357     0.580277 
    0.594052     0.423181     0.352624 
    0.596636     0.665428     0.481892 
    0.355925     0.633912     0.473582 
    0.423747     0.638158     0.561546 
    0.366341     0.572885     0.369003 
    0.292873     0.547250     0.447487 
    0.523949     0.650907     0.565319 
EA37810 17.131 15.738 14.617 90.00 90.00 90.00 Sym.group:    0
1.0
   17.130670     0.000000     0.000000
    0.000000    15.737671     0.000000
    0.000000     0.000000    14.617190
   W   B
  20  10
Direct
    0.496613     0.587986     0.362536 
    0.639405     0.548831     0.644388 
    0.475256     0.425766     0.340215 
    0.569703     0.476399     0.496388 
    0.597900     0.349437     0.378143 
    0.640832     0.607743     0.403644 
    0.501009     0.741123     0.404886 
    0.707757     0.457172     0.401993 
    0.666250     0.677185     0.556956 
    0.362227     0.349248     0.575162 
    0.363705     0.345733     0.405252 
    0.331063     0.497053     0.354638 
    0.415262     0.754307     0.532998 
    0.523182     0.641427     0.542001 
    0.487326     0.544090     0.676086 
    0.361268     0.604559     0.609780 
    0.416700     0.493064     0.503764 
    0.497161     0.391013     0.635079 
    0.364625     0.651430     0.423552 
    0.255727     0.562955     0.482103 
    0.577524     0.331042     0.529040 
    0.699491     0.450197     0.556206 
    0.667827     0.363042     0.504582 
    0.709447     0.551358     0.518757 
    0.484873     0.347356     0.482181 
    0.626411     0.394775     0.609839 
    0.595795     0.487061     0.334028 
    0.300744     0.473494     0.591324 
    0.379648     0.465441     0.659565 
    0.285265     0.429714     0.484911 
EA38198 16.882 14.396 14.515 90.00 90.00 90.00 Sym.group:    0
1.0
   16.882223     0.000000     0.000000
    0.000000    14.396215     0.000000
    0.000000     0.000000    14.515128
   W   B
  19   8
Direct
    0.346667     0.601326     0.376994 
    0.431146     0.496361     0.505111 
    0.478682     0.349464     0.418330 
    0.494927     0.524429     0.335345 
    0.295800     0.437309     0.591848 
    0.373475     0.569425     0.655730 
    0.671839     0.431144     0.626243 
    0.589506     0.499937     0.488847 
    0.522823     0.650054     0.562429 
    0.522408     0.517918     0.677334 
    0.741087     0.408463     0.483161 
    0.697680     0.554773     0.387638 
    0.529473     0.357778     0.600383 
    0.625244     0.303466     0.472958 
    0.610172     0.405437     0.335174 
    0.396772     0.300976     0.565710 
    0.363738     0.444223     0.321752 
    0.579622     0.667674     0.383548 
    0.666776     0.686003     0.509982 
    0.344920     0.378137     0.455307 
    0.293868     0.482641     0.448320 
    0.416107     0.421314     0.658211 
    0.389141     0.651220     0.525124 
    0.639404     0.580026     0.618578 
    0.716698     0.550327     0.543839 
    0.454596     0.652621     0.433970 
    0.307428     0.577557     0.518134 
EA38726 16.138 14.498 13.971 90.00 90.00 90.00 Sym.group:    0
1.0
   16.138069     0.000000     0.000000
    0.000000    14.498120     0.000000
    0.000000     0.000000    13.971262
   W   B
  16   9
Direct
    0.508009     0.358951     0.616434 
    0.446767     0.658987     0.613404 
    0.507092     0.529813     0.690791 
    0.730370     0.413855     0.521717 
    0.626545     0.648952     0.586565 
    0.357704     0.475219     0.681894 
    0.425844     0.505740     0.509429 
    0.492350     0.352696     0.437922 
    0.548174     0.506358     0.350106 
    0.292046     0.600998     0.577541 
    0.295273     0.523524     0.397148 
    0.354695     0.681040     0.441705 
    0.510680     0.657650     0.449704 
    0.589121     0.494269     0.531061 
    0.363821     0.328012     0.583081 
    0.326077     0.357832     0.417202 
    0.711299     0.529883     0.610019 
    0.641350     0.606219     0.423199 
    0.629260     0.393846     0.408339 
    0.684375     0.495182     0.402360 
    0.414542     0.457157     0.348577 
    0.421061     0.574012     0.353438 
    0.618865     0.335505     0.514740 
    0.288672     0.450776     0.539015 
    0.716006     0.563521     0.494606 
EA38962 16.335 15.104 14.706 90.00 90.00 90.00 Sym.group:    0
1.0
   16.334722     0.000000     0.000000
    0.000000    15.103646     0.000000
    0.000000     0.000000    14.705885
   W   B
  19   7
Direct
    0.352628     0.474940     0.339357 
    0.509622     0.509935     0.321824 
    0.641325     0.610658     0.365108 
    0.462208     0.644284     0.413761 
    0.414757     0.508198     0.505669 
    0.300138     0.616984     0.420731 
    0.276483     0.547512     0.588256 
    0.472091     0.364307     0.385768 
    0.639802     0.411029     0.346165 
    0.369282     0.672374     0.554974 
    0.362618     0.452745     0.687248 
    0.454013     0.356519     0.564645 
    0.583440     0.500647     0.487085 
    0.598222     0.308433     0.460768 
    0.508134     0.492736     0.656496 
    0.718798     0.593301     0.542129 
    0.670680     0.486728     0.661436 
    0.599861     0.694116     0.491415 
    0.712095     0.400723     0.532723 
    0.319497     0.404235     0.559139 
    0.280940     0.467456     0.464718 
    0.349594     0.377801     0.453374 
    0.588040     0.381558     0.597835 
    0.714646     0.504951     0.426984 
    0.598628     0.600821     0.608104 
    0.502458     0.617008     0.564294 
EA39187 15.884 15.792 16.167 90.00 90.00 90.00 Sym.group:    0
1.0
   15.883605     0.000000     0.000000
    0.000000    15.791961     0.000000
    0.000000     0.000000    16.167210
   W   B
  19   8
Direct
    0.661181     0.637978     0.542809 
    0.572646     0.495927     0.498268 
    0.509880     0.433942     0.631721 
    0.710874     0.406150     0.460472 
    0.621721     0.481930     0.345842 
    0.462952     0.333923     0.492285 
    0.351124     0.358574     0.603411 
    0.381341     0.518877     0.678919 
    0.756328     0.518446     0.557902 
    0.608920     0.315060     0.545197 
    0.633014     0.551323     0.663959 
    0.496302     0.608976     0.612910 
    0.319783     0.380773     0.429362 
    0.405861     0.495554     0.505722 
    0.474875     0.582443     0.372211 
    0.469467     0.420990     0.357786 
    0.255503     0.460616     0.569878 
    0.326626     0.615159     0.580192 
    0.325492     0.629712     0.411816 
    0.660009     0.427598     0.600657 
    0.583797     0.364677     0.420096 
    0.701721     0.551689     0.437686 
    0.611284     0.608162     0.409693 
    0.432763     0.647498     0.490708 
    0.353417     0.501653     0.365231 
    0.274793     0.507421     0.437667 
    0.538329     0.644951     0.477600 
EA39570 16.992 15.731 14.491 90.00 90.00 90.00 Sym.group:    0
1.0
   16.991654     0.000000     0.000000
    0.000000    15.731353     0.000000
    0.000000     0.000000    14.490681
   W   B
  19   8
Direct
    0.547121     0.317137     0.489077 
    0.285418     0.546794     0.570921 
    0.403046     0.332554     0.498349 
    0.270703     0.407536     0.497218 
    0.408901     0.550110     0.329429 
    0.490854     0.411100     0.361734 
    0.419170     0.496401     0.502625 
    0.480338     0.645639     0.439057 
    0.594365     0.725954     0.523466 
    0.628910     0.633271     0.391305 
    0.654217     0.427981     0.369524 
    0.490651     0.409967     0.630485 
    0.575366     0.496594     0.496962 
    0.620508     0.496043     0.679150 
    0.679213     0.612160     0.573690 
    0.727872     0.451271     0.554601 
    0.519307     0.610710     0.615274 
    0.693754     0.318398     0.482176 
    0.396470     0.537163     0.685068 
    0.349192     0.420487     0.614513 
    0.352808     0.428625     0.381933 
    0.345700     0.614350     0.455570 
    0.304335     0.521125     0.414348 
    0.542466     0.540293     0.344125 
    0.394980     0.629538     0.560981 
    0.619557     0.381617     0.593075 
    0.704777     0.537181     0.445346 
EA39896 17.008 15.671 14.393 90.00 90.00 90.00 Sym.group:    0
1.0
   17.008062     0.000000     0.000000
    0.000000    15.671253     0.000000
    0.000000     0.000000    14.393449
   W   B
  19   8
Direct
    0.448890     0.316122     0.485630 
    0.713217     0.541766     0.582456 
    0.597783     0.331722     0.497307 
    0.603951     0.550653     0.330867 
    0.515918     0.411483     0.359767 
    0.579617     0.497316     0.505482 
    0.523395     0.645163     0.443533 
    0.415368     0.732595     0.534785 
    0.374214     0.653874     0.402068 
    0.335682     0.425410     0.365518 
    0.503372     0.406033     0.626973 
    0.424739     0.495711     0.488982 
    0.380443     0.493760     0.682229 
    0.326591     0.608744     0.573079 
    0.272439     0.457707     0.549375 
    0.482067     0.601639     0.617883 
    0.303114     0.318939     0.476801 
    0.606575     0.529007     0.689683 
    0.452899     0.538462     0.303785 
    0.649913     0.415309     0.608005 
    0.649395     0.423667     0.390227 
    0.657584     0.612254     0.463002 
    0.699620     0.514791     0.427839 
    0.610254     0.629608     0.568878 
    0.375663     0.382345     0.589150 
    0.299268     0.541818     0.437841 
    0.698030     0.424106     0.498857 
EA40234 17.258 14.692 14.044 90.00 90.00 90.00 Sym.group:    0
1.0
   17.258238     0.000000     0.000000
    0.000000    14.691600     0.000000
    0.000000     0.000000    14.043518
   W   B
  17  10
Direct
    0.588996     0.501298     0.491173 
    0.499333     0.656034     0.473778 
    0.538287     0.564279     0.653335 
    0.648541     0.493583     0.309750 
    0.673780     0.374527     0.424633 
    0.427323     0.498027     0.506245 
    0.276088     0.587163     0.579546 
    0.507769     0.387453     0.373455 
    0.643073     0.396376     0.641322 
    0.287647     0.432025     0.518309 
    0.363388     0.486446     0.675764 
    0.508482     0.553611     0.327917 
    0.372863     0.454468     0.340288 
    0.640273     0.671814     0.537985 
    0.721846     0.571705     0.446110 
    0.407116     0.643329     0.638335 
    0.502618     0.401287     0.650729 
    0.612083     0.630204     0.389904 
    0.392415     0.602561     0.379639 
    0.388723     0.354192     0.454094 
    0.310485     0.556715     0.431752 
    0.573447     0.342239     0.518361 
    0.472852     0.338920     0.513826 
    0.390601     0.357377     0.578085 
    0.668576     0.539235     0.617028 
    0.719018     0.459697     0.543005 
    0.364377     0.645439     0.485631 
EA40589 15.413 15.911 14.984 90.00 90.00 90.00 Sym.group:    0
1.0
   15.412866     0.000000     0.000000
    0.000000    15.910661     0.000000
    0.000000     0.000000    14.983883
   W   B
  19   7
Direct
    0.525158     0.481580     0.330552 
    0.358409     0.443180     0.342874 
    0.534899     0.365833     0.594289 
    0.515611     0.351194     0.425582 
    0.670745     0.400517     0.369937 
    0.607448     0.501194     0.496084 
    0.765350     0.434116     0.488120 
    0.685987     0.420332     0.632760 
    0.559073     0.624098     0.402611 
    0.735524     0.600886     0.460868 
    0.641932     0.700750     0.524620 
    0.528302     0.512149     0.668970 
    0.680309     0.583065     0.629520 
    0.496900     0.643151     0.582092 
    0.370581     0.433471     0.634942 
    0.297438     0.578236     0.417691 
    0.438135     0.502917     0.495327 
    0.373426     0.584367     0.676959 
    0.285898     0.417080     0.475663 
    0.403819     0.349906     0.524265 
    0.647272     0.352004     0.503435 
    0.374279     0.325306     0.417033 
    0.421562     0.576003     0.359311 
    0.355401     0.633077     0.537851 
    0.300979     0.539535     0.558352 
    0.425563     0.646053     0.450294 
EA40942 16.348 14.724 14.523 90.00 90.00 90.00 Sym.group:    0
1.0
   16.347785     0.000000     0.000000
    0.000000    14.724271     0.000000
    0.000000     0.000000    14.523419
   W   B
  20   6
Direct
    0.427719     0.646617     0.408050 
    0.512812     0.516589     0.334707 
    0.350233     0.703708     0.551362 
    0.293007     0.577623     0.455721 
    0.355159     0.551334     0.633518 
    0.266285     0.435068     0.553633 
    0.431107     0.476979     0.492255 
    0.381804     0.356362     0.619655 
    0.492895     0.641973     0.571680 
    0.435585     0.370401     0.353602 
    0.501457     0.465588     0.662925 
    0.562612     0.336812     0.507773 
    0.641558     0.410466     0.371802 
    0.591787     0.509199     0.508562 
    0.727729     0.384709     0.502712 
    0.734355     0.575439     0.459525 
    0.583838     0.676118     0.420473 
    0.598703     0.599058     0.696963 
    0.724509     0.553934     0.624352 
    0.646293     0.406588     0.644939 
    0.373089     0.509700     0.344901 
    0.314701     0.432448     0.400889 
    0.434133     0.304813     0.491427 
    0.341715     0.344849     0.468114 
    0.638478     0.653587     0.557668 
    0.638435     0.560039     0.362791 
EA41511 17.068 15.614 13.915 90.00 90.00 90.00 Sym.group:    0
1.0
   17.067953     0.000000     0.000000
    0.000000    15.614193     0.000000
    0.000000     0.000000    13.914615
   W   B
  17   7
Direct
    0.608812     0.529128     0.452802 
    0.708030     0.541780     0.601270 
    0.590822     0.451129     0.625992 
    0.523204     0.610864     0.606600 
    0.481124     0.613054     0.380342 
    0.386325     0.651628     0.516243 
    0.497654     0.749900     0.490922 
    0.439405     0.341497     0.404877 
    0.452826     0.491346     0.500866 
    0.541579     0.430174     0.336462 
    0.351661     0.429161     0.659435 
    0.296962     0.515612     0.524413 
    0.753721     0.515808     0.446742 
    0.334235     0.575274     0.364501 
    0.463200     0.347279     0.600034 
    0.586490     0.348752     0.486397 
    0.619536     0.685767     0.500284 
    0.397271     0.559861     0.637262 
    0.344403     0.438508     0.405739 
    0.421491     0.478714     0.332534 
    0.468078     0.486572     0.669825 
    0.683881     0.408229     0.410583 
    0.352373     0.384560     0.513882 
    0.696916     0.415405     0.531993 
EA41543 16.045 15.416 16.058 90.00 90.00 90.00 Sym.group:    0
1.0
   16.044783     0.000000     0.000000
    0.000000    15.416497     0.000000
    0.000000     0.000000    16.058240
   W   B
  19  10
Direct
    0.563208     0.373468     0.372587 
    0.487953     0.517724     0.349522 
    0.626993     0.273832     0.480064 
    0.702586     0.408391     0.448009 
    0.673967     0.408396     0.597993 
    0.771512     0.526944     0.546162 
    0.573459     0.507444     0.502621 
    0.660771     0.572208     0.633035 
    0.586706     0.639066     0.404820 
    0.458020     0.677397     0.512853 
    0.414548     0.659968     0.372778 
    0.409439     0.510200     0.497595 
    0.485596     0.419346     0.639898 
    0.290288     0.624365     0.474808 
    0.259288     0.460681     0.460488 
    0.494857     0.583343     0.637784 
    0.328564     0.390938     0.602428 
    0.473371     0.344947     0.498479 
    0.365218     0.399888     0.360006 
    0.628274     0.506277     0.360624 
    0.698773     0.554360     0.426405 
    0.590731     0.658452     0.545985 
    0.683383     0.625642     0.506955 
    0.338911     0.539702     0.370402 
    0.374057     0.513196     0.647746 
    0.289798     0.527995     0.582206 
    0.339552     0.347895     0.479854 
    0.361436     0.611643     0.595910 
    0.568739     0.316295     0.591980 
EA41890 17.355 15.397 14.009 90.00 90.00 90.00 Sym.group:    0
1.0
   17.355273     0.000000     0.000000
    0.000000    15.397250     0.000000
    0.000000     0.000000    14.008899
   W   B
  19  10
Direct
    0.558505     0.389259     0.351658 
    0.488042     0.532515     0.324348 
    0.623335     0.282543     0.461081 
    0.692825     0.425714     0.428760 
    0.677060     0.410294     0.601012 
    0.750398     0.542071     0.550113 
    0.568522     0.508561     0.500023 
    0.637766     0.564003     0.654768 
    0.569641     0.650196     0.400910 
    0.447463     0.676676     0.523037 
    0.402059     0.664628     0.364998 
    0.418427     0.504485     0.499769 
    0.498017     0.424453     0.655821 
    0.299442     0.609078     0.474405 
    0.280561     0.441285     0.448795 
    0.487611     0.588283     0.667743 
    0.353359     0.374675     0.615836 
    0.482226     0.338098     0.497109 
    0.395836     0.395785     0.344830 
    0.618393     0.523279     0.339088 
    0.679045     0.571701     0.418150 
    0.570650     0.656448     0.562203 
    0.659590     0.632664     0.518118 
    0.353203     0.531352     0.355464 
    0.383846     0.499894     0.667647 
    0.305860     0.504099     0.592245 
    0.357561     0.334114     0.472977 
    0.362464     0.597270     0.612981 
    0.578294     0.326576     0.596111 
EA42227 17.396 15.309 13.991 90.00 90.00 90.00 Sym.group:    0
1.0
   17.395781     0.000000     0.000000
    0.000000    15.309064     0.000000
    0.000000     0.000000    13.991187
   W   B
  20   9
Direct
    0.430327     0.388027     0.352878 
    0.508151     0.541170     0.334407 
    0.303065     0.422513     0.441060 
    0.350504     0.409005     0.619788 
    0.431547     0.507794     0.499135 
    0.417493     0.653124     0.403188 
    0.536392     0.661892     0.516157 
    0.590271     0.679898     0.353126 
    0.590006     0.496256     0.503041 
    0.505954     0.407204     0.655567 
    0.693313     0.630621     0.450432 
    0.722101     0.458295     0.438380 
    0.492351     0.568095     0.666213 
    0.645463     0.367020     0.621730 
    0.514919     0.334266     0.495437 
    0.596922     0.405713     0.334631 
    0.644271     0.628668     0.632718 
    0.658549     0.310614     0.449339 
    0.724828     0.500308     0.616030 
    0.362333     0.515927     0.295274 
    0.311397     0.565126     0.429766 
    0.418037     0.654860     0.570514 
    0.335214     0.626634     0.523018 
    0.642079     0.542684     0.346068 
    0.607640     0.498249     0.681945 
    0.424638     0.304289     0.601634 
    0.362981     0.570238     0.625411 
    0.295253     0.526480     0.546835 
    0.383997     0.325031     0.496278 
EA42573 17.346 15.472 14.272 90.00 90.00 90.00 Sym.group:    0
1.0
   17.346223     0.000000     0.000000
    0.000000    15.472115     0.000000
    0.000000     0.000000    14.271690
   W   B
  19  10
Direct
    0.480179     0.545300     0.338792 
    0.682979     0.417899     0.445992 
    0.738221     0.528277     0.567061 
    0.571970     0.515767     0.488195 
    0.618626     0.563648     0.663146 
    0.594236     0.657477     0.399183 
    0.448906     0.659138     0.488914 
    0.419896     0.492616     0.508323 
    0.522670     0.434626     0.645299 
    0.288453     0.592443     0.481709 
    0.279908     0.431463     0.460405 
    0.361662     0.370982     0.617626 
    0.490152     0.336953     0.495455 
    0.407307     0.392323     0.345559 
    0.359734     0.630330     0.623846 
    0.558404     0.692937     0.584489 
    0.631314     0.530713     0.299664 
    0.393630     0.494284     0.710555 
    0.558749     0.391465     0.344490 
    0.689714     0.565908     0.430195 
    0.662629     0.630715     0.524658 
    0.346938     0.513644     0.358692 
    0.301629     0.497710     0.598382 
    0.365973     0.332371     0.471809 
    0.607080     0.349118     0.557845 
    0.373105     0.615662     0.374409 
    0.487803     0.576252     0.621771 
    0.607471     0.303364     0.452255 
    0.650664     0.436618     0.601280 
EA43049 16.808 14.232 14.065 90.00 90.00 90.00 Sym.group:    0
1.0
   16.808112     0.000000     0.000000
    0.000000    14.232183     0.000000
    0.000000     0.000000    14.064880
   W   B
  16  10
Direct
    0.278375     0.477987     0.419832 
    0.265745     0.458284     0.600380 
    0.407714     0.492063     0.503607 
    0.469500     0.398129     0.361020 
    0.495332     0.457244     0.659213 
    0.363233     0.565519     0.662709 
    0.513509     0.622199     0.596577 
    0.724302     0.474253     0.547513 
    0.575570     0.494511     0.482625 
    0.670497     0.325891     0.490010 
    0.514541     0.326035     0.521649 
    0.483988     0.621121     0.402941 
    0.686871     0.465651     0.367046 
    0.360172     0.321424     0.456795 
    0.379439     0.345367     0.627075 
    0.384495     0.536374     0.301948 
    0.390812     0.651516     0.529893 
    0.346630     0.617574     0.425167 
    0.619840     0.519726     0.644176 
    0.601591     0.657628     0.480282 
    0.687950     0.598246     0.458237 
    0.298946     0.593940     0.526002 
    0.619443     0.402545     0.613438 
    0.650429     0.605973     0.571168 
    0.618450     0.607000     0.372828 
    0.592627     0.363801     0.377871 
EA43575 16.643 15.503 14.399 90.00 90.00 90.00 Sym.group:    0
1.0
   16.642529     0.000000     0.000000
    0.000000    15.503051     0.000000
    0.000000     0.000000    14.398865
   W   B
  16   6
Direct
    0.390976     0.500796     0.438546 
    0.392281     0.665578     0.509321 
    0.542341     0.542688     0.347051 
    0.542963     0.656186     0.581733 
    0.679999     0.559832     0.574879 
    0.703095     0.409482     0.517401 
    0.605180     0.390086     0.636326 
    0.547464     0.488639     0.515659 
    0.320157     0.357051     0.458703 
    0.434748     0.535045     0.617200 
    0.478479     0.370651     0.385947 
    0.446223     0.356041     0.552609 
    0.621515     0.396048     0.358436 
    0.590498     0.294819     0.491539 
    0.511163     0.708552     0.420899 
    0.579442     0.548702     0.701413 
    0.610069     0.616066     0.455142 
    0.264627     0.471299     0.501359 
    0.310151     0.548756     0.557912 
    0.339503     0.442430     0.579354 
    0.659726     0.523296     0.424422 
    0.429400     0.617955     0.374150 
EA43915 16.613 15.644 14.273 90.00 90.00 90.00 Sym.group:    0
1.0
   16.613427     0.000000     0.000000
    0.000000    15.644322     0.000000
    0.000000     0.000000    14.272914
   W   B
  16   6
Direct
    0.390539     0.502965     0.438377 
    0.390749     0.662957     0.519243 
    0.541298     0.550030     0.345798 
    0.541679     0.653055     0.589112 
    0.680138     0.560297     0.576083 
    0.698989     0.410227     0.511488 
    0.601345     0.384510     0.632354 
    0.548151     0.491582     0.513097 
    0.323524     0.356209     0.453817 
    0.435456     0.529345     0.619559 
    0.481772     0.375312     0.381151 
    0.451489     0.355858     0.548796 
    0.622519     0.404655     0.353245 
    0.591110     0.292793     0.487032 
    0.507833     0.710917     0.429461 
    0.581958     0.540585     0.703075 
    0.608543     0.620174     0.457560 
    0.265759     0.465867     0.500723 
    0.309577     0.542876     0.560119 
    0.341406     0.437512     0.578359 
    0.659276     0.530294     0.422383 
    0.426890     0.621976     0.379171 
EA44047 16.694 14.719 14.052 90.00 90.00 90.00 Sym.group:    0
1.0
   16.694390     0.000000     0.000000
    0.000000    14.719201     0.000000
    0.000000     0.000000    14.051785
   W   B
  16  10
Direct
    0.467823     0.636996     0.565207 
    0.512081     0.547542     0.318238 
    0.583587     0.674949     0.434652 
    0.442565     0.687569     0.382116 
    0.635333     0.314373     0.506758 
    0.567847     0.502922     0.503357 
    0.714937     0.574953     0.512994 
    0.577260     0.397337     0.653804 
    0.485784     0.342180     0.489654 
    0.407405     0.509884     0.453973 
    0.328038     0.601546     0.619751 
    0.428123     0.465801     0.632447 
    0.348618     0.338606     0.556904 
    0.623439     0.663567     0.609025 
    0.598472     0.383836     0.353825 
    0.659065     0.545126     0.342621 
    0.692794     0.436055     0.450684 
    0.547320     0.545016     0.660354 
    0.689875     0.437906     0.573304 
    0.280359     0.547712     0.481089 
    0.291332     0.435189     0.452383 
    0.342147     0.642915     0.477568 
    0.295912     0.469820     0.568337 
    0.369460     0.372813     0.407890 
    0.648490     0.521397     0.642966 
    0.461937     0.403991     0.350099 
