EA15219 12.043 12.547 12.013 90.00 90.00 90.00 Sym.group:    0
1.0
   12.042555     0.000000     0.000000
    0.000000    12.547156     0.000000
    0.000000     0.000000    12.012767
   W
   6
Direct
    0.352590     0.527313     0.505586 
    0.494057     0.400881     0.600269 
    0.458711     0.408930     0.399026 
    0.503256     0.609645     0.589449 
    0.544933     0.583490     0.393875 
    0.646452     0.469741     0.511796 
EA829  13.169 12.159 12.888 90.00 90.00 90.00 Sym.group:    0
1.0
   13.168909     0.000000     0.000000
    0.000000    12.158912     0.000000
    0.000000     0.000000    12.888418
   W
   7
Direct
    0.496412     0.656487     0.540521 
    0.640453     0.561943     0.477892 
    0.356703     0.553710     0.476906 
    0.501312     0.503447     0.369938 
    0.497283     0.480277     0.628846 
    0.410436     0.369380     0.500601 
    0.597401     0.374755     0.505295 
EA15125 12.954 12.001 12.976 90.00 90.00 90.00 Sym.group:    0
1.0
   12.953790     0.000000     0.000000
    0.000000    12.000742     0.000000
    0.000000     0.000000    12.976198
   W
   8
Direct
    0.499812     0.500211     0.603839 
    0.343408     0.416790     0.530577 
    0.645050     0.395764     0.531185 
    0.489072     0.313082     0.468745 
    0.499427     0.500497     0.395846 
    0.353979     0.603825     0.470548 
    0.511902     0.687353     0.529573 
    0.657349     0.582479     0.469688 
EA15092 13.794 12.157 12.088 90.00 90.00 90.00 Sym.group:    0
1.0
   13.793531     0.000000     0.000000
    0.000000    12.156707     0.000000
    0.000000     0.000000    12.088333
   W
   9
Direct
    0.500328     0.540100     0.383735 
    0.343364     0.461713     0.607498 
    0.343213     0.612009     0.479489 
    0.343893     0.426209     0.412294 
    0.499879     0.379138     0.523196 
    0.499680     0.580291     0.593316 
    0.656223     0.462833     0.607828 
    0.656392     0.612651     0.478018 
    0.657027     0.425055     0.414626 
EA15043 12.716 14.203 12.936 90.00 90.00 90.00 Sym.group:    0
1.0
   12.715962     0.000000     0.000000
    0.000000    14.202656     0.000000
    0.000000     0.000000    12.936100
   W
  10
Direct
    0.499754     0.472006     0.610730 
    0.495056     0.335326     0.500226 
    0.329479     0.567200     0.407972 
    0.318331     0.419660     0.500068 
    0.329577     0.567166     0.592023 
    0.679336     0.417104     0.498933 
    0.499309     0.472563     0.389053 
    0.673264     0.564115     0.408661 
    0.674025     0.563212     0.591768 
    0.501869     0.621648     0.500566 
