EA7    14.539 12.010 12.477 90.00 90.00 90.00 Sym.group:    0
1.0
   14.538855     0.000000     0.000000
    0.000000    12.010022     0.000000
    0.000000     0.000000    12.476951
   W
  10
Direct
    0.471401     0.504866     0.637406 
    0.461138     0.330832     0.526501 
    0.446763     0.436011     0.362338 
    0.541661     0.607320     0.372487 
    0.512815     0.682533     0.571571 
    0.615392     0.386258     0.596968 
    0.321006     0.447174     0.531094 
    0.604325     0.421602     0.389090 
    0.378456     0.618293     0.477182 
    0.647044     0.565111     0.535361 
EA415  11.804 12.530 11.757 90.00 90.00 90.00 Sym.group:    0
1.0
   11.803542     0.000000     0.000000
    0.000000    12.530161     0.000000
    0.000000     0.000000    11.756529
   W
   6
Direct
    0.542024     0.592088     0.398118 
    0.505622     0.601158     0.600406 
    0.348667     0.526694     0.513367 
    0.496252     0.390656     0.590903 
    0.456086     0.418417     0.389183 
    0.651349     0.470986     0.508022 
EA468  14.060 13.314 13.529 90.00 90.00 90.00 Sym.group:    0
1.0
   14.060298     0.000000     0.000000
    0.000000    13.314077     0.000000
    0.000000     0.000000    13.528941
   W
  10
Direct
    0.504769     0.631356     0.497858 
    0.502604     0.331861     0.493764 
    0.661036     0.556674     0.594948 
    0.337627     0.408922     0.508177 
    0.343503     0.568232     0.592134 
    0.665566     0.413502     0.492379 
    0.494290     0.483761     0.390867 
    0.504376     0.474704     0.604749 
    0.657070     0.571030     0.410912 
    0.329160     0.559959     0.414212 
EA723  14.203 12.845 12.098 90.00 90.00 90.00 Sym.group:    0
1.0
   14.203063     0.000000     0.000000
    0.000000    12.844654     0.000000
    0.000000     0.000000    12.097914
   W
   9
Direct
    0.651103     0.521384     0.387483 
    0.347872     0.581005     0.575774 
    0.347627     0.519499     0.388610 
    0.652236     0.581061     0.573397 
    0.651964     0.397851     0.538134 
    0.348468     0.397522     0.535117 
    0.501793     0.413037     0.419525 
    0.500072     0.477984     0.621227 
    0.498865     0.610657     0.460735 
EA1109 12.058 12.547 12.313 90.00 90.00 90.00 Sym.group:    0
1.0
   12.057712     0.000000     0.000000
    0.000000    12.547238     0.000000
    0.000000     0.000000    12.313414
   W
   6
Direct
    0.548164     0.544198     0.374599 
    0.503039     0.628466     0.557235 
    0.462270     0.381737     0.434308 
    0.356518     0.537828     0.490089 
    0.485216     0.426052     0.618133 
    0.644794     0.481720     0.525636 
EA1357 11.970 11.996 12.548 90.00 90.00 90.00 Sym.group:    0
1.0
   11.970116     0.000000     0.000000
    0.000000    11.995826     0.000000
    0.000000     0.000000    12.548038
   W
   6
Direct
    0.524497     0.493070     0.636071 
    0.352359     0.526243     0.505420 
    0.469855     0.357089     0.510483 
    0.648849     0.503875     0.492649 
    0.508574     0.472816     0.364590 
    0.495865     0.646906     0.490786 
EA1578 12.406 11.976 12.234 90.00 90.00 90.00 Sym.group:    0
1.0
   12.406035     0.000000     0.000000
    0.000000    11.975856     0.000000
    0.000000     0.000000    12.233960
   W
   6
Direct
    0.354492     0.500307     0.502287 
    0.510084     0.372737     0.567344 
    0.481296     0.579616     0.617160 
    0.481038     0.437236     0.373591 
    0.527892     0.622412     0.429964 
    0.645198     0.487691     0.509653 
EA1815 12.681 12.167 12.335 90.00 90.00 90.00 Sym.group:    0
1.0
   12.680658     0.000000     0.000000
    0.000000    12.166947     0.000000
    0.000000     0.000000    12.334749
   W
   6
Direct
    0.469597     0.417942     0.389024 
    0.533632     0.602521     0.409171 
    0.357841     0.512091     0.508172 
    0.641315     0.476834     0.507879 
    0.494294     0.601819     0.598327 
    0.503321     0.388793     0.587427 
EA2043 12.685 12.188 12.677 90.00 90.00 90.00 Sym.group:    0
1.0
   12.684673     0.000000     0.000000
    0.000000    12.188251     0.000000
    0.000000     0.000000    12.676871
   W
   6
Direct
    0.361958     0.472959     0.526063 
    0.449006     0.550288     0.383981 
    0.492183     0.629732     0.559256 
    0.542761     0.386623     0.427450 
    0.517513     0.415152     0.607964 
    0.636579     0.545246     0.495287 
EA2277 12.302 12.436 12.241 90.00 90.00 90.00 Sym.group:    0
1.0
   12.302240     0.000000     0.000000
    0.000000    12.436360     0.000000
    0.000000     0.000000    12.240577
   W
   6
Direct
    0.434392     0.386116     0.445114 
    0.462001     0.446102     0.624931 
    0.631160     0.449853     0.535075 
    0.375735     0.571969     0.481571 
    0.557462     0.514928     0.371430 
    0.539250     0.631031     0.541880 
EA2352 14.195 13.051 13.104 90.00 90.00 90.00 Sym.group:    0
1.0
   14.194597     0.000000     0.000000
    0.000000    13.051344     0.000000
    0.000000     0.000000    13.103770
   W
  10
Direct
    0.478158     0.658989     0.435405 
    0.480239     0.364870     0.394457 
    0.369375     0.584235     0.566393 
    0.372221     0.397280     0.539862 
    0.371373     0.514754     0.392448 
    0.478115     0.477236     0.669101 
    0.581753     0.517423     0.380820 
    0.578789     0.597364     0.573776 
    0.580461     0.387788     0.545989 
    0.709516     0.500061     0.501750 
EA2597 14.195 13.051 13.104 90.00 90.00 90.00 Sym.group:    0
1.0
   14.194597     0.000000     0.000000
    0.000000    13.051344     0.000000
    0.000000     0.000000    13.103770
   W
  10
Direct
    0.478158     0.658989     0.435405 
    0.480239     0.364870     0.394457 
    0.369375     0.584235     0.566393 
    0.372221     0.397280     0.539862 
    0.371373     0.514754     0.392448 
    0.478115     0.477236     0.669101 
    0.581753     0.517423     0.380820 
    0.578789     0.597364     0.573776 
    0.580461     0.387788     0.545989 
    0.709516     0.500061     0.501750 
EA2987 12.003 12.294 12.296 90.00 90.00 90.00 Sym.group:    0
1.0
   12.002891     0.000000     0.000000
    0.000000    12.294173     0.000000
    0.000000     0.000000    12.295589
   W
   6
Direct
    0.649465     0.485317     0.513643 
    0.466642     0.398569     0.408343 
    0.538616     0.580062     0.389966 
    0.501717     0.400827     0.600063 
    0.493477     0.612711     0.584877 
    0.350084     0.522513     0.503106 
EA3229 11.869 11.832 12.322 90.00 90.00 90.00 Sym.group:    0
1.0
   11.869403     0.000000     0.000000
    0.000000    11.832185     0.000000
    0.000000     0.000000    12.321608
   W
   6
Direct
    0.499421     0.387415     0.409083 
    0.537386     0.409793     0.605243 
    0.349703     0.472680     0.491358 
    0.650555     0.518959     0.489520 
    0.462344     0.598781     0.597028 
    0.500592     0.612373     0.407769 
EA3318 13.653 14.177 12.328 90.00 90.00 90.00 Sym.group:    0
1.0
   13.653133     0.000000     0.000000
    0.000000    14.177050     0.000000
    0.000000     0.000000    12.328070
   W
  10
Direct
    0.330861     0.579960     0.497798 
    0.339919     0.435301     0.597399 
    0.341757     0.429032     0.405248 
    0.666308     0.582996     0.497440 
    0.663090     0.438887     0.597474 
    0.661399     0.433270     0.404996 
    0.503023     0.378401     0.503373 
    0.498672     0.525716     0.383798 
    0.499211     0.530682     0.615949 
    0.495760     0.665755     0.496524 
EA3557 13.653 14.177 12.328 90.00 90.00 90.00 Sym.group:    0
1.0
   13.653133     0.000000     0.000000
    0.000000    14.177050     0.000000
    0.000000     0.000000    12.328070
   W
  10
Direct
    0.330861     0.420040     0.497798 
    0.339919     0.564699     0.597399 
    0.341757     0.570968     0.405248 
    0.666308     0.417004     0.497440 
    0.663090     0.561113     0.597474 
    0.661399     0.566730     0.404996 
    0.503023     0.621599     0.503373 
    0.498672     0.474284     0.383798 
    0.499211     0.469318     0.615949 
    0.495760     0.334245     0.496524 
EA3792 13.653 14.177 12.328 90.00 90.00 90.00 Sym.group:    0
1.0
   13.653133     0.000000     0.000000
    0.000000    14.177050     0.000000
    0.000000     0.000000    12.328070
   W
  10
Direct
    0.669139     0.579960     0.497798 
    0.660081     0.435301     0.597399 
    0.658243     0.429032     0.405248 
    0.333692     0.582996     0.497440 
    0.336910     0.438887     0.597474 
    0.338601     0.433270     0.404996 
    0.496977     0.378401     0.503373 
    0.501328     0.525716     0.383798 
    0.500789     0.530682     0.615949 
    0.504240     0.665755     0.496524 
EA4035 13.653 14.177 12.328 90.00 90.00 90.00 Sym.group:    0
1.0
   13.653133     0.000000     0.000000
    0.000000    14.177050     0.000000
    0.000000     0.000000    12.328070
   W
  10
Direct
    0.330861     0.420040     0.497798 
    0.339919     0.564699     0.597399 
    0.341757     0.570968     0.405248 
    0.666308     0.417004     0.497440 
    0.663090     0.561113     0.597474 
    0.661399     0.566730     0.404996 
    0.503023     0.621599     0.503373 
    0.498672     0.474284     0.383798 
    0.499211     0.469318     0.615949 
    0.495760     0.334245     0.496524 
EA4402 12.039 11.772 11.825 90.00 90.00 90.00 Sym.group:    0
1.0
   12.038781     0.000000     0.000000
    0.000000    11.772111     0.000000
    0.000000     0.000000    11.824718
   W
   6
Direct
    0.495687     0.393718     0.601924 
    0.648853     0.522370     0.508720 
    0.534144     0.397452     0.400951 
    0.503019     0.614342     0.592036 
    0.467158     0.587084     0.386389 
    0.351139     0.485033     0.509979 
EA4661 12.826 12.099 12.266 90.00 90.00 90.00 Sym.group:    0
1.0
   12.825579     0.000000     0.000000
    0.000000    12.098507     0.000000
    0.000000     0.000000    12.265755
   W
   6
Direct
    0.640222     0.513268     0.486455 
    0.534095     0.429748     0.617986 
    0.493991     0.377794     0.426031 
    0.360054     0.478240     0.498033 
    0.502700     0.588777     0.389565 
    0.468937     0.612172     0.581930 
EA4751 13.216 13.584 12.184 90.00 90.00 90.00 Sym.group:    0
1.0
   13.216002     0.000000     0.000000
    0.000000    13.583562     0.000000
    0.000000     0.000000    12.184373
   W
  10
Direct
    0.327720     0.585577     0.500096 
    0.333258     0.432955     0.597623 
    0.332322     0.431462     0.403605 
    0.499276     0.528476     0.382157 
    0.501386     0.531205     0.618117 
    0.502778     0.672917     0.498133 
    0.665312     0.432149     0.598546 
    0.673978     0.583948     0.497288 
    0.664513     0.427734     0.403163 
    0.499456     0.373577     0.501273 
EA5109 11.819 12.327 12.278 90.00 90.00 90.00 Sym.group:    0
1.0
   11.819093     0.000000     0.000000
    0.000000    12.326735     0.000000
    0.000000     0.000000    12.277535
   W
   6
Direct
    0.347854     0.502816     0.501783 
    0.481641     0.498342     0.640529 
    0.530643     0.362162     0.509279 
    0.509268     0.640691     0.488684 
    0.651987     0.518641     0.498103 
    0.478607     0.477348     0.361623 
EA5360 12.098 11.827 12.347 90.00 90.00 90.00 Sym.group:    0
1.0
   12.098440     0.000000     0.000000
    0.000000    11.826695     0.000000
    0.000000     0.000000    12.347137
   W
   6
Direct
    0.649411     0.486866     0.509099 
    0.505734     0.387327     0.590120 
    0.470109     0.406330     0.396109 
    0.534690     0.599355     0.402235 
    0.489322     0.603127     0.598856 
    0.350735     0.516995     0.503581 
EA5618 12.052 11.986 11.957 90.00 90.00 90.00 Sym.group:    0
1.0
   12.051880     0.000000     0.000000
    0.000000    11.986396     0.000000
    0.000000     0.000000    11.957432
   W
   6
Direct
    0.352556     0.520333     0.482087 
    0.502846     0.385743     0.410252 
    0.534533     0.600659     0.597451 
    0.506100     0.606810     0.401315 
    0.648197     0.469720     0.498273 
    0.455768     0.416735     0.610623 
EA5859 12.564 12.254 12.308 90.00 90.00 90.00 Sym.group:    0
1.0
   12.564169     0.000000     0.000000
    0.000000    12.253996     0.000000
    0.000000     0.000000    12.308270
   W
   6
Direct
    0.629118     0.561701     0.495519 
    0.559026     0.395495     0.577477 
    0.366257     0.455770     0.486592 
    0.454186     0.553322     0.620880 
    0.520202     0.412225     0.388851 
    0.471211     0.621487     0.430681 
EA6081 11.818 11.590 11.918 90.00 90.00 90.00 Sym.group:    0
1.0
   11.818134     0.000000     0.000000
    0.000000    11.590432     0.000000
    0.000000     0.000000    11.918313
   W
   6
Direct
    0.444835     0.451664     0.628137 
    0.399914     0.612911     0.481509 
    0.400715     0.403716     0.444085 
    0.617028     0.411135     0.533036 
    0.578477     0.621205     0.547431 
    0.559032     0.499370     0.365802 
EA6326 12.193 11.790 12.157 90.00 90.00 90.00 Sym.group:    0
1.0
   12.192549     0.000000     0.000000
    0.000000    11.789908     0.000000
    0.000000     0.000000    12.156534
   W
   6
Direct
    0.364027     0.528025     0.544279 
    0.490299     0.359786     0.550794 
    0.433566     0.468658     0.375965 
    0.537721     0.571005     0.620263 
    0.634793     0.445570     0.472183 
    0.539594     0.626956     0.436515 
EA6556 12.008 12.364 11.800 90.00 90.00 90.00 Sym.group:    0
1.0
   12.008341     0.000000     0.000000
    0.000000    12.363843     0.000000
    0.000000     0.000000    11.800391
   W
   6
Direct
    0.505452     0.601079     0.600542 
    0.349874     0.485416     0.504020 
    0.468247     0.593949     0.395885 
    0.650263     0.516934     0.508062 
    0.491416     0.394844     0.596153 
    0.534748     0.407778     0.395339 
EA6820 12.383 11.739 11.987 90.00 90.00 90.00 Sym.group:    0
1.0
   12.382679     0.000000     0.000000
    0.000000    11.739443     0.000000
    0.000000     0.000000    11.987447
   W
   6
Direct
    0.461624     0.610664     0.412844 
    0.509132     0.600166     0.605773 
    0.355431     0.474854     0.510622 
    0.528845     0.420868     0.381681 
    0.645469     0.513194     0.504675 
    0.499499     0.380254     0.584405 
EA7065 12.826 12.253 12.099 90.00 90.00 90.00 Sym.group:    0
1.0
   12.826143     0.000000     0.000000
    0.000000    12.253403     0.000000
    0.000000     0.000000    12.099032
   W
   6
Direct
    0.505725     0.624098     0.428565 
    0.638670     0.479033     0.487490 
    0.534854     0.563823     0.620856 
    0.363346     0.534646     0.495358 
    0.460866     0.387612     0.578899 
    0.496539     0.410789     0.388831 
EA7300 12.328 12.158 12.532 90.00 90.00 90.00 Sym.group:    0
1.0
   12.328457     0.000000     0.000000
    0.000000    12.158186     0.000000
    0.000000     0.000000    12.532299
   W
   6
Direct
    0.471695     0.413226     0.605547 
    0.353442     0.517962     0.491077 
    0.507682     0.382011     0.420607 
    0.530283     0.600134     0.595444 
    0.491415     0.594492     0.397502 
    0.645483     0.492176     0.489823 
EA7545 12.234 12.336 12.259 90.00 90.00 90.00 Sym.group:    0
1.0
   12.234249     0.000000     0.000000
    0.000000    12.335918     0.000000
    0.000000     0.000000    12.259157
   W
   6
Direct
    0.471155     0.398828     0.406009 
    0.351663     0.510148     0.503740 
    0.488502     0.612037     0.585486 
    0.648416     0.487188     0.507769 
    0.530883     0.586215     0.393104 
    0.509381     0.405584     0.603892 
EA7788 12.499 11.978 12.310 90.00 90.00 90.00 Sym.group:    0
1.0
   12.499112     0.000000     0.000000
    0.000000    11.977817     0.000000
    0.000000     0.000000    12.309661
   W
   6
Direct
    0.640378     0.517733     0.530655 
    0.502780     0.360767     0.540362 
    0.550410     0.470024     0.371973 
    0.483730     0.560788     0.626265 
    0.462525     0.627780     0.445377 
    0.360177     0.462907     0.485369 
EA8024 12.020 11.604 12.187 90.00 90.00 90.00 Sym.group:    0
1.0
   12.020446     0.000000     0.000000
    0.000000    11.604186     0.000000
    0.000000     0.000000    12.187237
   W
   6
Direct
    0.509978     0.598720     0.394477 
    0.473313     0.610003     0.592127 
    0.650791     0.509557     0.491451 
    0.348436     0.488875     0.498642 
    0.486296     0.382299     0.413832 
    0.531186     0.410546     0.609471 
EA8257 11.901 12.276 11.968 90.00 90.00 90.00 Sym.group:    0
1.0
   11.901067     0.000000     0.000000
    0.000000    12.276220     0.000000
    0.000000     0.000000    11.967808
   W
   6
Direct
    0.350881     0.483530     0.502450 
    0.485092     0.359815     0.466805 
    0.525443     0.480655     0.641279 
    0.648062     0.487729     0.489538 
    0.510764     0.550764     0.364518 
    0.479759     0.637507     0.535410 
EA8501 12.194 11.561 11.742 90.00 90.00 90.00 Sym.group:    0
1.0
   12.194367     0.000000     0.000000
    0.000000    11.560836     0.000000
    0.000000     0.000000    11.742262
   W
   6
Direct
    0.487700     0.608160     0.396311 
    0.449303     0.601310     0.596084 
    0.359246     0.452666     0.490937 
    0.642831     0.535624     0.485987 
    0.546989     0.423493     0.617797 
    0.513931     0.378747     0.412884 
EA8748 11.307 11.966 11.863 90.00 90.00 90.00 Sym.group:    0
1.0
   11.307136     0.000000     0.000000
    0.000000    11.966092     0.000000
    0.000000     0.000000    11.863398
   W
   6
Direct
    0.340171     0.514487     0.497166 
    0.510060     0.415375     0.382501 
    0.466409     0.384900     0.582978 
    0.489930     0.623332     0.423935 
    0.660388     0.488198     0.492170 
    0.533041     0.573709     0.621251 
EA8816 13.567 13.532 13.462 90.00 90.00 90.00 Sym.group:    0
1.0
   13.566518     0.000000     0.000000
    0.000000    13.531645     0.000000
    0.000000     0.000000    13.462089
   W
  10
Direct
    0.503810     0.524020     0.607145 
    0.333606     0.434770     0.411087 
    0.333801     0.587610     0.503784 
    0.338211     0.431732     0.587543 
    0.499761     0.372063     0.498121 
    0.497088     0.529101     0.395563 
    0.502343     0.673276     0.503139 
    0.659190     0.433196     0.408869 
    0.669251     0.584615     0.496151 
    0.662939     0.429617     0.588598 
EA9222 12.203 11.975 12.595 90.00 90.00 90.00 Sym.group:    0
1.0
   12.202908     0.000000     0.000000
    0.000000    11.975163     0.000000
    0.000000     0.000000    12.594583
   W
   6
Direct
    0.534235     0.412642     0.604184 
    0.352796     0.481235     0.496216 
    0.493160     0.384456     0.416343 
    0.503819     0.601795     0.402110 
    0.647374     0.515728     0.490069 
    0.468615     0.604143     0.591078 
EA9299 13.756 13.957 12.184 90.00 90.00 90.00 Sym.group:    0
1.0
   13.756387     0.000000     0.000000
    0.000000    13.957469     0.000000
    0.000000     0.000000    12.184299
   W
  10
Direct
    0.344353     0.429753     0.402710 
    0.345080     0.427030     0.597576 
    0.498859     0.529737     0.383029 
    0.663072     0.438968     0.402479 
    0.505668     0.375925     0.497548 
    0.329534     0.578770     0.500477 
    0.499406     0.527439     0.617068 
    0.663071     0.587471     0.501248 
    0.663119     0.436716     0.596385 
    0.487838     0.668192     0.501480 
EA9549 13.756 13.957 12.184 90.00 90.00 90.00 Sym.group:    0
1.0
   13.756387     0.000000     0.000000
    0.000000    13.957469     0.000000
    0.000000     0.000000    12.184299
   W
  10
Direct
    0.344353     0.570247     0.402710 
    0.345080     0.572970     0.597576 
    0.498859     0.470263     0.383029 
    0.663072     0.561032     0.402479 
    0.505668     0.624075     0.497548 
    0.329534     0.421230     0.500477 
    0.499406     0.472561     0.617068 
    0.663071     0.412529     0.501248 
    0.663119     0.563284     0.596385 
    0.487838     0.331808     0.501480 
EA9943 11.809 12.396 11.843 90.00 90.00 90.00 Sym.group:    0
1.0
   11.808843     0.000000     0.000000
    0.000000    12.395965     0.000000
    0.000000     0.000000    11.843277
   W
   6
Direct
    0.520186     0.619357     0.420970 
    0.554336     0.565860     0.616671 
    0.643698     0.456743     0.480249 
    0.475622     0.406613     0.392142 
    0.358119     0.550852     0.498449 
    0.448038     0.400575     0.591518 
EA10167 12.570 12.388 11.996 90.00 90.00 90.00 Sym.group:    0
1.0
   12.569995     0.000000     0.000000
    0.000000    12.388404     0.000000
    0.000000     0.000000    11.996344
   W
   6
Direct
    0.529258     0.382373     0.426569 
    0.485890     0.424549     0.621149 
    0.642370     0.512377     0.502481 
    0.509266     0.621223     0.572896 
    0.357287     0.492218     0.501127 
    0.475929     0.567260     0.375778 
EA10420 12.389 12.637 12.374 90.00 90.00 90.00 Sym.group:    0
1.0
   12.389011     0.000000     0.000000
    0.000000    12.637306     0.000000
    0.000000     0.000000    12.373549
   W
   6
Direct
    0.637229     0.453561     0.508074 
    0.452851     0.459757     0.626444 
    0.545630     0.614459     0.564517 
    0.487534     0.374671     0.442396 
    0.359567     0.525292     0.477017 
    0.517189     0.572261     0.381551 
EA10652 12.905 12.533 12.588 90.00 90.00 90.00 Sym.group:    0
1.0
   12.905094     0.000000     0.000000
    0.000000    12.532702     0.000000
    0.000000     0.000000    12.587838
   W
   6
Direct
    0.533741     0.404517     0.404970 
    0.372609     0.444112     0.480431 
    0.470602     0.609855     0.420630 
    0.624880     0.564348     0.495400 
    0.557213     0.413534     0.591857 
    0.440955     0.563633     0.606712 
EA10882 12.343 11.640 11.747 90.00 90.00 90.00 Sym.group:    0
1.0
   12.343347     0.000000     0.000000
    0.000000    11.639910     0.000000
    0.000000     0.000000    11.747000
   W
   6
Direct
    0.433133     0.557880     0.382634 
    0.474795     0.626769     0.577004 
    0.367422     0.443411     0.531826 
    0.553356     0.394961     0.409972 
    0.630405     0.568241     0.489788 
    0.540888     0.408738     0.608776 
EA11125 12.887 11.920 12.151 90.00 90.00 90.00 Sym.group:    0
1.0
   12.886569     0.000000     0.000000
    0.000000    11.919623     0.000000
    0.000000     0.000000    12.150525
   W
   6
Direct
    0.521239     0.355244     0.487233 
    0.482927     0.495817     0.640754 
    0.360518     0.486676     0.500536 
    0.479340     0.522409     0.360920 
    0.640543     0.495597     0.497703 
    0.515433     0.644256     0.512855 
EA11356 12.179 12.314 11.751 90.00 90.00 90.00 Sym.group:    0
1.0
   12.179427     0.000000     0.000000
    0.000000    12.314300     0.000000
    0.000000     0.000000    11.750581
   W
   6
Direct
    0.352666     0.522362     0.511448 
    0.508661     0.399050     0.602465 
    0.462720     0.399210     0.405613 
    0.497630     0.610898     0.590733 
    0.530142     0.580256     0.382802 
    0.648181     0.488225     0.506938 
EA11599 12.971 11.692 12.566 90.00 90.00 90.00 Sym.group:    0
1.0
   12.970915     0.000000     0.000000
    0.000000    11.691584     0.000000
    0.000000     0.000000    12.565777
   W
   6
Direct
    0.445720     0.364150     0.474395 
    0.595156     0.408465     0.556235 
    0.570525     0.618944     0.544452 
    0.420611     0.527078     0.611015 
    0.396310     0.561211     0.429997 
    0.571677     0.520151     0.383906 
EA11693 13.657 12.563 13.716 90.00 90.00 90.00 Sym.group:    0
1.0
   13.657339     0.000000     0.000000
    0.000000    12.563000     0.000000
    0.000000     0.000000    13.715652
   W
  10
Direct
    0.660173     0.574403     0.413538 
    0.660162     0.572429     0.587529 
    0.668726     0.407870     0.499991 
    0.499519     0.469553     0.604508 
    0.500652     0.468805     0.394908 
    0.331784     0.407488     0.500199 
    0.340283     0.573579     0.413148 
    0.338722     0.574019     0.586112 
    0.500484     0.637727     0.500135 
    0.499496     0.314127     0.499932 
EA12067 11.980 11.242 11.812 90.00 90.00 90.00 Sym.group:    0
1.0
   11.980488     0.000000     0.000000
    0.000000    11.242462     0.000000
    0.000000     0.000000    11.812445
   W
   6
Direct
    0.355612     0.539910     0.515977 
    0.484999     0.436893     0.366773 
    0.502117     0.650655     0.460720 
    0.644171     0.488091     0.469234 
    0.547934     0.526447     0.637148 
    0.465167     0.358004     0.550148 
EA12305 12.312 12.195 12.173 90.00 90.00 90.00 Sym.group:    0
1.0
   12.312173     0.000000     0.000000
    0.000000    12.194720     0.000000
    0.000000     0.000000    12.173429
   W
   6
Direct
    0.353715     0.502330     0.504861 
    0.485395     0.592739     0.608141 
    0.531625     0.614097     0.420275 
    0.646158     0.481013     0.509393 
    0.476143     0.429054     0.378785 
    0.506965     0.380767     0.578546 
EA12402 12.716 14.203 12.936 90.00 90.00 90.00 Sym.group:    0
1.0
   12.715962     0.000000     0.000000
    0.000000    14.202656     0.000000
    0.000000     0.000000    12.936100
   W
  10
Direct
    0.500246     0.472006     0.610730 
    0.504944     0.335326     0.500226 
    0.670521     0.567200     0.407972 
    0.681669     0.419660     0.500068 
    0.670423     0.567166     0.592023 
    0.320664     0.417104     0.498933 
    0.500691     0.472563     0.389053 
    0.326736     0.564115     0.408661 
    0.325975     0.563212     0.591768 
    0.498131     0.621648     0.500566 
EA12646 12.716 14.203 12.936 90.00 90.00 90.00 Sym.group:    0
1.0
   12.715962     0.000000     0.000000
    0.000000    14.202656     0.000000
    0.000000     0.000000    12.936100
   W
  10
Direct
    0.499754     0.527994     0.610730 
    0.495056     0.664674     0.500226 
    0.329479     0.432800     0.407972 
    0.318331     0.580340     0.500068 
    0.329577     0.432834     0.592023 
    0.679336     0.582896     0.498933 
    0.499309     0.527437     0.389053 
    0.673264     0.435885     0.408661 
    0.674025     0.436788     0.591768 
    0.501869     0.378352     0.500566 
EA12892 12.716 14.203 12.936 90.00 90.00 90.00 Sym.group:    0
1.0
   12.715962     0.000000     0.000000
    0.000000    14.202656     0.000000
    0.000000     0.000000    12.936100
   W
  10
Direct
    0.500246     0.472006     0.610730 
    0.504944     0.335326     0.500226 
    0.670521     0.567200     0.407972 
    0.681669     0.419660     0.500068 
    0.670423     0.567166     0.592023 
    0.320664     0.417104     0.498933 
    0.500691     0.472563     0.389053 
    0.326736     0.564115     0.408661 
    0.325975     0.563212     0.591768 
    0.498131     0.621648     0.500566 
EA13127 12.716 14.203 12.936 90.00 90.00 90.00 Sym.group:    0
1.0
   12.715962     0.000000     0.000000
    0.000000    14.202656     0.000000
    0.000000     0.000000    12.936100
   W
  10
Direct
    0.499754     0.527994     0.610730 
    0.495056     0.664674     0.500226 
    0.329479     0.432800     0.407972 
    0.318331     0.580340     0.500068 
    0.329577     0.432834     0.592023 
    0.679336     0.582896     0.498933 
    0.499309     0.527437     0.389053 
    0.673264     0.435885     0.408661 
    0.674025     0.436788     0.591768 
    0.501869     0.378352     0.500566 
EA13505 11.946 12.118 12.249 90.00 90.00 90.00 Sym.group:    0
1.0
   11.945946     0.000000     0.000000
    0.000000    12.117716     0.000000
    0.000000     0.000000    12.248992
   W
   6
Direct
    0.573346     0.504370     0.623309 
    0.561355     0.373128     0.459369 
    0.620128     0.569671     0.450524 
    0.417406     0.605866     0.555682 
    0.389993     0.405021     0.532232 
    0.437771     0.541945     0.378884 
EA13749 11.915 11.963 11.985 90.00 90.00 90.00 Sym.group:    0
1.0
   11.915147     0.000000     0.000000
    0.000000    11.963223     0.000000
    0.000000     0.000000    11.984678
   W
   6
Direct
    0.456327     0.391545     0.586666 
    0.648956     0.476920     0.486513 
    0.494745     0.400987     0.393457 
    0.505572     0.621770     0.419755 
    0.541507     0.571598     0.618729 
    0.352893     0.537179     0.494880 
EA13992 12.274 11.891 12.094 90.00 90.00 90.00 Sym.group:    0
1.0
   12.274330     0.000000     0.000000
    0.000000    11.890867     0.000000
    0.000000     0.000000    12.094131
   W
   6
Direct
    0.414773     0.501765     0.615929 
    0.456677     0.364487     0.458723 
    0.383636     0.558132     0.435797 
    0.610669     0.414776     0.547619 
    0.562873     0.618104     0.559363 
    0.571372     0.542736     0.382569 
EA14232 11.709 12.183 11.555 90.00 90.00 90.00 Sym.group:    0
1.0
   11.708554     0.000000     0.000000
    0.000000    12.182746     0.000000
    0.000000     0.000000    11.555180
   W
   6
Direct
    0.532410     0.424310     0.620974 
    0.345886     0.479874     0.493222 
    0.495034     0.382945     0.415686 
    0.508235     0.593177     0.387350 
    0.654383     0.512113     0.492218 
    0.464052     0.607581     0.590550 
EA14480 11.854 12.856 12.552 90.00 90.00 90.00 Sym.group:    0
1.0
   11.854040     0.000000     0.000000
    0.000000    12.855730     0.000000
    0.000000     0.000000    12.552157
   W
   6
Direct
    0.468014     0.598228     0.588719 
    0.520655     0.598025     0.406131 
    0.346147     0.490330     0.488010 
    0.490125     0.394711     0.413044 
    0.521127     0.416393     0.605045 
    0.653931     0.502313     0.499051 
EA14712 12.218 12.189 11.937 90.00 90.00 90.00 Sym.group:    0
1.0
   12.218078     0.000000     0.000000
    0.000000    12.189350     0.000000
    0.000000     0.000000    11.936588
   W
   6
Direct
    0.469173     0.484853     0.641146 
    0.495710     0.358639     0.470026 
    0.642182     0.464589     0.504786 
    0.355198     0.507143     0.483685 
    0.501194     0.549686     0.363618 
    0.536542     0.635090     0.536739 
EA14956 12.000 12.361 12.007 90.00 90.00 90.00 Sym.group:    0
1.0
   12.000140     0.000000     0.000000
    0.000000    12.360978     0.000000
    0.000000     0.000000    12.007312
   W
   6
Direct
    0.527991     0.362531     0.514059 
    0.480521     0.501976     0.643818 
    0.350122     0.506217     0.500213 
    0.479399     0.471730     0.359895 
    0.511712     0.640291     0.483718 
    0.650255     0.517256     0.498297 
EA15037 13.575 12.108 14.369 90.00 90.00 90.00 Sym.group:    0
1.0
   13.574567     0.000000     0.000000
    0.000000    12.108446     0.000000
    0.000000     0.000000    14.369486
   W
  10
Direct
    0.333604     0.429251     0.582023 
    0.336929     0.602415     0.502022 
    0.501997     0.533110     0.598493 
    0.500539     0.534320     0.400722 
    0.673981     0.587526     0.499811 
    0.654063     0.414990     0.416286 
    0.656046     0.414243     0.582706 
    0.492138     0.357449     0.500284 
    0.332758     0.431415     0.417170 
    0.517944     0.695281     0.500483 
