EA27920 13.732 13.569 10.931 90.00 90.00 90.00 Sym.group:    0
1.0
   13.731549     0.000000     0.000000
    0.000000    13.568730     0.000000
    0.000000     0.000000    10.930986
   W   B
   1  16
Direct
    0.499944     0.500039     0.511131 
    0.563656     0.643820     0.573383 
    0.442921     0.653475     0.567608 
    0.644061     0.553898     0.574850 
    0.643681     0.431394     0.571463 
    0.658171     0.497723     0.428051 
    0.509198     0.652069     0.423012 
    0.399613     0.607343     0.421560 
    0.621184     0.611261     0.431113 
    0.436365     0.356541     0.574842 
    0.557126     0.347061     0.568963 
    0.355996     0.446574     0.575610 
    0.356415     0.569041     0.571035 
    0.490772     0.347500     0.424447 
    0.378663     0.388242     0.432475 
    0.341876     0.501871     0.428067 
    0.600358     0.392149     0.422388 
EA18711 14.243 13.865 11.321 90.00 90.00 90.00 Sym.group:    0
1.0
   14.242511     0.000000     0.000000
    0.000000    13.865150     0.000000
    0.000000     0.000000    11.320857
   W   B
   1  17
Direct
    0.499302     0.499963     0.526457 
    0.638561     0.554514     0.589763 
    0.673987     0.492584     0.463534 
    0.630194     0.597110     0.441891 
    0.362176     0.606457     0.545371 
    0.458465     0.669169     0.534891 
    0.354655     0.506079     0.434658 
    0.421090     0.601522     0.403345 
    0.567061     0.648414     0.563481 
    0.527906     0.637303     0.411040 
    0.327400     0.507653     0.592367 
    0.354193     0.405623     0.546366 
    0.555068     0.346433     0.563951 
    0.634073     0.434301     0.589806 
    0.445038     0.335145     0.536017 
    0.516502     0.360431     0.411726 
    0.412934     0.404610     0.403721 
    0.621398     0.392689     0.441616 
EA27847 14.064 11.828 14.078 90.00 90.00 90.00 Sym.group:    0
1.0
   14.064389     0.000000     0.000000
    0.000000    11.828465     0.000000
    0.000000     0.000000    14.078348
   W   B
   1  18
Direct
    0.500094     0.499776     0.493881 
    0.672695     0.497155     0.559047 
    0.656144     0.566963     0.447440 
    0.624743     0.617831     0.561708 
    0.652013     0.431667     0.445885 
    0.582459     0.324619     0.449972 
    0.633825     0.368500     0.559413 
    0.530084     0.317965     0.564609 
    0.470940     0.298288     0.451851 
    0.418550     0.347723     0.562457 
    0.373168     0.369281     0.444199 
    0.341446     0.497247     0.434311 
    0.379665     0.625595     0.433407 
    0.332151     0.574467     0.544186 
    0.337041     0.439184     0.549760 
    0.587333     0.673711     0.447659 
    0.474220     0.697655     0.441702 
    0.522976     0.679764     0.559832 
    0.410455     0.672613     0.548682 
EA27451 13.920 13.654 11.983 90.00 90.00 90.00 Sym.group:    0
1.0
   13.919974     0.000000     0.000000
    0.000000    13.653843     0.000000
    0.000000     0.000000    11.982773
   W   B
   1  19
Direct
    0.503794     0.500435     0.474148 
    0.672315     0.513024     0.562496 
    0.656808     0.570302     0.428806 
    0.386526     0.378440     0.405736 
    0.443570     0.387015     0.617847 
    0.489675     0.329496     0.421454 
    0.599453     0.355797     0.436123 
    0.541925     0.342483     0.566993 
    0.641526     0.401545     0.562307 
    0.666364     0.453067     0.430610 
    0.400065     0.494885     0.639011 
    0.351103     0.423969     0.530247 
    0.624147     0.617842     0.562975 
    0.344690     0.487639     0.398430 
    0.368480     0.603768     0.418143 
    0.333608     0.542478     0.531745 
    0.576693     0.655498     0.432142 
    0.463761     0.668203     0.425748 
    0.416451     0.611480     0.590043 
    0.519048     0.662637     0.564997 
EA27692 13.843 13.855 12.135 90.00 90.00 90.00 Sym.group:    0
1.0
   13.843278     0.000000     0.000000
    0.000000    13.854749     0.000000
    0.000000     0.000000    12.135386
   W   B
   1  20
Direct
    0.496936     0.499279     0.476366 
    0.584152     0.648391     0.545235 
    0.365832     0.603629     0.557280 
    0.468715     0.655388     0.562790 
    0.543768     0.446400     0.635732 
    0.537528     0.562246     0.633063 
    0.473875     0.347867     0.572458 
    0.589049     0.356515     0.553244 
    0.660526     0.446173     0.542379 
    0.659535     0.561672     0.537556 
    0.324707     0.497845     0.556380 
    0.368624     0.393349     0.562476 
    0.407121     0.641740     0.422861 
    0.623934     0.389721     0.412518 
    0.412036     0.351480     0.430792 
    0.524943     0.331029     0.426103 
    0.654480     0.500244     0.398318 
    0.619566     0.610191     0.406071 
    0.519207     0.666829     0.417255 
    0.332125     0.553123     0.423665 
    0.333341     0.436890     0.427457 
EA27896 13.659 13.681 12.686 90.00 90.00 90.00 Sym.group:    0
1.0
   13.658778     0.000000     0.000000
    0.000000    13.681238     0.000000
    0.000000     0.000000    12.686476
   W   B
   2  16
Direct
    0.498795     0.501398     0.534558 
    0.504094     0.495835     0.356089 
    0.454815     0.351444     0.446742 
    0.621428     0.398381     0.577477 
    0.511937     0.341734     0.576388 
    0.572164     0.362114     0.449373 
    0.648109     0.452255     0.448893 
    0.638336     0.569421     0.445130 
    0.658660     0.515771     0.575085 
    0.601840     0.625161     0.570015 
    0.374863     0.605506     0.563266 
    0.394415     0.378916     0.571945 
    0.364772     0.427324     0.441279 
    0.354917     0.544480     0.436797 
    0.337586     0.488140     0.566395 
    0.484352     0.662332     0.564944 
    0.430803     0.634682     0.436045 
    0.548117     0.645107     0.439576 
EA17998 14.175 13.811 12.172 90.00 90.00 90.00 Sym.group:    0
1.0
   14.174612     0.000000     0.000000
    0.000000    13.811141     0.000000
    0.000000     0.000000    12.172200
   W   B
   2  17
Direct
    0.508072     0.510043     0.651856 
    0.497371     0.496341     0.461038 
    0.379835     0.370959     0.417257 
    0.330721     0.467628     0.452086 
    0.411099     0.626242     0.565316 
    0.359684     0.523455     0.579065 
    0.478665     0.323368     0.415617 
    0.500704     0.358358     0.575083 
    0.394704     0.408966     0.575697 
    0.446922     0.652600     0.420447 
    0.653333     0.439195     0.440821 
    0.582937     0.346088     0.449234 
    0.562845     0.640212     0.406790 
    0.646414     0.556351     0.417873 
    0.614845     0.617766     0.544034 
    0.515027     0.666212     0.545488 
    0.652490     0.510175     0.562016 
    0.609147     0.403149     0.575538 
    0.355185     0.582892     0.444741 
EA19282 14.310 13.427 12.597 90.00 90.00 90.00 Sym.group:    0
1.0
   14.310233     0.000000     0.000000
    0.000000    13.426561     0.000000
    0.000000     0.000000    12.597380
   W   B
   2  18
Direct
    0.521411     0.505316     0.371345 
    0.465094     0.496765     0.547021 
    0.415648     0.338594     0.550187 
    0.401460     0.384967     0.420146 
    0.615121     0.385972     0.489264 
    0.504929     0.352487     0.455190 
    0.529976     0.346259     0.589127 
    0.586855     0.568867     0.629692 
    0.640604     0.511585     0.522525 
    0.680908     0.450423     0.410587 
    0.595136     0.444517     0.628297 
    0.673063     0.569151     0.406024 
    0.395697     0.647182     0.554719 
    0.509658     0.655783     0.593438 
    0.597545     0.627314     0.478970 
    0.484110     0.649233     0.458634 
    0.384900     0.602562     0.424633 
    0.328940     0.422983     0.529601 
    0.348529     0.489885     0.409477 
    0.320417     0.550157     0.531123 
EA13774 13.602 13.856 13.116 90.00 90.00 90.00 Sym.group:    0
1.0
   13.602256     0.000000     0.000000
    0.000000    13.855534     0.000000
    0.000000     0.000000    13.116273
   W   B
   2  19
Direct
    0.411425     0.350218     0.563633 
    0.505862     0.502683     0.488329 
    0.431946     0.587087     0.624089 
    0.356988     0.580306     0.513640 
    0.327012     0.453692     0.488403 
    0.365484     0.525693     0.391309 
    0.502153     0.342568     0.419908 
    0.465957     0.477284     0.665152 
    0.357887     0.489942     0.606565 
    0.569746     0.342039     0.530396 
    0.557606     0.412239     0.632179 
    0.399313     0.403483     0.398321 
    0.621575     0.376697     0.423184 
    0.651619     0.433091     0.541746 
    0.666600     0.482917     0.410656 
    0.627165     0.591903     0.400297 
    0.668660     0.553739     0.524754 
    0.410575     0.631931     0.409385 
    0.598381     0.644286     0.519937 
    0.527988     0.658678     0.410964 
    0.476056     0.659523     0.537154 
EA18834 13.783 13.797 14.450 90.00 90.00 90.00 Sym.group:    0
1.0
   13.783117     0.000000     0.000000
    0.000000    13.797231     0.000000
    0.000000     0.000000    14.449587
   W   B
   2  20
Direct
    0.488075     0.493769     0.388976 
    0.536823     0.511689     0.546520 
    0.353640     0.393229     0.414257 
    0.487580     0.342576     0.565972 
    0.582178     0.377248     0.448211 
    0.464986     0.346422     0.439124 
    0.377650     0.350874     0.520469 
    0.603597     0.345312     0.570641 
    0.387594     0.536341     0.623081 
    0.354635     0.599781     0.443528 
    0.357413     0.479470     0.509621 
    0.318639     0.504514     0.398100 
    0.398978     0.424630     0.609545 
    0.441216     0.666081     0.487036 
    0.549059     0.658315     0.444714 
    0.634119     0.584270     0.420236 
    0.646877     0.641840     0.527623 
    0.444653     0.635658     0.608750 
    0.541067     0.680915     0.565464 
    0.680468     0.420439     0.532452 
    0.700620     0.537423     0.513877 
    0.650130     0.469206     0.421802 
EA27520 13.820 14.022 12.229 90.00 90.00 90.00 Sym.group:    0
1.0
   13.820079     0.000000     0.000000
    0.000000    14.021735     0.000000
    0.000000     0.000000    12.228687
   W   B
   3  16
Direct
    0.499009     0.490447     0.646674 
    0.500129     0.505276     0.458381 
    0.470690     0.328196     0.577568 
    0.582086     0.347490     0.436540 
    0.614950     0.377595     0.570593 
    0.652186     0.490781     0.566398 
    0.661603     0.549818     0.432923 
    0.585841     0.640464     0.424813 
    0.471769     0.338089     0.400216 
    0.466061     0.660852     0.425134 
    0.371035     0.383123     0.437035 
    0.353794     0.541346     0.567415 
    0.417604     0.635765     0.559488 
    0.326197     0.490336     0.440627 
    0.363922     0.600243     0.433605 
    0.528365     0.663077     0.552837 
    0.351347     0.422467     0.570998 
    0.623170     0.600612     0.559131 
    0.660242     0.434023     0.439624 
EA19628 14.638 13.722 12.638 90.00 90.00 90.00 Sym.group:    0
1.0
   14.638056     0.000000     0.000000
    0.000000    13.722352     0.000000
    0.000000     0.000000    12.638158
   W   B
   3  17
Direct
    0.469643     0.500238     0.452414 
    0.522040     0.495416     0.631773 
    0.599006     0.353704     0.520877 
    0.356544     0.377332     0.476325 
    0.535726     0.373867     0.362683 
    0.450495     0.331893     0.427896 
    0.348623     0.606216     0.478022 
    0.614087     0.451102     0.385412 
    0.681054     0.487329     0.480525 
    0.430825     0.663366     0.422009 
    0.536199     0.652588     0.393070 
    0.618306     0.584934     0.429099 
    0.316811     0.488512     0.492740 
    0.442134     0.632317     0.568109 
    0.370272     0.548881     0.599360 
    0.649636     0.574423     0.569459 
    0.458362     0.353314     0.566949 
    0.378260     0.432091     0.597489 
    0.669707     0.462140     0.608049 
    0.552272     0.630338     0.537737 
EA19223 15.047 14.073 13.136 90.00 90.00 90.00 Sym.group:    0
1.0
   15.047006     0.000000     0.000000
    0.000000    14.072889     0.000000
    0.000000     0.000000    13.136422
   W   B
   3  18
Direct
    0.638431     0.515874     0.440820 
    0.447494     0.497122     0.445135 
    0.539867     0.498323     0.614976 
    0.691394     0.506418     0.599956 
    0.543238     0.517076     0.318153 
    0.534551     0.617006     0.380217 
    0.547126     0.406971     0.358200 
    0.465843     0.674634     0.456859 
    0.366336     0.640892     0.482175 
    0.653597     0.609635     0.580383 
    0.567609     0.639206     0.515767 
    0.460701     0.617501     0.568823 
    0.665078     0.403867     0.562163 
    0.306927     0.550877     0.499409 
    0.389549     0.351655     0.490798 
    0.321566     0.440966     0.521858 
    0.483763     0.334290     0.425381 
    0.386600     0.531127     0.601419 
    0.491763     0.362729     0.549169 
    0.409548     0.414979     0.603981 
    0.589019     0.368850     0.484355 
EA27305 15.434 14.077 12.831 90.00 90.00 90.00 Sym.group:    0
1.0
   15.434144     0.000000     0.000000
    0.000000    14.076847     0.000000
    0.000000     0.000000    12.831397
   W   B
   3  19
Direct
    0.538328     0.503149     0.456409 
    0.502061     0.495677     0.634022 
    0.406737     0.626078     0.532546 
    0.584330     0.350580     0.423087 
    0.667060     0.420853     0.450543 
    0.607236     0.370755     0.558471 
    0.509680     0.344986     0.536331 
    0.479117     0.354929     0.403233 
    0.408571     0.360961     0.513195 
    0.403095     0.436665     0.401313 
    0.335593     0.433014     0.550376 
    0.325819     0.518896     0.447998 
    0.636281     0.637330     0.477217 
    0.542488     0.679219     0.442982 
    0.686037     0.534608     0.471374 
    0.469402     0.641506     0.369032 
    0.632848     0.574240     0.591811 
    0.546919     0.639348     0.571050 
    0.657339     0.464991     0.582550 
    0.289515     0.536643     0.564028 
    0.405848     0.555507     0.373789 
    0.365693     0.520064     0.648645 
EA27608 14.806 14.163 13.426 90.00 90.00 90.00 Sym.group:    0
1.0
   14.805580     0.000000     0.000000
    0.000000    14.163355     0.000000
    0.000000     0.000000    13.426156
   W   B
   3  20
Direct
    0.547935     0.476298     0.421270 
    0.396519     0.374041     0.505561 
    0.476873     0.544745     0.564152 
    0.449776     0.370344     0.350735 
    0.390863     0.461804     0.368692 
    0.331521     0.506993     0.466231 
    0.691966     0.446514     0.475499 
    0.626756     0.354104     0.476597 
    0.523935     0.319510     0.420923 
    0.534787     0.329233     0.544547 
    0.328581     0.503623     0.591549 
    0.391577     0.438689     0.659573 
    0.486766     0.392430     0.638666 
    0.594922     0.418013     0.590376 
    0.681680     0.559020     0.466260 
    0.641717     0.521411     0.580497 
    0.420658     0.687460     0.511603 
    0.493595     0.642244     0.413181 
    0.530322     0.696329     0.520258 
    0.600189     0.634338     0.434597 
    0.617421     0.630749     0.560269 
    0.341531     0.609532     0.527001 
    0.400109     0.582578     0.411964 
EA27777 14.457 13.733 13.823 90.00 90.00 90.00 Sym.group:    0
1.0
   14.457004     0.000000     0.000000
    0.000000    13.732738     0.000000
    0.000000     0.000000    13.823441
   W   B
   4  16
Direct
    0.419284     0.659773     0.516973 
    0.528203     0.494879     0.455062 
    0.475261     0.508955     0.619794 
    0.394270     0.358684     0.527899 
    0.659672     0.600068     0.478268 
    0.484974     0.631586     0.370503 
    0.573531     0.661050     0.431875 
    0.394712     0.568035     0.390182 
    0.345773     0.513018     0.491084 
    0.384007     0.441704     0.395532 
    0.561211     0.639928     0.558120 
    0.332869     0.577745     0.602664 
    0.641500     0.372651     0.487108 
    0.547309     0.323218     0.443771 
    0.463567     0.362166     0.380303 
    0.684261     0.483674     0.492114 
    0.538055     0.357350     0.568590 
    0.619359     0.434576     0.593580 
    0.323438     0.459957     0.607543 
    0.628742     0.550986     0.589036 
EA27379 14.912 14.380 13.049 90.00 90.00 90.00 Sym.group:    0
1.0
   14.912113     0.000000     0.000000
    0.000000    14.380081     0.000000
    0.000000     0.000000    13.049440
   W   B
   4  17
Direct
    0.465697     0.508054     0.540934 
    0.488915     0.496188     0.361052 
    0.561546     0.352682     0.457931 
    0.614114     0.603308     0.585070 
    0.691777     0.404626     0.464706 
    0.535162     0.388901     0.620797 
    0.343088     0.408997     0.553379 
    0.438205     0.351550     0.571258 
    0.314967     0.521173     0.550040 
    0.341831     0.459646     0.432024 
    0.414255     0.376148     0.444673 
    0.345365     0.570219     0.430256 
    0.631525     0.463257     0.374325 
    0.425632     0.642302     0.435652 
    0.474131     0.666212     0.554399 
    0.366190     0.625290     0.550995 
    0.572688     0.490982     0.667663 
    0.533177     0.636074     0.443934 
    0.694027     0.518230     0.481892 
    0.617103     0.574280     0.410302 
    0.630607     0.441880     0.568717 
EA27635 14.976 13.789 13.296 90.00 90.00 90.00 Sym.group:    0
1.0
   14.976324     0.000000     0.000000
    0.000000    13.789243     0.000000
    0.000000     0.000000    13.295854
   W   B
   4  18
Direct
    0.541570     0.506352     0.468242 
    0.508453     0.489833     0.641882 
    0.437098     0.341514     0.517233 
    0.425460     0.646577     0.548059 
    0.658249     0.397024     0.452848 
    0.562004     0.349203     0.413232 
    0.654373     0.619730     0.483731 
    0.693195     0.507532     0.478936 
    0.472806     0.401497     0.356962 
    0.649992     0.434994     0.578732 
    0.577389     0.354250     0.543235 
    0.647299     0.550551     0.595228 
    0.375092     0.577917     0.415083 
    0.311161     0.554738     0.516162 
    0.558666     0.673441     0.458754 
    0.471910     0.629682     0.391431 
    0.570006     0.634251     0.581865 
    0.321202     0.435866     0.535354 
    0.379040     0.446782     0.422478 
    0.379728     0.408127     0.641242 
    0.442967     0.515389     0.336759 
    0.362340     0.524747     0.622551 
EA27609 14.917 14.338 13.238 90.00 90.00 90.00 Sym.group:    0
1.0
   14.917300     0.000000     0.000000
    0.000000    14.337826     0.000000
    0.000000     0.000000    13.238077
   W   B
   4  19
Direct
    0.512812     0.507503     0.622351 
    0.593991     0.616966     0.458396 
    0.538199     0.337847     0.571208 
    0.454927     0.478761     0.452457 
    0.598853     0.643111     0.621529 
    0.660410     0.554534     0.595136 
    0.682170     0.500233     0.486068 
    0.650358     0.435661     0.591511 
    0.564828     0.360965     0.408991 
    0.468545     0.319916     0.423533 
    0.652733     0.389359     0.474837 
    0.546630     0.544608     0.318262 
    0.466707     0.611382     0.352883 
    0.610846     0.475239     0.383562 
    0.362981     0.502795     0.600353 
    0.365967     0.605183     0.422833 
    0.307208     0.528226     0.483098 
    0.388927     0.335165     0.500999 
    0.404408     0.395289     0.609985 
    0.316911     0.421542     0.522304 
    0.501028     0.665526     0.580226 
    0.452917     0.666119     0.464908 
    0.397643     0.604068     0.554570 
EA27596 15.390 13.866 13.558 90.00 90.00 90.00 Sym.group:    0
1.0
   15.389881     0.000000     0.000000
    0.000000    13.866111     0.000000
    0.000000     0.000000    13.557681
   W   B
   4  20
Direct
    0.571337     0.442758     0.566105 
    0.502982     0.647155     0.550700 
    0.438970     0.493602     0.452841 
    0.436542     0.525662     0.652724 
    0.595123     0.577719     0.661761 
    0.638890     0.515642     0.430885 
    0.550176     0.536615     0.350973 
    0.638707     0.591026     0.534577 
    0.668289     0.396700     0.453010 
    0.568494     0.424145     0.392042 
    0.687358     0.531276     0.636537 
    0.590772     0.317758     0.449538 
    0.589203     0.625161     0.426598 
    0.707782     0.486429     0.528065 
    0.490375     0.632891     0.378852 
    0.362009     0.620245     0.542990 
    0.308060     0.565170     0.442161 
    0.389863     0.646279     0.426037 
    0.442666     0.376478     0.581559 
    0.343665     0.412779     0.574533 
    0.378600     0.347766     0.477122 
    0.305135     0.442016     0.458273 
    0.487367     0.324447     0.473686 
    0.307634     0.520283     0.558432 
EA27693 13.414 13.823 14.452 90.00 90.00 90.00 Sym.group:    0
1.0
   13.414098     0.000000     0.000000
    0.000000    13.823096     0.000000
    0.000000     0.000000    14.451971
   W   B
   5  16
Direct
    0.503437     0.495137     0.516548 
    0.540107     0.610346     0.364109 
    0.416754     0.683161     0.473088 
    0.332464     0.419079     0.428186 
    0.685201     0.578265     0.465326 
    0.660595     0.489981     0.594241 
    0.611773     0.601023     0.599610 
    0.379135     0.588963     0.592060 
    0.491993     0.637720     0.601935 
    0.669934     0.428528     0.488006 
    0.614629     0.382052     0.587614 
    0.576364     0.350394     0.470483 
    0.505829     0.336442     0.574296 
    0.450879     0.328325     0.466244 
    0.388885     0.370080     0.562631 
    0.334106     0.474914     0.573592 
    0.469730     0.469852     0.359489 
    0.384681     0.558805     0.385804 
    0.595276     0.457020     0.392856 
    0.318126     0.563140     0.490601 
    0.570101     0.676774     0.513285 
EA27637 15.086 13.559 13.186 90.00 90.00 90.00 Sym.group:    0
1.0
   15.085569     0.000000     0.000000
    0.000000    13.559006     0.000000
    0.000000     0.000000    13.186241
   W   B
   5  17
Direct
    0.544730     0.489586     0.458745 
    0.516376     0.536159     0.633141 
    0.443092     0.360401     0.583776 
    0.426997     0.656557     0.491083 
    0.329535     0.538527     0.398113 
    0.662658     0.385512     0.493131 
    0.568193     0.323895     0.485659 
    0.650623     0.606193     0.426707 
    0.693836     0.498998     0.464254 
    0.476648     0.347788     0.420225 
    0.657681     0.470846     0.590079 
    0.585171     0.381276     0.602015 
    0.652107     0.584376     0.555773 
    0.314136     0.567118     0.556161 
    0.549177     0.643786     0.387563 
    0.461486     0.576108     0.341625 
    0.571613     0.652444     0.514692 
    0.322919     0.442994     0.533788 
    0.373160     0.391848     0.436270 
    0.373931     0.486982     0.641279 
    0.437328     0.451244     0.347151 
    0.388601     0.607360     0.638769 
EA27610 15.002 13.839 13.623 90.00 90.00 90.00 Sym.group:    0
1.0
   15.001951     0.000000     0.000000
    0.000000    13.839219     0.000000
    0.000000     0.000000    13.623043
   W   B
   5  18
Direct
    0.375978     0.417133     0.559366 
    0.573500     0.373688     0.400047 
    0.434745     0.490704     0.364835 
    0.541174     0.502883     0.529923 
    0.508711     0.658916     0.416214 
    0.495081     0.324594     0.523563 
    0.510838     0.373825     0.638301 
    0.599878     0.347735     0.561627 
    0.676907     0.424392     0.526578 
    0.671471     0.489116     0.422062 
    0.578278     0.529392     0.359653 
    0.305954     0.506861     0.447109 
    0.328635     0.395235     0.414521 
    0.427862     0.339974     0.423347 
    0.688482     0.546684     0.534787 
    0.469226     0.470497     0.679306 
    0.412418     0.654415     0.538412 
    0.365077     0.616079     0.433176 
    0.619146     0.640998     0.548880 
    0.514881     0.660984     0.573914 
    0.643500     0.605391     0.430375 
    0.335998     0.566817     0.546327 
    0.422260     0.563686     0.627679 
EA24533 15.440 14.413 13.920 90.00 90.00 90.00 Sym.group:    0
1.0
   15.440003     0.000000     0.000000
    0.000000    14.413309     0.000000
    0.000000     0.000000    13.920092
   W   B
   5  19
Direct
    0.652907     0.500714     0.569701 
    0.615407     0.647592     0.463277 
    0.580624     0.479666     0.402187 
    0.454965     0.545316     0.535052 
    0.528479     0.384264     0.589852 
    0.467357     0.686874     0.453483 
    0.549667     0.519595     0.676644 
    0.509204     0.688232     0.559041 
    0.576367     0.621554     0.615293 
    0.641292     0.361276     0.488041 
    0.714401     0.432574     0.445697 
    0.710722     0.542605     0.426953 
    0.503460     0.605198     0.375601 
    0.452606     0.490081     0.700946 
    0.374762     0.427546     0.444056 
    0.462011     0.394422     0.376921 
    0.382451     0.385893     0.557555 
    0.329748     0.545383     0.443168 
    0.434564     0.509357     0.374411 
    0.367182     0.465528     0.645247 
    0.394021     0.621321     0.398953 
    0.438574     0.330976     0.476847 
    0.318459     0.480245     0.537840 
    0.540770     0.333791     0.443234 
EA27585 15.230 14.227 13.818 90.00 90.00 90.00 Sym.group:    0
1.0
   15.229979     0.000000     0.000000
    0.000000    14.227173     0.000000
    0.000000     0.000000    13.818002
   W   B
   5  20
Direct
    0.586666     0.557947     0.372544 
    0.485677     0.506860     0.509952 
    0.616881     0.365623     0.549895 
    0.460790     0.323867     0.461344 
    0.328412     0.557291     0.435189 
    0.682286     0.444740     0.431959 
    0.426197     0.460933     0.660465 
    0.724886     0.459558     0.543115 
    0.376612     0.600163     0.587464 
    0.563473     0.581444     0.637212 
    0.459086     0.571382     0.667239 
    0.414692     0.663585     0.493060 
    0.692714     0.552055     0.480427 
    0.452212     0.632086     0.383591 
    0.523568     0.669399     0.466157 
    0.603668     0.614614     0.520258 
    0.591686     0.388504     0.401145 
    0.497359     0.429345     0.354600 
    0.335831     0.407335     0.475481 
    0.384368     0.426578     0.369296 
    0.488259     0.366963     0.611147 
    0.333568     0.487848     0.570325 
    0.384472     0.380783     0.581554 
    0.437672     0.526296     0.336997 
    0.648967     0.524804     0.599584 
