EA34687 14.610 13.474 12.768 90.00 90.00 90.00 Sym.group:    0
1.0
   14.609524     0.000000     0.000000
    0.000000    13.473936     0.000000
    0.000000     0.000000    12.768428
   W   B
   6  11
Direct
    0.538681     0.425958     0.348402 
    0.681592     0.466843     0.464194 
    0.503093     0.501987     0.544200 
    0.316772     0.536861     0.480521 
    0.441197     0.577412     0.358190 
    0.660653     0.626191     0.536964 
    0.620383     0.394748     0.598527 
    0.645554     0.505352     0.631677 
    0.587256     0.575697     0.394968 
    0.373335     0.395093     0.536622 
    0.369652     0.477573     0.628759 
    0.385741     0.594077     0.617520 
    0.392927     0.421982     0.405998 
    0.422568     0.652698     0.516280 
    0.569899     0.344491     0.500429 
    0.528994     0.660058     0.466444 
    0.461705     0.342977     0.470303 
EA34652 15.145 14.537 11.653 90.00 90.00 90.00 Sym.group:    0
1.0
   15.145027     0.000000     0.000000
    0.000000    14.537261     0.000000
    0.000000     0.000000    11.652752
   W   B
   6  12
Direct
    0.504572     0.396305     0.601269 
    0.411918     0.548407     0.600513 
    0.583853     0.555558     0.601597 
    0.495372     0.603887     0.398842 
    0.416488     0.444685     0.398347 
    0.588106     0.451381     0.399153 
    0.507166     0.316737     0.440185 
    0.343897     0.585529     0.440385 
    0.647932     0.597548     0.439880 
    0.492845     0.683058     0.560201 
    0.351684     0.402237     0.559579 
    0.655987     0.414746     0.560048 
    0.395829     0.671702     0.500273 
    0.305557     0.491809     0.499271 
    0.694364     0.508092     0.500091 
    0.590343     0.679443     0.500341 
    0.409799     0.320489     0.500003 
    0.604289     0.328388     0.500021 
EA34598 14.079 13.722 13.138 90.00 90.00 90.00 Sym.group:    0
1.0
   14.079103     0.000000     0.000000
    0.000000    13.721938     0.000000
    0.000000     0.000000    13.137769
   W   B
   6  13
Direct
    0.503882     0.498921     0.514715 
    0.598913     0.358731     0.413121 
    0.441630     0.423581     0.341581 
    0.331256     0.415335     0.495380 
    0.601487     0.650361     0.435530 
    0.443165     0.683300     0.483412 
    0.463771     0.333048     0.491078 
    0.554842     0.351528     0.576249 
    0.646394     0.432341     0.562838 
    0.576878     0.506694     0.355493 
    0.442699     0.376404     0.612420 
    0.371765     0.549736     0.418666 
    0.553128     0.632813     0.596277 
    0.647293     0.555833     0.570049 
    0.662039     0.497921     0.452053 
    0.440199     0.600925     0.633077 
    0.393033     0.486002     0.640678 
    0.350595     0.564538     0.549976 
    0.477032     0.581990     0.357407 
EA34534 14.455 14.196 14.073 90.00 90.00 90.00 Sym.group:    0
1.0
   14.454582     0.000000     0.000000
    0.000000    14.196068     0.000000
    0.000000     0.000000    14.073356
   W   B
   6  14
Direct
    0.633846     0.520085     0.346379 
    0.466081     0.479237     0.422197 
    0.619847     0.416150     0.522235 
    0.366514     0.444374     0.593193 
    0.566998     0.611085     0.504247 
    0.403583     0.661928     0.426456 
    0.518609     0.613507     0.350481 
    0.684156     0.544895     0.579970 
    0.397966     0.343607     0.474200 
    0.378547     0.589552     0.561435 
    0.582765     0.386143     0.369048 
    0.322768     0.422197     0.450192 
    0.447931     0.682024     0.568248 
    0.511258     0.436886     0.637522 
    0.707956     0.540090     0.470837 
    0.324909     0.537471     0.466262 
    0.589732     0.521515     0.635431 
    0.483953     0.355326     0.556013 
    0.514316     0.331088     0.442436 
    0.478263     0.562843     0.623216 
EA34461 14.697 14.200 13.971 90.00 90.00 90.00 Sym.group:    0
1.0
   14.697215     0.000000     0.000000
    0.000000    14.199942     0.000000
    0.000000     0.000000    13.971438
   W   B
   6  15
Direct
    0.568372     0.589624     0.353543 
    0.646877     0.446514     0.432951 
    0.549280     0.340882     0.548382 
    0.529091     0.608046     0.597300 
    0.345429     0.523100     0.591239 
    0.463987     0.491911     0.457525 
    0.579333     0.684867     0.470440 
    0.651239     0.600003     0.489090 
    0.527430     0.354966     0.396887 
    0.670007     0.523810     0.573969 
    0.544757     0.444300     0.322663 
    0.673398     0.407394     0.585003 
    0.587692     0.466393     0.635484 
    0.349616     0.612819     0.458482 
    0.398724     0.657656     0.554344 
    0.469773     0.659983     0.458866 
    0.475249     0.457398     0.628548 
    0.402996     0.380877     0.570133 
    0.307102     0.510372     0.441184 
    0.333314     0.404787     0.475006 
    0.426336     0.334299     0.458962 
EA14624 14.575 14.062 12.881 90.00 90.00 90.00 Sym.group:    0
1.0
   14.574614     0.000000     0.000000
    0.000000    14.061918     0.000000
    0.000000     0.000000    12.881381
   W   B
   7  11
Direct
    0.345203     0.443193     0.482643 
    0.520317     0.485604     0.566836 
    0.446889     0.297840     0.552112 
    0.516121     0.567437     0.375861 
    0.448001     0.646697     0.526500 
    0.683238     0.562231     0.450561 
    0.478673     0.373467     0.387016 
    0.398519     0.413534     0.637180 
    0.374389     0.530620     0.617392 
    0.611370     0.618126     0.589506 
    0.670440     0.523130     0.608797 
    0.663959     0.424235     0.541851 
    0.610269     0.435410     0.420271 
    0.584948     0.344544     0.511552 
    0.389556     0.490367     0.327782 
    0.587243     0.671958     0.478351 
    0.313360     0.588357     0.523919 
    0.357503     0.583250     0.401871 
EA34599 14.067 13.833 13.147 90.00 90.00 90.00 Sym.group:    0
1.0
   14.066753     0.000000     0.000000
    0.000000    13.833289     0.000000
    0.000000     0.000000    13.147086
   W   B
   7  12
Direct
    0.490528     0.500477     0.515103 
    0.404147     0.640364     0.409450 
    0.575228     0.594571     0.360716 
    0.662503     0.599631     0.523138 
    0.576618     0.396445     0.368067 
    0.403358     0.354538     0.419601 
    0.662286     0.400757     0.529722 
    0.521432     0.671924     0.508669 
    0.426960     0.637328     0.580979 
    0.340525     0.563317     0.544111 
    0.440793     0.494798     0.347737 
    0.540098     0.615283     0.625350 
    0.688039     0.497147     0.400186 
    0.426969     0.368324     0.590445 
    0.340618     0.440030     0.548864 
    0.340312     0.498067     0.433224 
    0.520932     0.329102     0.520819 
    0.540180     0.393420     0.633112 
    0.598474     0.504476     0.640708 
EA34535 14.119 14.213 14.069 90.00 90.00 90.00 Sym.group:    0
1.0
   14.118751     0.000000     0.000000
    0.000000    14.213464     0.000000
    0.000000     0.000000    14.069351
   W   B
   7  13
Direct
    0.519207     0.321307     0.437393 
    0.312388     0.491121     0.526547 
    0.509286     0.455622     0.318662 
    0.411356     0.462927     0.662124 
    0.528438     0.671133     0.505673 
    0.652461     0.437537     0.414098 
    0.502950     0.498987     0.510314 
    0.474463     0.602439     0.375163 
    0.387321     0.616041     0.463299 
    0.383158     0.523780     0.386469 
    0.402559     0.610118     0.582877 
    0.392434     0.407329     0.416348 
    0.400247     0.364784     0.532173 
    0.499552     0.353639     0.599084 
    0.610590     0.374799     0.557133 
    0.609204     0.579537     0.611162 
    0.591021     0.579768     0.388579 
    0.661965     0.480570     0.569379 
    0.652373     0.574092     0.495462 
    0.499029     0.594470     0.648060 
EA32112 14.900 14.425 12.946 90.00 90.00 90.00 Sym.group:    0
1.0
   14.899903     0.000000     0.000000
    0.000000    14.424985     0.000000
    0.000000     0.000000    12.946188
   W   B
   7  14
Direct
    0.458231     0.336719     0.444221 
    0.496855     0.514366     0.544506 
    0.307164     0.538762     0.456505 
    0.455797     0.516616     0.357984 
    0.546481     0.674255     0.422115 
    0.477378     0.712496     0.580657 
    0.695167     0.447044     0.460726 
    0.379722     0.603798     0.585700 
    0.344340     0.412503     0.386011 
    0.526436     0.359221     0.597705 
    0.419617     0.383874     0.597957 
    0.356888     0.488363     0.600018 
    0.337930     0.400551     0.513639 
    0.599125     0.347137     0.492266 
    0.650071     0.530420     0.590801 
    0.595660     0.633469     0.579378 
    0.657097     0.588656     0.475636 
    0.566352     0.417395     0.384804 
    0.618848     0.421890     0.601876 
    0.604450     0.528409     0.373336 
    0.406392     0.644056     0.454159 
EA16418 14.097 14.456 14.355 90.00 90.00 90.00 Sym.group:    0
1.0
   14.097415     0.000000     0.000000
    0.000000    14.455559     0.000000
    0.000000     0.000000    14.355260
   W   B
   7  15
Direct
    0.506404     0.482787     0.510098 
    0.558261     0.502441     0.682878 
    0.495440     0.640659     0.612061 
    0.322347     0.421329     0.551688 
    0.514459     0.613938     0.353968 
    0.418975     0.368391     0.404074 
    0.652199     0.524545     0.420177 
    0.448241     0.335891     0.562783 
    0.359821     0.514606     0.434667 
    0.412797     0.631655     0.473168 
    0.400781     0.517508     0.645517 
    0.440379     0.408816     0.652685 
    0.355549     0.565926     0.546033 
    0.643770     0.385586     0.501584 
    0.595553     0.656374     0.483314 
    0.663813     0.472169     0.574464 
    0.495712     0.709725     0.466317 
    0.532362     0.461709     0.334092 
    0.635847     0.583059     0.564310 
    0.420050     0.496937     0.332228 
    0.584944     0.381917     0.399937 
    0.542299     0.324031     0.493960 
EA34600 14.508 14.057 12.999 90.00 90.00 90.00 Sym.group:    0
1.0
   14.508005     0.000000     0.000000
    0.000000    14.057188     0.000000
    0.000000     0.000000    12.999419
   W   B
   8  11
Direct
    0.508560     0.500534     0.520071 
    0.637289     0.391421     0.423838 
    0.457078     0.398037     0.353111 
    0.365968     0.366292     0.507691 
    0.545877     0.666165     0.414365 
    0.699403     0.479361     0.565238 
    0.510450     0.687602     0.594422 
    0.383701     0.647046     0.477742 
    0.513177     0.334643     0.501894 
    0.591405     0.378242     0.592123 
    0.563164     0.512246     0.349473 
    0.480038     0.372182     0.623442 
    0.360629     0.498394     0.420427 
    0.634495     0.613041     0.543940 
    0.646355     0.547778     0.430915 
    0.408683     0.580276     0.632977 
    0.405249     0.461292     0.645726 
    0.448481     0.554108     0.353869 
    0.339995     0.511343     0.548734 
EA16898 13.621 14.107 14.118 90.00 90.00 90.00 Sym.group:    0
1.0
   13.621146     0.000000     0.000000
    0.000000    14.106637     0.000000
    0.000000     0.000000    14.117776
   W   B
   8  12
Direct
    0.412307     0.530287     0.662769 
    0.500168     0.499974     0.497739 
    0.458782     0.667003     0.410345 
    0.681877     0.544918     0.548468 
    0.576535     0.439096     0.659767 
    0.314651     0.449431     0.526561 
    0.548133     0.351276     0.384653 
    0.507443     0.517001     0.319088 
    0.456880     0.648658     0.569635 
    0.609011     0.599198     0.415910 
    0.357882     0.596658     0.514556 
    0.573311     0.655194     0.520070 
    0.555176     0.595663     0.626742 
    0.640024     0.479410     0.408371 
    0.435895     0.383091     0.602792 
    0.367716     0.537662     0.403340 
    0.425840     0.344915     0.486289 
    0.641184     0.401500     0.507470 
    0.538509     0.340348     0.544005 
    0.398674     0.418720     0.391429 
EA34462 14.569 14.113 14.276 90.00 90.00 90.00 Sym.group:    0
1.0
   14.569173     0.000000     0.000000
    0.000000    14.112700     0.000000
    0.000000     0.000000    14.275841
   W   B
   8  13
Direct
    0.442485     0.489702     0.669118 
    0.386999     0.370152     0.529068 
    0.509057     0.499901     0.499362 
    0.620289     0.411845     0.379671 
    0.612884     0.484575     0.651950 
    0.497359     0.515771     0.312471 
    0.396033     0.629026     0.553813 
    0.625697     0.597297     0.393519 
    0.532706     0.613974     0.623999 
    0.632459     0.600661     0.552312 
    0.521490     0.366585     0.604047 
    0.623933     0.383330     0.536419 
    0.668798     0.493255     0.504203 
    0.381738     0.451310     0.395130 
    0.314475     0.496357     0.598314 
    0.472427     0.375259     0.391225 
    0.480859     0.642570     0.413486 
    0.326505     0.507306     0.485136 
    0.539592     0.666696     0.513903 
    0.528480     0.330527     0.486836 
    0.385737     0.573903     0.406018 
EA32043 14.975 14.137 14.342 90.00 90.00 90.00 Sym.group:    0
1.0
   14.975066     0.000000     0.000000
    0.000000    14.136524     0.000000
    0.000000     0.000000    14.342494
   W   B
   8  14
Direct
    0.478953     0.492921     0.517715 
    0.647233     0.433687     0.566720 
    0.473614     0.683128     0.553357 
    0.581740     0.527692     0.356496 
    0.459235     0.383693     0.382992 
    0.609273     0.598185     0.616184 
    0.424903     0.544588     0.312900 
    0.350365     0.624140     0.448903 
    0.441512     0.330041     0.536804 
    0.694435     0.460462     0.429275 
    0.519015     0.369625     0.616185 
    0.609214     0.387217     0.418648 
    0.355555     0.386759     0.500579 
    0.537359     0.474007     0.669451 
    0.548227     0.335854     0.507060 
    0.494568     0.646240     0.404912 
    0.373220     0.577484     0.598659 
    0.322719     0.497726     0.531790 
    0.468630     0.571646     0.661238 
    0.590252     0.641615     0.467370 
    0.342940     0.470077     0.419745 
    0.677038     0.563215     0.483019 
EA34378 15.103 13.980 14.563 90.00 90.00 90.00 Sym.group:    0
1.0
   15.102775     0.000000     0.000000
    0.000000    13.980237     0.000000
    0.000000     0.000000    14.563004
   W   B
   8  15
Direct
    0.494800     0.503989     0.494151 
    0.386412     0.583700     0.390754 
    0.632925     0.445775     0.397425 
    0.610695     0.544313     0.626386 
    0.646740     0.611639     0.438879 
    0.512095     0.383023     0.630065 
    0.369673     0.390911     0.394340 
    0.476668     0.458851     0.297265 
    0.535382     0.590221     0.344055 
    0.704323     0.499980     0.519676 
    0.508118     0.665544     0.429424 
    0.641038     0.408725     0.555784 
    0.484289     0.624183     0.616396 
    0.436765     0.665329     0.517786 
    0.377490     0.582778     0.570967 
    0.474309     0.522319     0.675091 
    0.554690     0.663682     0.537221 
    0.570970     0.342764     0.495038 
    0.384346     0.380874     0.548302 
    0.463103     0.320911     0.496231 
    0.336345     0.488126     0.511305 
    0.387028     0.471154     0.620924 
    0.511796     0.351209     0.392535 
EA26763 14.234 14.011 14.147 90.00 90.00 90.00 Sym.group:    0
1.0
   14.233750     0.000000     0.000000
    0.000000    14.011063     0.000000
    0.000000     0.000000    14.147287
   W   B
   9  11
Direct
    0.419289     0.546659     0.666139 
    0.493183     0.345298     0.607072 
    0.582022     0.500204     0.660978 
    0.385915     0.596393     0.384806 
    0.653506     0.350918     0.553177 
    0.540727     0.328396     0.423296 
    0.498601     0.492256     0.497581 
    0.529996     0.676741     0.434435 
    0.534935     0.524724     0.321955 
    0.519948     0.641423     0.595235 
    0.360817     0.435789     0.571497 
    0.338009     0.463855     0.451269 
    0.415317     0.645219     0.535279 
    0.395309     0.361717     0.476238 
    0.621011     0.606797     0.543288 
    0.672799     0.500089     0.526761 
    0.642467     0.444059     0.419417 
    0.638122     0.565924     0.427719 
    0.340314     0.550987     0.531445 
    0.417715     0.422552     0.372415 
EA17158 14.626 13.984 13.611 90.00 90.00 90.00 Sym.group:    0
1.0
   14.625921     0.000000     0.000000
    0.000000    13.984000     0.000000
    0.000000     0.000000    13.610787
   W   B
   9  12
Direct
    0.472399     0.618801     0.639094 
    0.643005     0.579602     0.612881 
    0.507798     0.499772     0.503200 
    0.603515     0.470534     0.351350 
    0.392611     0.637563     0.450969 
    0.664724     0.616409     0.431493 
    0.507027     0.329761     0.599390 
    0.379420     0.454907     0.649048 
    0.371911     0.362986     0.491379 
    0.335272     0.596098     0.592342 
    0.363883     0.491766     0.397390 
    0.535970     0.667145     0.500718 
    0.528878     0.624046     0.380371 
    0.460335     0.536353     0.338974 
    0.673817     0.475436     0.498552 
    0.535551     0.472676     0.670550 
    0.614353     0.371834     0.486376 
    0.628185     0.424886     0.602460 
    0.450049     0.416233     0.361133 
    0.316925     0.510310     0.509674 
    0.514371     0.342882     0.432656 
EA6239 14.954 13.760 13.990 90.00 90.00 90.00 Sym.group:    0
1.0
   14.953842     0.000000     0.000000
    0.000000    13.759535     0.000000
    0.000000     0.000000    13.990008
   W   B
   9  13
Direct
    0.408579     0.662620     0.491945 
    0.414888     0.417586     0.358424 
    0.407333     0.360621     0.529185 
    0.404927     0.537671     0.628331 
    0.597595     0.452247     0.316452 
    0.525170     0.498544     0.493913 
    0.667414     0.579142     0.403891 
    0.491667     0.590951     0.343332 
    0.670532     0.383584     0.462413 
    0.347698     0.556304     0.394148 
    0.304916     0.450568     0.446743 
    0.303133     0.562888     0.510745 
    0.299878     0.455649     0.566523 
    0.505304     0.418993     0.637780 
    0.553558     0.339458     0.555519 
    0.533546     0.338615     0.430998 
    0.563707     0.532008     0.643586 
    0.520631     0.641344     0.593736 
    0.619419     0.424317     0.608485 
    0.626158     0.617417     0.556724 
    0.677932     0.512050     0.553196 
    0.556015     0.667420     0.473928 
EA34379 14.797 14.264 13.954 90.00 90.00 90.00 Sym.group:    0
1.0
   14.796855     0.000000     0.000000
    0.000000    14.264397     0.000000
    0.000000     0.000000    13.954301
   W   B
   9  14
Direct
    0.460954     0.452548     0.664646 
    0.492422     0.635012     0.629908 
    0.698936     0.479561     0.522888 
    0.619374     0.344291     0.459927 
    0.518782     0.597884     0.346533 
    0.503190     0.486567     0.495619 
    0.353981     0.394487     0.407069 
    0.520701     0.398095     0.326529 
    0.344122     0.565839     0.438054 
    0.641727     0.593252     0.439247 
    0.560052     0.661086     0.485846 
    0.597880     0.519877     0.636341 
    0.599883     0.404104     0.610240 
    0.629007     0.607754     0.563852 
    0.368132     0.667558     0.560545 
    0.449130     0.666295     0.479413 
    0.361474     0.564091     0.608338 
    0.630501     0.493547     0.377272 
    0.514967     0.332766     0.570881 
    0.404208     0.358299     0.549758 
    0.345835     0.457354     0.556139 
    0.471511     0.317711     0.456941 
    0.413233     0.502024     0.314013 
EA34367 15.598 14.514 13.736 90.00 90.00 90.00 Sym.group:    0
1.0
   15.597825     0.000000     0.000000
    0.000000    14.514158     0.000000
    0.000000     0.000000    13.736208
   W   B
   9  15
Direct
    0.617010     0.627784     0.460987 
    0.372949     0.648324     0.529092 
    0.590854     0.399873     0.610171 
    0.480415     0.313311     0.506032 
    0.478715     0.501291     0.506788 
    0.357605     0.516149     0.649367 
    0.600539     0.389736     0.416718 
    0.298377     0.512625     0.474032 
    0.512449     0.529862     0.321439 
    0.393862     0.587342     0.379800 
    0.698553     0.502388     0.447472 
    0.514724     0.655927     0.552320 
    0.372873     0.385494     0.436411 
    0.364439     0.395353     0.554467 
    0.448939     0.396291     0.639038 
    0.465692     0.390152     0.364750 
    0.576803     0.565286     0.613658 
    0.498340     0.495192     0.681582 
    0.470786     0.603283     0.649129 
    0.670250     0.526207     0.563404 
    0.385255     0.470365     0.348618 
    0.645787     0.524581     0.348615 
    0.701118     0.417218     0.524975 
    0.483666     0.645966     0.421133 
EA34464 14.121 14.033 14.285 90.00 90.00 90.00 Sym.group:    0
1.0
   14.120885     0.000000     0.000000
    0.000000    14.033287     0.000000
    0.000000     0.000000    14.285011
   W   B
  10  11
Direct
    0.500799     0.493639     0.500561 
    0.613995     0.353586     0.432733 
    0.658887     0.599647     0.565484 
    0.329768     0.400205     0.451483 
    0.452868     0.643808     0.381752 
    0.555687     0.506921     0.321833 
    0.560569     0.482171     0.678849 
    0.703890     0.501378     0.427334 
    0.414107     0.388362     0.629760 
    0.455634     0.289514     0.490907 
    0.599196     0.621391     0.425596 
    0.565909     0.356627     0.585736 
    0.514917     0.620209     0.619706 
    0.343751     0.510646     0.560648 
    0.652657     0.438125     0.561090 
    0.462814     0.390948     0.369914 
    0.349036     0.558743     0.451142 
    0.530132     0.669008     0.511269 
    0.422458     0.550058     0.640044 
    0.412905     0.626231     0.536538 
    0.400019     0.498780     0.357617 
EA34404 15.260 14.375 13.780 90.00 90.00 90.00 Sym.group:    0
1.0
   15.260422     0.000000     0.000000
    0.000000    14.374803     0.000000
    0.000000     0.000000    13.779691
   W   B
  10  12
Direct
    0.525786     0.604245     0.651135 
    0.618173     0.458054     0.649699 
    0.511432     0.500416     0.496189 
    0.676311     0.446164     0.470595 
    0.579392     0.688627     0.516542 
    0.419398     0.411472     0.377550 
    0.357487     0.410379     0.556501 
    0.400998     0.652243     0.511335 
    0.703907     0.587505     0.582197 
    0.635822     0.584812     0.386465 
    0.580072     0.347426     0.540591 
    0.556702     0.355722     0.421781 
    0.497285     0.638376     0.390071 
    0.505728     0.536294     0.324943 
    0.571017     0.445667     0.346484 
    0.493084     0.362990     0.610951 
    0.470713     0.329221     0.495627 
    0.461749     0.462131     0.661667 
    0.332202     0.519281     0.446252 
    0.304173     0.547573     0.557578 
    0.389828     0.545561     0.629984 
    0.408740     0.565841     0.375861 
EA14347 15.149 14.114 13.732 90.00 90.00 90.00 Sym.group:    0
1.0
   15.149078     0.000000     0.000000
    0.000000    14.113615     0.000000
    0.000000     0.000000    13.732378
   W   B
  10  13
Direct
    0.458737     0.609724     0.341869 
    0.457981     0.428331     0.309882 
    0.516164     0.495207     0.495207 
    0.674116     0.415916     0.494578 
    0.470997     0.690372     0.505598 
    0.520171     0.588542     0.660656 
    0.601942     0.514038     0.327828 
    0.322244     0.637460     0.456895 
    0.602527     0.405984     0.648619 
    0.429383     0.357104     0.590079 
    0.379067     0.398336     0.440589 
    0.558465     0.326001     0.515895 
    0.570985     0.366710     0.392724 
    0.588825     0.643798     0.418129 
    0.354945     0.506186     0.398948 
    0.604344     0.644160     0.542460 
    0.398332     0.497720     0.642427 
    0.666261     0.568142     0.465326 
    0.648471     0.542948     0.591880 
    0.377262     0.600853     0.589462 
    0.470461     0.330693     0.437438 
    0.476593     0.448088     0.705205 
    0.351727     0.483688     0.528307 
EA34368 15.522 14.213 14.187 90.00 90.00 90.00 Sym.group:    0
1.0
   15.521877     0.000000     0.000000
    0.000000    14.212783     0.000000
    0.000000     0.000000    14.186997
   W   B
  10  14
Direct
    0.382358     0.490700     0.616554 
    0.641030     0.541589     0.652647 
    0.415504     0.593947     0.374313 
    0.517505     0.466219     0.311595 
    0.524711     0.506386     0.502551 
    0.654784     0.643134     0.482632 
    0.394009     0.414814     0.410888 
    0.700769     0.470415     0.517264 
    0.469364     0.337911     0.565755 
    0.551144     0.688707     0.601996 
    0.607892     0.394211     0.612197 
    0.285620     0.460814     0.505637 
    0.499288     0.563139     0.663838 
    0.619175     0.408484     0.401136 
    0.637242     0.522964     0.381398 
    0.560413     0.609397     0.367054 
    0.522291     0.348493     0.422897 
    0.425585     0.619986     0.529830 
    0.509860     0.667761     0.460544 
    0.326982     0.570640     0.502077 
    0.605274     0.349997     0.503613 
    0.335902     0.362285     0.547662 
    0.293556     0.522755     0.403464 
    0.519739     0.445255     0.662458 
EA34366 15.300 13.831 14.374 90.00 90.00 90.00 Sym.group:    0
1.0
   15.299926     0.000000     0.000000
    0.000000    13.830507     0.000000
    0.000000     0.000000    14.373571
   W   B
  10  15
Direct
    0.598936     0.558099     0.389243 
    0.597694     0.373190     0.442010 
    0.469591     0.491018     0.492391 
    0.571675     0.411109     0.619556 
    0.451320     0.306160     0.378310 
    0.343039     0.336493     0.500618 
    0.358364     0.600647     0.611689 
    0.342584     0.620005     0.438839 
    0.346161     0.458496     0.366372 
    0.537190     0.602370     0.626670 
    0.712835     0.457036     0.425301 
    0.693688     0.436778     0.540392 
    0.665014     0.537213     0.602693 
    0.717346     0.550010     0.493360 
    0.485865     0.316599     0.528427 
    0.495910     0.452446     0.335822 
    0.431101     0.369080     0.617875 
    0.453620     0.678973     0.523132 
    0.297136     0.490032     0.517159 
    0.649141     0.631459     0.529320 
    0.455886     0.564664     0.339121 
    0.557469     0.674366     0.490909 
    0.480897     0.655944     0.409487 
    0.444150     0.482655     0.664883 
    0.343390     0.445158     0.616421 
