EA7    15.131 13.734 12.988 90.00 90.00 90.00 Sym.group:    0
1.0
   15.131123     0.000000     0.000000
    0.000000    13.734089     0.000000
    0.000000     0.000000    12.988360
   W   B
  10  15
Direct
    0.434594     0.497131     0.377068 
    0.279991     0.386753     0.451534 
    0.277007     0.615579     0.441437 
    0.509915     0.414623     0.670419 
    0.499830     0.603300     0.664401 
    0.436237     0.354432     0.501405 
    0.427726     0.647762     0.492556 
    0.614156     0.599771     0.457305 
    0.629058     0.413031     0.479297 
    0.753710     0.433131     0.591418 
    0.715301     0.573592     0.598421 
    0.534362     0.352372     0.368459 
    0.516375     0.655291     0.336163 
    0.391393     0.495486     0.620262 
    0.630191     0.500032     0.640408 
    0.579866     0.458835     0.328084 
    0.561217     0.561819     0.288688 
    0.290411     0.499901     0.348055 
    0.554598     0.275334     0.464060 
    0.541024     0.725145     0.437854 
    0.581287     0.294996     0.583950 
    0.633013     0.634453     0.643329 
    0.294814     0.434819     0.596954 
    0.303452     0.564951     0.585324 
    0.510477     0.507463     0.533150 
EA404  16.521 15.665 14.075 90.00 90.00 90.00 Sym.group:    0
1.0
   16.521017     0.000000     0.000000
    0.000000    15.665226     0.000000
    0.000000     0.000000    14.075183
   W   B
  10  15
Direct
    0.539408     0.653028     0.401925 
    0.460926     0.343955     0.403883 
    0.561602     0.711811     0.550653 
    0.446628     0.290168     0.556048 
    0.408093     0.457308     0.596281 
    0.556874     0.542802     0.571194 
    0.576070     0.468128     0.405553 
    0.433301     0.526533     0.428358 
    0.409281     0.645715     0.543403 
    0.588317     0.361841     0.537136 
    0.649660     0.635989     0.487815 
    0.356047     0.371985     0.487751 
    0.524791     0.420798     0.652898 
    0.306681     0.469140     0.485900 
    0.684631     0.536149     0.492191 
    0.700529     0.427330     0.468919 
    0.308989     0.591996     0.448198 
    0.334189     0.419130     0.381809 
    0.662903     0.585336     0.379470 
    0.619229     0.448124     0.662577 
    0.371532     0.571068     0.658638 
    0.297373     0.513202     0.374337 
    0.706268     0.493253     0.380418 
    0.684277     0.461865     0.582483 
    0.312403     0.553348     0.562165 
EA798  14.572 13.918 14.063 90.00 90.00 90.00 Sym.group:    0
1.0
   14.572489     0.000000     0.000000
    0.000000    13.918099     0.000000
    0.000000     0.000000    14.063006
   W   B
  10  12
Direct
    0.509683     0.515186     0.507234 
    0.390562     0.362351     0.495302 
    0.327079     0.615023     0.488712 
    0.630980     0.521432     0.379275 
    0.460089     0.418215     0.336961 
    0.506979     0.678212     0.429317 
    0.592474     0.319864     0.379097 
    0.686412     0.404768     0.497286 
    0.670960     0.643575     0.502245 
    0.596618     0.424216     0.650264 
    0.330710     0.482068     0.400232 
    0.499959     0.566443     0.323387 
    0.282551     0.465884     0.504391 
    0.394316     0.574418     0.361986 
    0.484848     0.327767     0.611704 
    0.544312     0.671079     0.580965 
    0.438722     0.430465     0.636241 
    0.694972     0.527545     0.598508 
    0.433842     0.662132     0.570139 
    0.360933     0.491844     0.585262 
    0.563559     0.316017     0.530080 
    0.599441     0.581494     0.631412 
EA1179 14.012 14.077 14.065 90.00 90.00 90.00 Sym.group:    0
1.0
   14.012268     0.000000     0.000000
    0.000000    14.076550     0.000000
    0.000000     0.000000    14.065444
   W   B
   7  15
Direct
    0.496467     0.500119     0.261527 
    0.497554     0.499818     0.502111 
    0.637678     0.445937     0.374977 
    0.489197     0.354068     0.373163 
    0.354132     0.464054     0.377061 
    0.420690     0.624232     0.374731 
    0.595767     0.611990     0.375954 
    0.603602     0.524814     0.618406 
    0.557400     0.409989     0.618508 
    0.432281     0.418885     0.620709 
    0.402283     0.539995     0.621272 
    0.508685     0.605776     0.619337 
    0.335037     0.459552     0.548601 
    0.410594     0.643952     0.546509 
    0.610336     0.628619     0.545803 
    0.658139     0.436473     0.544506 
    0.488137     0.331436     0.545795 
    0.384558     0.364004     0.507349 
    0.333781     0.567232     0.508087 
    0.513326     0.676786     0.505973 
    0.675944     0.542999     0.504951 
    0.594414     0.349269     0.504670 
EA1503 14.116 14.135 14.058 90.00 90.00 90.00 Sym.group:    0
1.0
   14.115635     0.000000     0.000000
    0.000000    14.134882     0.000000
    0.000000     0.000000    14.057563
   W   B
   9  13
Direct
    0.489533     0.489604     0.267382 
    0.500250     0.498016     0.500777 
    0.635420     0.554928     0.372482 
    0.477263     0.646956     0.376276 
    0.347559     0.539924     0.381954 
    0.423417     0.370448     0.370445 
    0.607785     0.389238     0.378643 
    0.441979     0.577112     0.663744 
    0.596240     0.486620     0.662972 
    0.574793     0.625903     0.604277 
    0.389598     0.445729     0.611478 
    0.510291     0.374451     0.609709 
    0.330544     0.533036     0.546550 
    0.415098     0.351253     0.539799 
    0.614816     0.369398     0.542648 
    0.657389     0.572804     0.539039 
    0.485479     0.671708     0.540787 
    0.379741     0.634084     0.511503 
    0.336752     0.426430     0.493952 
    0.518738     0.322452     0.492268 
    0.676396     0.463514     0.506605 
    0.590921     0.656390     0.486710 
EA1897 14.455 13.748 13.988 90.00 90.00 90.00 Sym.group:    0
1.0
   14.455354     0.000000     0.000000
    0.000000    13.748332     0.000000
    0.000000     0.000000    13.987573
   W   B
   6  15
Direct
    0.596645     0.494774     0.655116 
    0.362254     0.631619     0.590503 
    0.588694     0.643989     0.415194 
    0.499692     0.500952     0.490883 
    0.658774     0.482048     0.379635 
    0.432155     0.353674     0.589840 
    0.596264     0.634303     0.569346 
    0.660316     0.548216     0.523937 
    0.497180     0.613126     0.632736 
    0.578505     0.357816     0.586323 
    0.441254     0.502028     0.646537 
    0.648486     0.425080     0.518384 
    0.340522     0.484590     0.571419 
    0.412881     0.654213     0.453832 
    0.446644     0.592440     0.363448 
    0.352548     0.546177     0.456083 
    0.521299     0.516024     0.326876 
    0.546455     0.342030     0.470836 
    0.353840     0.422961     0.467060 
    0.528136     0.400184     0.361871 
    0.437458     0.353756     0.430140 
EA2183 14.179 13.934 14.431 90.00 90.00 90.00 Sym.group:    0
1.0
   14.178553     0.000000     0.000000
    0.000000    13.934059     0.000000
    0.000000     0.000000    14.431271
   W   B
   9  13
Direct
    0.598932     0.541969     0.287937 
    0.496870     0.500073     0.503556 
    0.449383     0.623774     0.360498 
    0.438046     0.455388     0.325595 
    0.579390     0.373688     0.378023 
    0.682898     0.502082     0.435520 
    0.598169     0.655634     0.438704 
    0.394707     0.391350     0.617898 
    0.405303     0.555387     0.653126 
    0.319975     0.502291     0.540028 
    0.549874     0.401751     0.623881 
    0.558837     0.530360     0.650876 
    0.523326     0.327975     0.527153 
    0.646089     0.469259     0.594835 
    0.543363     0.641213     0.593422 
    0.360788     0.611293     0.507383 
    0.348304     0.414487     0.464293 
    0.437425     0.340738     0.452431 
    0.629057     0.376182     0.526523 
    0.642446     0.584542     0.570654 
    0.458421     0.672258     0.522848 
    0.338397     0.528309     0.424819 
EA2566 14.350 13.709 14.099 90.00 90.00 90.00 Sym.group:    0
1.0
   14.349535     0.000000     0.000000
    0.000000    13.709439     0.000000
    0.000000     0.000000    14.099022
   W   B
  10  11
Direct
    0.628510     0.316257     0.487916 
    0.470918     0.309681     0.436231 
    0.347410     0.572455     0.402342 
    0.586400     0.421998     0.345256 
    0.277438     0.502460     0.551033 
    0.504507     0.501528     0.501270 
    0.666974     0.587507     0.566885 
    0.388155     0.647394     0.555980 
    0.628750     0.612782     0.402846 
    0.409478     0.500706     0.665999 
    0.357049     0.421497     0.446656 
    0.394385     0.386489     0.559338 
    0.511507     0.352607     0.579806 
    0.434877     0.448528     0.355839 
    0.493133     0.557395     0.343897 
    0.482286     0.656871     0.419694 
    0.563151     0.513181     0.659150 
    0.618593     0.425757     0.599503 
    0.526044     0.621730     0.627426 
    0.544174     0.675815     0.520925 
    0.666260     0.467359     0.472009 
EA2943 14.243 13.776 13.875 90.00 90.00 90.00 Sym.group:    0
1.0
   14.243229     0.000000     0.000000
    0.000000    13.776345     0.000000
    0.000000     0.000000    13.875180
   W   B
  10  11
Direct
    0.504059     0.499550     0.492843 
    0.588466     0.325460     0.555625 
    0.333827     0.401667     0.453535 
    0.419987     0.674875     0.436112 
    0.651952     0.606225     0.581261 
    0.523886     0.576871     0.321881 
    0.682082     0.566241     0.411800 
    0.605841     0.393851     0.374041 
    0.354836     0.468402     0.622637 
    0.477037     0.293707     0.416182 
    0.450490     0.433410     0.342251 
    0.495926     0.417019     0.650826 
    0.502835     0.551186     0.646082 
    0.339859     0.554918     0.491250 
    0.510097     0.659006     0.567697 
    0.603796     0.469758     0.632787 
    0.439267     0.351245     0.562432 
    0.664973     0.455441     0.522498 
    0.569014     0.659527     0.459266 
    0.381044     0.531660     0.374999 
    0.400725     0.609981     0.583992 
EA3179 14.546 13.745 14.171 90.00 90.00 90.00 Sym.group:    0
1.0
   14.545725     0.000000     0.000000
    0.000000    13.744512     0.000000
    0.000000     0.000000    14.171409
   W   B
   8  14
Direct
    0.462881     0.487918     0.333162 
    0.375532     0.640209     0.545822 
    0.528315     0.511173     0.508822 
    0.543301     0.707599     0.517479 
    0.670395     0.472856     0.597751 
    0.533188     0.612431     0.664643 
    0.465872     0.339167     0.445197 
    0.384815     0.508755     0.650941 
    0.348260     0.554744     0.413683 
    0.587633     0.409250     0.376265 
    0.547207     0.621110     0.380126 
    0.436685     0.631628     0.404345 
    0.611531     0.526179     0.359233 
    0.347613     0.431592     0.420170 
    0.653100     0.620299     0.566413 
    0.675258     0.471309     0.443641 
    0.621967     0.368105     0.482677 
    0.563802     0.356951     0.581897 
    0.532701     0.445128     0.664624 
    0.451861     0.379737     0.594616 
    0.355403     0.397908     0.534241 
    0.302681     0.505953     0.514252 
EA3499 13.992 14.149 13.943 90.00 90.00 90.00 Sym.group:    0
1.0
   13.991668     0.000000     0.000000
    0.000000    14.148933     0.000000
    0.000000     0.000000    13.943053
   W   B
   7  15
Direct
    0.496237     0.338573     0.541191 
    0.474889     0.507201     0.490515 
    0.545371     0.455923     0.667198 
    0.304548     0.548299     0.532916 
    0.718875     0.508403     0.477799 
    0.598735     0.510652     0.339230 
    0.599405     0.635738     0.456382 
    0.622781     0.391398     0.442314 
    0.389742     0.430759     0.620670 
    0.397530     0.383937     0.412606 
    0.513570     0.387279     0.381018 
    0.343211     0.397805     0.516634 
    0.648998     0.384687     0.561215 
    0.416548     0.555406     0.639054 
    0.690916     0.470382     0.627188 
    0.635484     0.570079     0.603209 
    0.524345     0.606672     0.617513 
    0.396560     0.647043     0.443252 
    0.428054     0.649803     0.558658 
    0.463521     0.594789     0.351268 
    0.437475     0.473350     0.334137 
    0.353208     0.551822     0.386032 
EA4058 15.625 13.749 13.874 90.00 90.00 90.00 Sym.group:    0
1.0
   15.625223     0.000000     0.000000
    0.000000    13.748715     0.000000
    0.000000     0.000000    13.873727
   W   B
   9  11
Direct
    0.560959     0.689662     0.584855 
    0.410937     0.621235     0.584652 
    0.419856     0.440363     0.624084 
    0.538832     0.509904     0.509215 
    0.453630     0.504796     0.337074 
    0.451178     0.361448     0.444580 
    0.690319     0.486252     0.451928 
    0.280779     0.529536     0.545868 
    0.493626     0.667326     0.425432 
    0.632970     0.627823     0.456870 
    0.641841     0.413792     0.577144 
    0.538285     0.357495     0.577907 
    0.522705     0.558047     0.666741 
    0.564950     0.444998     0.659252 
    0.332700     0.395051     0.511521 
    0.359481     0.586505     0.430638 
    0.340628     0.464130     0.411660 
    0.579076     0.425800     0.366865 
    0.590263     0.553635     0.361415 
    0.596985     0.362199     0.472302 
EA4265 14.121 14.033 14.285 90.00 90.00 90.00 Sym.group:    0
1.0
   14.120885     0.000000     0.000000
    0.000000    14.033287     0.000000
    0.000000     0.000000    14.285011
   W   B
  10  11
Direct
    0.500799     0.493639     0.500561 
    0.613995     0.353586     0.432733 
    0.658887     0.599647     0.565484 
    0.329768     0.400205     0.451483 
    0.452868     0.643808     0.381752 
    0.555687     0.506921     0.321833 
    0.560569     0.482171     0.678849 
    0.703890     0.501378     0.427334 
    0.414107     0.388362     0.629760 
    0.455634     0.289514     0.490907 
    0.599196     0.621391     0.425596 
    0.565909     0.356627     0.585736 
    0.514917     0.620209     0.619706 
    0.343751     0.510646     0.560648 
    0.652657     0.438125     0.561090 
    0.462814     0.390948     0.369914 
    0.349036     0.558743     0.451142 
    0.530132     0.669008     0.511269 
    0.422458     0.550058     0.640044 
    0.412905     0.626231     0.536538 
    0.400019     0.498780     0.357617 
EA4540 14.097 14.456 14.355 90.00 90.00 90.00 Sym.group:    0
1.0
   14.097415     0.000000     0.000000
    0.000000    14.455559     0.000000
    0.000000     0.000000    14.355260
   W   B
   7  15
Direct
    0.506404     0.482787     0.510098 
    0.558261     0.502441     0.682878 
    0.495440     0.640659     0.612061 
    0.322347     0.421329     0.551688 
    0.514459     0.613938     0.353968 
    0.418975     0.368391     0.404074 
    0.652199     0.524545     0.420177 
    0.448241     0.335891     0.562783 
    0.359821     0.514606     0.434667 
    0.412797     0.631655     0.473168 
    0.400781     0.517508     0.645517 
    0.440379     0.408816     0.652685 
    0.355549     0.565926     0.546033 
    0.643770     0.385586     0.501584 
    0.595553     0.656374     0.483314 
    0.663813     0.472169     0.574464 
    0.495712     0.709725     0.466317 
    0.532362     0.461709     0.334092 
    0.635847     0.583059     0.564310 
    0.420050     0.496937     0.332228 
    0.584944     0.381917     0.399937 
    0.542299     0.324031     0.493960 
EA4826 15.804 14.509 14.035 90.00 90.00 90.00 Sym.group:    0
1.0
   15.804219     0.000000     0.000000
    0.000000    14.508577     0.000000
    0.000000     0.000000    14.035446
   W   B
  10  15
Direct
    0.372709     0.483577     0.360432 
    0.704231     0.517360     0.380053 
    0.295480     0.511289     0.525120 
    0.540025     0.391950     0.387560 
    0.459331     0.300150     0.524123 
    0.449961     0.648154     0.396737 
    0.597825     0.370930     0.572694 
    0.411660     0.544773     0.654225 
    0.478072     0.498681     0.506239 
    0.684604     0.613037     0.512043 
    0.671253     0.389987     0.440326 
    0.499010     0.525714     0.322493 
    0.346142     0.379608     0.475309 
    0.407910     0.341139     0.386680 
    0.322048     0.615814     0.425784 
    0.578591     0.565856     0.393708 
    0.555350     0.641416     0.494145 
    0.698995     0.466313     0.523391 
    0.546424     0.483859     0.660410 
    0.368934     0.640558     0.529859 
    0.376786     0.403459     0.592222 
    0.468802     0.656349     0.562981 
    0.472918     0.400077     0.646556 
    0.641469     0.513962     0.613049 
    0.551471     0.595985     0.613862 
EA5461 15.183 14.601 13.544 90.00 90.00 90.00 Sym.group:    0
1.0
   15.182582     0.000000     0.000000
    0.000000    14.601402     0.000000
    0.000000     0.000000    13.544236
   W   B
   6  12
Direct
    0.595981     0.523480     0.587006 
    0.431306     0.574454     0.587306 
    0.472372     0.401230     0.585572 
    0.404114     0.476536     0.412846 
    0.527656     0.598789     0.414455 
    0.568574     0.425620     0.412744 
    0.669925     0.542119     0.448634 
    0.379709     0.632872     0.448147 
    0.449840     0.324835     0.447760 
    0.330068     0.457849     0.551382 
    0.550170     0.675115     0.552309 
    0.620290     0.367118     0.551817 
    0.314137     0.557601     0.499087 
    0.454965     0.696786     0.500735 
    0.545026     0.303215     0.499307 
    0.359157     0.361412     0.499419 
    0.640884     0.638576     0.500583 
    0.685824     0.442392     0.500893 
EA5545 14.797 14.264 13.954 90.00 90.00 90.00 Sym.group:    0
1.0
   14.796855     0.000000     0.000000
    0.000000    14.264397     0.000000
    0.000000     0.000000    13.954301
   W   B
   9  14
Direct
    0.460954     0.452548     0.664646 
    0.492422     0.635012     0.629908 
    0.698936     0.479561     0.522888 
    0.619374     0.344291     0.459927 
    0.518782     0.597884     0.346533 
    0.503190     0.486567     0.495619 
    0.353981     0.394487     0.407069 
    0.520701     0.398095     0.326529 
    0.344122     0.565839     0.438054 
    0.641727     0.593252     0.439247 
    0.560052     0.661086     0.485846 
    0.597880     0.519877     0.636341 
    0.599883     0.404104     0.610240 
    0.629007     0.607754     0.563852 
    0.368132     0.667558     0.560545 
    0.449130     0.666295     0.479413 
    0.361474     0.564091     0.608338 
    0.630501     0.493547     0.377272 
    0.514967     0.332766     0.570881 
    0.404208     0.358299     0.549758 
    0.345835     0.457354     0.556139 
    0.471511     0.317711     0.456941 
    0.413233     0.502024     0.314013 
EA6135 14.763 14.332 13.324 90.00 90.00 90.00 Sym.group:    0
1.0
   14.763127     0.000000     0.000000
    0.000000    14.331688     0.000000
    0.000000     0.000000    13.324275
   W   B
   7  11
Direct
    0.561501     0.448958     0.439255 
    0.401181     0.567353     0.447827 
    0.440903     0.458124     0.590144 
    0.385495     0.373725     0.412899 
    0.570148     0.651803     0.449381 
    0.693385     0.543903     0.523742 
    0.661231     0.563772     0.341946 
    0.513194     0.565362     0.332178 
    0.483029     0.323767     0.508996 
    0.303258     0.535032     0.580277 
    0.302747     0.452358     0.502997 
    0.375374     0.608773     0.614275 
    0.667842     0.400749     0.562268 
    0.470252     0.640386     0.576579 
    0.569361     0.353200     0.579505 
    0.590129     0.463640     0.620727 
    0.447035     0.473717     0.324615 
    0.563934     0.575377     0.592388 
EA6194 15.492 13.983 14.200 90.00 90.00 90.00 Sym.group:    0
1.0
   15.491707     0.000000     0.000000
    0.000000    13.983210     0.000000
    0.000000     0.000000    14.199555
   W   B
  10  14
Direct
    0.626442     0.490734     0.623750 
    0.366450     0.547685     0.648469 
    0.580346     0.588722     0.373311 
    0.477772     0.468638     0.310344 
    0.474554     0.499579     0.499480 
    0.343525     0.636926     0.490746 
    0.606580     0.404812     0.402564 
    0.296785     0.468230     0.519314 
    0.525263     0.334814     0.565419 
    0.701058     0.608593     0.529420 
    0.394952     0.397378     0.614786 
    0.711510     0.455079     0.500857 
    0.508716     0.574121     0.648481 
    0.375763     0.406392     0.400686 
    0.356840     0.524862     0.383059 
    0.435546     0.611496     0.370043 
    0.473139     0.346813     0.419538 
    0.565760     0.626303     0.543421 
    0.483064     0.667027     0.463394 
    0.457128     0.654984     0.579638 
    0.393062     0.349364     0.503862 
    0.658425     0.362347     0.543902 
    0.702648     0.522178     0.404952 
    0.484671     0.452923     0.660561 
EA6520 14.162 14.804 14.181 90.00 90.00 90.00 Sym.group:    0
1.0
   14.162227     0.000000     0.000000
    0.000000    14.804021     0.000000
    0.000000     0.000000    14.180812
   W   B
  10  15
Direct
    0.701749     0.465689     0.449856 
    0.513119     0.472811     0.489283 
    0.388295     0.440891     0.624384 
    0.423877     0.416876     0.345104 
    0.511392     0.312954     0.591079 
    0.588576     0.537753     0.330843 
    0.633696     0.573022     0.582018 
    0.361614     0.610435     0.681448 
    0.277760     0.560675     0.543398 
    0.524903     0.657173     0.451961 
    0.548782     0.444569     0.651512 
    0.634168     0.409697     0.578964 
    0.614106     0.343799     0.480553 
    0.401892     0.348166     0.489067 
    0.327031     0.521052     0.391719 
    0.329733     0.436086     0.474601 
    0.506875     0.321774     0.434803 
    0.583992     0.388877     0.367766 
    0.391777     0.661816     0.543692 
    0.759282     0.587965     0.505630 
    0.496053     0.543894     0.661558 
    0.439030     0.561767     0.358000 
    0.372861     0.616619     0.438424 
    0.674820     0.618781     0.431724 
    0.494618     0.646857     0.602616 
EA7031 14.455 14.196 14.073 90.00 90.00 90.00 Sym.group:    0
1.0
   14.454582     0.000000     0.000000
    0.000000    14.196068     0.000000
    0.000000     0.000000    14.073356
   W   B
   6  14
Direct
    0.633846     0.520085     0.346379 
    0.466081     0.479237     0.422197 
    0.619847     0.416150     0.522235 
    0.366514     0.444374     0.593193 
    0.566998     0.611085     0.504247 
    0.403583     0.661928     0.426456 
    0.518609     0.613507     0.350481 
    0.684156     0.544895     0.579970 
    0.397966     0.343607     0.474200 
    0.378547     0.589552     0.561435 
    0.582765     0.386143     0.369048 
    0.322768     0.422197     0.450192 
    0.447931     0.682024     0.568248 
    0.511258     0.436886     0.637522 
    0.707956     0.540090     0.470837 
    0.324909     0.537471     0.466262 
    0.589732     0.521515     0.635431 
    0.483953     0.355326     0.556013 
    0.514316     0.331088     0.442436 
    0.478263     0.562843     0.623216 
EA7524 14.522 14.278 12.072 90.00 90.00 90.00 Sym.group:    0
1.0
   14.522201     0.000000     0.000000
    0.000000    14.277695     0.000000
    0.000000     0.000000    12.071512
   W   B
   6  11
Direct
    0.319327     0.548708     0.532096 
    0.382499     0.609677     0.366694 
    0.481454     0.454558     0.435213 
    0.646507     0.437442     0.570980 
    0.553535     0.618501     0.417060 
    0.500127     0.524173     0.623302 
    0.473568     0.362754     0.589770 
    0.329465     0.466425     0.383525 
    0.380662     0.422862     0.610854 
    0.336107     0.399675     0.490380 
    0.553376     0.326396     0.508396 
    0.610989     0.372789     0.413672 
    0.639253     0.480276     0.393685 
    0.538093     0.667232     0.580098 
    0.631293     0.603624     0.575666 
    0.688463     0.555118     0.475700 
    0.435281     0.649792     0.532910 
EA7645 14.697 14.200 13.971 90.00 90.00 90.00 Sym.group:    0
1.0
   14.697215     0.000000     0.000000
    0.000000    14.199942     0.000000
    0.000000     0.000000    13.971438
   W   B
   6  15
Direct
    0.568372     0.589624     0.353543 
    0.646877     0.446514     0.432951 
    0.549280     0.340882     0.548382 
    0.529091     0.608046     0.597300 
    0.345429     0.523100     0.591239 
    0.463987     0.491911     0.457525 
    0.579333     0.684867     0.470440 
    0.651239     0.600003     0.489090 
    0.527430     0.354966     0.396887 
    0.670007     0.523810     0.573969 
    0.544757     0.444300     0.322663 
    0.673398     0.407394     0.585003 
    0.587692     0.466393     0.635484 
    0.349616     0.612819     0.458482 
    0.398724     0.657656     0.554344 
    0.469773     0.659983     0.458866 
    0.475249     0.457398     0.628548 
    0.402996     0.380877     0.570133 
    0.307102     0.510372     0.441184 
    0.333314     0.404787     0.475006 
    0.426336     0.334299     0.458962 
EA7925 15.300 13.799 13.745 90.00 90.00 90.00 Sym.group:    0
1.0
   15.300284     0.000000     0.000000
    0.000000    13.798920     0.000000
    0.000000     0.000000    13.745335
   W   B
   8  14
Direct
    0.385040     0.495864     0.425212 
    0.391182     0.537431     0.666547 
    0.537660     0.608775     0.367654 
    0.523440     0.342613     0.427309 
    0.524342     0.525367     0.546354 
    0.665903     0.396510     0.505480 
    0.403910     0.376376     0.562053 
    0.640162     0.438649     0.670527 
    0.500355     0.423739     0.677466 
    0.439166     0.660983     0.587026 
    0.378361     0.333871     0.412854 
    0.421181     0.382277     0.317528 
    0.430657     0.650624     0.460681 
    0.347048     0.615087     0.535699 
    0.523883     0.688726     0.512742 
    0.500123     0.460289     0.315633 
    0.668365     0.549328     0.563390 
    0.652880     0.544236     0.437027 
    0.598252     0.465717     0.367951 
    0.621694     0.642451     0.497401 
    0.543912     0.352348     0.587119 
    0.302483     0.508733     0.556347 
EA8554 15.025 13.719 12.336 90.00 90.00 90.00 Sym.group:    0
1.0
   15.025475     0.000000     0.000000
    0.000000    13.719069     0.000000
    0.000000     0.000000    12.335944
   W   B
   6  11
Direct
    0.421233     0.538465     0.588066 
    0.427484     0.509551     0.390122 
    0.603739     0.347400     0.528743 
    0.576957     0.613010     0.646026 
    0.508327     0.665055     0.468764 
    0.674422     0.615180     0.494273 
    0.296862     0.573878     0.470717 
    0.479402     0.358071     0.445091 
    0.381168     0.387311     0.504724 
    0.472969     0.382194     0.582746 
    0.302086     0.463072     0.490768 
    0.547267     0.457752     0.636419 
    0.652032     0.484615     0.582745 
    0.575212     0.549205     0.383156 
    0.654325     0.469356     0.440675 
    0.369554     0.658049     0.457857 
    0.556960     0.427837     0.389110 
EA8635 13.971 13.205 14.594 90.00 90.00 90.00 Sym.group:    0
1.0
   13.971498     0.000000     0.000000
    0.000000    13.204772     0.000000
    0.000000     0.000000    14.593851
   W   B
   6  15
Direct
    0.348410     0.606997     0.539035 
    0.469888     0.492796     0.458797 
    0.528448     0.394710     0.602578 
    0.601794     0.618701     0.412425 
    0.702841     0.402435     0.529096 
    0.488451     0.575245     0.644894 
    0.356155     0.596117     0.384601 
    0.311523     0.487037     0.407889 
    0.577137     0.345181     0.459955 
    0.355537     0.371254     0.431880 
    0.383416     0.459410     0.616975 
    0.386849     0.356685     0.547045 
    0.310865     0.449741     0.519235 
    0.460165     0.317420     0.464468 
    0.697390     0.568282     0.523429 
    0.620003     0.451740     0.407538 
    0.604150     0.635630     0.560096 
    0.439384     0.667002     0.423774 
    0.720879     0.510925     0.426931 
    0.497438     0.672560     0.522222 
    0.639279     0.520133     0.617137 
EA9031 15.170 14.004 12.868 90.00 90.00 90.00 Sym.group:    0
1.0
   15.169806     0.000000     0.000000
    0.000000    14.004336     0.000000
    0.000000     0.000000    12.867850
   W   B
   6  15
Direct
    0.623936     0.617507     0.563442 
    0.531097     0.498872     0.455771 
    0.477636     0.391363     0.609226 
    0.398791     0.604666     0.399267 
    0.325928     0.382122     0.509937 
    0.491329     0.562279     0.669166 
    0.626338     0.613041     0.387274 
    0.678413     0.515044     0.408971 
    0.453161     0.352323     0.438523 
    0.651767     0.400701     0.430402 
    0.603157     0.472486     0.638235 
    0.616274     0.378953     0.556155 
    0.677347     0.476990     0.535118 
    0.560745     0.335315     0.456194 
    0.310161     0.537188     0.512443 
    0.404721     0.447991     0.380382 
    0.383576     0.608709     0.566853 
    0.539923     0.666204     0.428594 
    0.303446     0.486376     0.398378 
    0.479471     0.658329     0.535068 
    0.362784     0.493544     0.620601 
EA9356 14.984 13.814 12.895 90.00 90.00 90.00 Sym.group:    0
1.0
   14.983533     0.000000     0.000000
    0.000000    13.813731     0.000000
    0.000000     0.000000    12.895338
   W   B
   6  15
Direct
    0.376939     0.624656     0.551905 
    0.467125     0.496709     0.455847 
    0.519493     0.393829     0.615926 
    0.605888     0.599962     0.394099 
    0.673168     0.376062     0.519309 
    0.510126     0.566533     0.666533 
    0.375405     0.612792     0.378806 
    0.319962     0.516112     0.406688 
    0.544786     0.348016     0.448120 
    0.344430     0.399892     0.434409 
    0.393137     0.481611     0.637908 
    0.379184     0.382932     0.561271 
    0.319279     0.482409     0.534161 
    0.435417     0.332514     0.465206 
    0.692854     0.534573     0.512476 
    0.596126     0.441564     0.386245 
    0.619647     0.610683     0.561324 
    0.465303     0.665067     0.417758 
    0.699953     0.477111     0.402804 
    0.523428     0.660852     0.527186 
    0.638345     0.496123     0.622020 
EA9599 13.809 15.688 13.415 90.00 90.00 90.00 Sym.group:    0
1.0
   13.808669     0.000000     0.000000
    0.000000    15.688009     0.000000
    0.000000     0.000000    13.415390
   W   B
   7  15
Direct
    0.323748     0.416246     0.463796 
    0.473062     0.494342     0.503052 
    0.316558     0.553320     0.596491 
    0.392156     0.642969     0.467913 
    0.565626     0.576787     0.377895 
    0.614140     0.377888     0.527659 
    0.620029     0.543740     0.597841 
    0.439709     0.434173     0.349221 
    0.382370     0.529802     0.362864 
    0.284008     0.546419     0.437715 
    0.448549     0.357058     0.558273 
    0.473494     0.357173     0.433564 
    0.381190     0.426240     0.626216 
    0.663112     0.466646     0.406522 
    0.727430     0.463386     0.513996 
    0.708286     0.557355     0.457413 
    0.650646     0.644469     0.484461 
    0.560091     0.419714     0.378934 
    0.516396     0.418169     0.643113 
    0.452861     0.510018     0.671334 
    0.539763     0.654246     0.525808 
    0.466774     0.609838     0.615923 
EA9993 13.791 14.242 14.265 90.00 90.00 90.00 Sym.group:    0
1.0
   13.791110     0.000000     0.000000
    0.000000    14.241570     0.000000
    0.000000     0.000000    14.264594
   W   B
   6  15
Direct
    0.497058     0.499914     0.326790 
    0.677972     0.486737     0.544726 
    0.429924     0.563801     0.660959 
    0.499275     0.487466     0.503025 
    0.423712     0.397637     0.644517 
    0.320472     0.511156     0.408234 
    0.577507     0.377645     0.605038 
    0.632458     0.550783     0.405200 
    0.615301     0.618516     0.502667 
    0.606254     0.358956     0.492836 
    0.539136     0.627710     0.411269 
    0.529904     0.364179     0.395177 
    0.411136     0.386030     0.400197 
    0.629042     0.433283     0.402180 
    0.493109     0.644088     0.529392 
    0.577262     0.592407     0.614655 
    0.420175     0.618683     0.406482 
    0.370411     0.605979     0.521949 
    0.352404     0.394961     0.505760 
    0.328135     0.498808     0.559249 
    0.569354     0.481257     0.659698 
EA10378 13.791 14.242 14.265 90.00 90.00 90.00 Sym.group:    0
1.0
   13.791110     0.000000     0.000000
    0.000000    14.241570     0.000000
    0.000000     0.000000    14.264594
   W   B
   6  15
Direct
    0.497058     0.499914     0.326790 
    0.677972     0.486737     0.544726 
    0.429924     0.563801     0.660959 
    0.499275     0.487466     0.503025 
    0.423712     0.397637     0.644517 
    0.320472     0.511156     0.408234 
    0.577507     0.377645     0.605038 
    0.632458     0.550783     0.405200 
    0.615301     0.618516     0.502667 
    0.606254     0.358956     0.492836 
    0.539136     0.627710     0.411269 
    0.529904     0.364179     0.395177 
    0.411136     0.386030     0.400197 
    0.629042     0.433283     0.402180 
    0.493109     0.644088     0.529392 
    0.577262     0.592407     0.614655 
    0.420175     0.618683     0.406482 
    0.370411     0.605979     0.521949 
    0.352404     0.394961     0.505760 
    0.328135     0.498808     0.559249 
    0.569354     0.481257     0.659698 
EA10603 15.300 13.831 14.374 90.00 90.00 90.00 Sym.group:    0
1.0
   15.299926     0.000000     0.000000
    0.000000    13.830507     0.000000
    0.000000     0.000000    14.373571
   W   B
  10  15
Direct
    0.598936     0.558099     0.389243 
    0.597694     0.373190     0.442010 
    0.469591     0.491018     0.492391 
    0.571675     0.411109     0.619556 
    0.451320     0.306160     0.378310 
    0.343039     0.336493     0.500618 
    0.358364     0.600647     0.611689 
    0.342584     0.620005     0.438839 
    0.346161     0.458496     0.366372 
    0.537190     0.602370     0.626670 
    0.712835     0.457036     0.425301 
    0.693688     0.436778     0.540392 
    0.665014     0.537213     0.602693 
    0.717346     0.550010     0.493360 
    0.485865     0.316599     0.528427 
    0.495910     0.452446     0.335822 
    0.431101     0.369080     0.617875 
    0.453620     0.678973     0.523132 
    0.297136     0.490032     0.517159 
    0.649141     0.631459     0.529320 
    0.455886     0.564664     0.339121 
    0.557469     0.674366     0.490909 
    0.480897     0.655944     0.409487 
    0.444150     0.482655     0.664883 
    0.343390     0.445158     0.616421 
EA11183 13.676 13.743 14.093 90.00 90.00 90.00 Sym.group:    0
1.0
   13.676168     0.000000     0.000000
    0.000000    13.742709     0.000000
    0.000000     0.000000    14.092613
   W   B
   8  11
Direct
    0.506298     0.319507     0.522344 
    0.674551     0.455520     0.608336 
    0.502525     0.505032     0.518869 
    0.582998     0.656665     0.418762 
    0.312665     0.527157     0.444807 
    0.450501     0.535789     0.334890 
    0.512313     0.699366     0.565299 
    0.660788     0.371935     0.458926 
    0.417746     0.418158     0.637672 
    0.522551     0.401158     0.378990 
    0.534588     0.409136     0.651071 
    0.344549     0.503543     0.598481 
    0.405897     0.399665     0.416988 
    0.359571     0.402072     0.529653 
    0.638656     0.604862     0.562717 
    0.670777     0.532962     0.469040 
    0.603926     0.495800     0.372762 
    0.378469     0.616515     0.560913 
    0.420632     0.645159     0.449480 
EA11521 14.067 14.221 13.172 90.00 90.00 90.00 Sym.group:    0
1.0
   14.067068     0.000000     0.000000
    0.000000    14.220559     0.000000
    0.000000     0.000000    13.171784
   W   B
   8  11
Direct
    0.481634     0.324702     0.463901 
    0.653970     0.417030     0.618904 
    0.499897     0.497588     0.519968 
    0.601355     0.657840     0.468852 
    0.328464     0.560682     0.434568 
    0.476104     0.581603     0.337101 
    0.520788     0.667236     0.625927 
    0.646686     0.377353     0.440694 
    0.400419     0.394709     0.608592 
    0.527937     0.436575     0.349605 
    0.511942     0.368668     0.624100 
    0.341961     0.493548     0.589853 
    0.409655     0.440905     0.376106 
    0.353229     0.418349     0.489501 
    0.631592     0.566285     0.608542 
    0.669962     0.521440     0.494461 
    0.614564     0.517772     0.378496 
    0.387296     0.603822     0.587254 
    0.442545     0.653892     0.483573 
EA11860 14.099 14.148 13.144 90.00 90.00 90.00 Sym.group:    0
1.0
   14.098872     0.000000     0.000000
    0.000000    14.148491     0.000000
    0.000000     0.000000    13.143960
   W   B
   8  11
Direct
    0.495965     0.681249     0.484665 
    0.664926     0.557126     0.622262 
    0.500137     0.499623     0.519454 
    0.584727     0.336912     0.446000 
    0.322283     0.461332     0.435238 
    0.463064     0.438852     0.327473 
    0.508662     0.315996     0.603999 
    0.654324     0.615576     0.450449 
    0.415378     0.602919     0.624311 
    0.529258     0.576676     0.356540 
    0.529182     0.617527     0.636488 
    0.348053     0.510587     0.597729 
    0.412324     0.579851     0.387852 
    0.361794     0.595268     0.506052 
    0.626044     0.410769     0.595731 
    0.665804     0.464045     0.485934 
    0.607801     0.484901     0.373101 
    0.381970     0.397169     0.579648 
    0.428303     0.353624     0.467073 
EA12030 14.375 14.075 14.157 90.00 90.00 90.00 Sym.group:    0
1.0
   14.375216     0.000000     0.000000
    0.000000    14.074649     0.000000
    0.000000     0.000000    14.156955
   W   B
  10  11
Direct
    0.537008     0.706640     0.417637 
    0.463979     0.564284     0.331702 
    0.405118     0.430865     0.648948 
    0.335327     0.370981     0.502519 
    0.383914     0.652456     0.467196 
    0.500232     0.491969     0.506654 
    0.493992     0.305991     0.559639 
    0.552376     0.561616     0.671504 
    0.575316     0.407863     0.363434 
    0.645745     0.630059     0.528740 
    0.413002     0.423753     0.365024 
    0.455351     0.330128     0.419374 
    0.339653     0.522808     0.542021 
    0.414504     0.593218     0.609423 
    0.500205     0.664925     0.566239 
    0.345994     0.505559     0.418521 
    0.606360     0.562486     0.388332 
    0.665627     0.489490     0.462201 
    0.657139     0.486869     0.581335 
    0.625273     0.385654     0.517695 
    0.583884     0.412388     0.631865 
EA12620 14.678 14.157 12.833 90.00 90.00 90.00 Sym.group:    0
1.0
   14.678438     0.000000     0.000000
    0.000000    14.156603     0.000000
    0.000000     0.000000    12.832925
   W   B
   6  11
Direct
    0.442382     0.417721     0.369741 
    0.314582     0.506013     0.461726 
    0.496881     0.500552     0.547406 
    0.503345     0.299215     0.481687 
    0.686722     0.502801     0.475756 
    0.568353     0.545747     0.351557 
    0.357080     0.457886     0.614745 
    0.397834     0.630998     0.511142 
    0.368248     0.568322     0.609584 
    0.420540     0.583245     0.391258 
    0.611084     0.383716     0.547196 
    0.627680     0.467984     0.629994 
    0.626603     0.577825     0.609778 
    0.592911     0.400345     0.413710 
    0.599247     0.628711     0.502135 
    0.388151     0.379047     0.530923 
    0.498358     0.649874     0.451663 
EA12969 14.702 14.204 12.813 90.00 90.00 90.00 Sym.group:    0
1.0
   14.702425     0.000000     0.000000
    0.000000    14.204137     0.000000
    0.000000     0.000000    12.813164
   W   B
   6  11
Direct
    0.546342     0.417705     0.360154 
    0.684063     0.484570     0.469607 
    0.502718     0.506327     0.544201 
    0.315462     0.512751     0.476483 
    0.436500     0.549134     0.349041 
    0.647484     0.640420     0.518921 
    0.627832     0.426375     0.611357 
    0.641324     0.536746     0.628814 
    0.580790     0.568073     0.386286 
    0.383297     0.392334     0.549344 
    0.371685     0.479363     0.630058 
    0.377036     0.588972     0.604246 
    0.402040     0.404653     0.416643 
    0.409572     0.636026     0.496373 
    0.582956     0.362444     0.521584 
    0.514272     0.648539     0.445691 
    0.476629     0.345567     0.491200 
EA13279 14.575 14.062 12.881 90.00 90.00 90.00 Sym.group:    0
1.0
   14.574614     0.000000     0.000000
    0.000000    14.061918     0.000000
    0.000000     0.000000    12.881381
   W   B
   7  11
Direct
    0.345203     0.443193     0.482643 
    0.520317     0.485604     0.566836 
    0.446889     0.297840     0.552112 
    0.516121     0.567437     0.375861 
    0.448001     0.646697     0.526500 
    0.683238     0.562231     0.450561 
    0.478673     0.373467     0.387016 
    0.398519     0.413534     0.637180 
    0.374389     0.530620     0.617392 
    0.611370     0.618126     0.589506 
    0.670440     0.523130     0.608797 
    0.663959     0.424235     0.541851 
    0.610269     0.435410     0.420271 
    0.584948     0.344544     0.511552 
    0.389556     0.490367     0.327782 
    0.587243     0.671958     0.478351 
    0.313360     0.588357     0.523919 
    0.357503     0.583250     0.401871 
EA13408 14.180 13.758 14.038 90.00 90.00 90.00 Sym.group:    0
1.0
   14.179932     0.000000     0.000000
    0.000000    13.758230     0.000000
    0.000000     0.000000    14.037957
   W   B
  10  11
Direct
    0.408407     0.594422     0.358166 
    0.329140     0.360948     0.512008 
    0.379929     0.658409     0.520165 
    0.495559     0.496349     0.502509 
    0.482237     0.338804     0.594580 
    0.612627     0.532835     0.647397 
    0.521353     0.436178     0.321338 
    0.657087     0.620378     0.493187 
    0.613189     0.340668     0.447271 
    0.334032     0.505121     0.617646 
    0.381292     0.433644     0.384417 
    0.458190     0.342262     0.430504 
    0.464068     0.593198     0.640877 
    0.529461     0.660559     0.566970 
    0.325093     0.511771     0.460260 
    0.566697     0.580671     0.369021 
    0.644560     0.491065     0.402770 
    0.679019     0.468288     0.516801 
    0.630872     0.389327     0.592598 
    0.519102     0.668381     0.444773 
    0.468087     0.476723     0.676740 
EA13749 14.259 13.774 14.229 90.00 90.00 90.00 Sym.group:    0
1.0
   14.258655     0.000000     0.000000
    0.000000    13.774400     0.000000
    0.000000     0.000000    14.229119
   W   B
  10  11
Direct
    0.410458     0.547416     0.336636 
    0.386520     0.659648     0.466963 
    0.494617     0.498874     0.502354 
    0.471642     0.388571     0.635615 
    0.605583     0.569283     0.629658 
    0.512239     0.379320     0.356685 
    0.664077     0.594352     0.457678 
    0.597693     0.325334     0.508598 
    0.333628     0.550631     0.601776 
    0.684080     0.426218     0.395921 
    0.371623     0.408485     0.408724 
    0.434685     0.338452     0.489057 
    0.465541     0.638610     0.602881 
    0.540481     0.669270     0.514973 
    0.322342     0.508645     0.456355 
    0.566288     0.529969     0.352215 
    0.682956     0.457640     0.544338 
    0.620992     0.412808     0.633362 
    0.528758     0.639148     0.396972 
    0.459276     0.544946     0.676583 
    0.346522     0.412377     0.532655 
EA14321 13.864 14.160 13.835 90.00 90.00 90.00 Sym.group:    0
1.0
   13.864214     0.000000     0.000000
    0.000000    14.159734     0.000000
    0.000000     0.000000    13.834792
   W   B
   6  11
Direct
    0.400914     0.417829     0.411547 
    0.479650     0.507057     0.564023 
    0.435331     0.595777     0.400050 
    0.668640     0.451618     0.602686 
    0.605150     0.405451     0.441789 
    0.616888     0.612631     0.621301 
    0.322618     0.535148     0.505155 
    0.372125     0.634206     0.539326 
    0.415680     0.356705     0.563708 
    0.330672     0.433294     0.555603 
    0.493444     0.312639     0.486009 
    0.542171     0.360332     0.587345 
    0.513977     0.479413     0.330175 
    0.569427     0.630395     0.474541 
    0.588254     0.548818     0.386670 
    0.481661     0.669137     0.545389 
    0.663400     0.549547     0.484683 
EA14388 15.534 13.981 13.833 90.00 90.00 90.00 Sym.group:    0
1.0
   15.534351     0.000000     0.000000
    0.000000    13.980811     0.000000
    0.000000     0.000000    13.833441
   W   B
   7  15
Direct
    0.607884     0.336484     0.521588 
    0.619758     0.470023     0.658907 
    0.573254     0.665971     0.483233 
    0.511222     0.499568     0.497622 
    0.404490     0.618592     0.578719 
    0.369561     0.428106     0.585135 
    0.688369     0.492475     0.509878 
    0.500990     0.384798     0.624176 
    0.469417     0.335346     0.512459 
    0.475699     0.502977     0.661953 
    0.640636     0.611619     0.603857 
    0.617963     0.548846     0.383375 
    0.612050     0.421015     0.391206 
    0.440254     0.644836     0.426586 
    0.326722     0.469253     0.439159 
    0.292054     0.540817     0.527082 
    0.533961     0.478407     0.334822 
    0.517725     0.593143     0.356046 
    0.402987     0.391169     0.434850 
    0.510256     0.369976     0.397990 
    0.536272     0.606691     0.633523 
    0.348478     0.589892     0.437834 
EA14907 14.125 13.442 12.734 90.00 90.00 90.00 Sym.group:    0
1.0
   14.124854     0.000000     0.000000
    0.000000    13.442477     0.000000
    0.000000     0.000000    12.734477
   W   B
   8  11
Direct
    0.364099     0.374153     0.425130 
    0.498990     0.494039     0.525242 
    0.676607     0.559348     0.476051 
    0.409348     0.666663     0.449422 
    0.540255     0.597681     0.342176 
    0.327238     0.421201     0.604646 
    0.468832     0.314816     0.580071 
    0.658948     0.382353     0.513770 
    0.487272     0.445230     0.338868 
    0.373193     0.575409     0.600102 
    0.399577     0.525774     0.362763 
    0.335955     0.527679     0.476390 
    0.634928     0.499071     0.634041 
    0.602019     0.445983     0.372853 
    0.554620     0.665725     0.502245 
    0.524882     0.349320     0.420882 
    0.591834     0.612701     0.613914 
    0.474964     0.645570     0.603013 
    0.576440     0.397282     0.658419 
EA15315 14.723 14.475 11.780 90.00 90.00 90.00 Sym.group:    0
1.0
   14.723419     0.000000     0.000000
    0.000000    14.475009     0.000000
    0.000000     0.000000    11.780162
   W   B
   7  11
Direct
    0.577929     0.430355     0.406102 
    0.481113     0.397623     0.604114 
    0.405047     0.464395     0.401546 
    0.424524     0.565979     0.593766 
    0.515301     0.601117     0.403226 
    0.595464     0.530338     0.601042 
    0.337199     0.650545     0.406653 
    0.538081     0.678022     0.567843 
    0.673640     0.558281     0.441813 
    0.649916     0.368383     0.555710 
    0.468574     0.315839     0.442002 
    0.328161     0.439469     0.561856 
    0.702317     0.457068     0.499736 
    0.569193     0.303670     0.504200 
    0.368362     0.344712     0.499672 
    0.296604     0.539200     0.498424 
    0.435654     0.703315     0.508837 
    0.632922     0.651688     0.503457 
EA15360 14.279 14.788 14.402 90.00 90.00 90.00 Sym.group:    0
1.0
   14.279417     0.000000     0.000000
    0.000000    14.787945     0.000000
    0.000000     0.000000    14.401821
   W   B
  10  14
Direct
    0.487844     0.494998     0.493205 
    0.341854     0.397909     0.448251 
    0.636318     0.554400     0.390044 
    0.393034     0.670933     0.456004 
    0.463568     0.297735     0.510964 
    0.492257     0.653719     0.607302 
    0.619528     0.380058     0.444064 
    0.561448     0.393180     0.622285 
    0.656591     0.627488     0.549631 
    0.432778     0.512588     0.682054 
    0.481806     0.578617     0.359981 
    0.425340     0.466043     0.336965 
    0.330551     0.483724     0.572073 
    0.545060     0.456391     0.334136 
    0.478818     0.372535     0.378516 
    0.310075     0.550938     0.479441 
    0.396325     0.391378     0.599309 
    0.352836     0.598919     0.580604 
    0.539574     0.646547     0.452299 
    0.365273     0.548755     0.374552 
    0.706059     0.397866     0.565261 
    0.685132     0.494456     0.615392 
    0.715872     0.489395     0.499719 
    0.582060     0.541430     0.647950 
EA15949 14.927 13.850 13.012 90.00 90.00 90.00 Sym.group:    0
1.0
   14.927187     0.000000     0.000000
    0.000000    13.850041     0.000000
    0.000000     0.000000    13.011572
   W   B
   6  13
Direct
    0.333771     0.474515     0.448986 
    0.489833     0.506135     0.544328 
    0.640502     0.400945     0.557013 
    0.589266     0.672913     0.591661 
    0.597102     0.476708     0.370644 
    0.546700     0.646264     0.416521 
    0.617580     0.531908     0.630919 
    0.420122     0.352212     0.475519 
    0.387438     0.387138     0.591384 
    0.459669     0.416141     0.374388 
    0.495224     0.340307     0.575810 
    0.533024     0.358051     0.455139 
    0.359690     0.598898     0.559650 
    0.344714     0.492712     0.610913 
    0.402764     0.614393     0.437555 
    0.449717     0.667334     0.549633 
    0.450429     0.534096     0.355416 
    0.720243     0.468712     0.449184 
    0.662210     0.560618     0.505335 
EA16300 13.729 14.017 14.732 90.00 90.00 90.00 Sym.group:    0
1.0
   13.729044     0.000000     0.000000
    0.000000    14.017450     0.000000
    0.000000     0.000000    14.731817
   W   B
   7  11
Direct
    0.523144     0.368583     0.583711 
    0.344444     0.572413     0.385475 
    0.427960     0.529601     0.633774 
    0.492119     0.494106     0.457675 
    0.530434     0.653930     0.569465 
    0.686411     0.511832     0.408236 
    0.704061     0.593139     0.540632 
    0.339871     0.433112     0.434370 
    0.371890     0.408666     0.551665 
    0.381959     0.626401     0.521011 
    0.324809     0.519609     0.521835 
    0.417116     0.343601     0.468283 
    0.527403     0.326450     0.438837 
    0.585097     0.510559     0.613396 
    0.663052     0.444380     0.546891 
    0.626621     0.376863     0.460312 
    0.463707     0.657198     0.432876 
    0.589904     0.629554     0.431557 
EA16399 15.103 13.980 14.563 90.00 90.00 90.00 Sym.group:    0
1.0
   15.102775     0.000000     0.000000
    0.000000    13.980237     0.000000
    0.000000     0.000000    14.563004
   W   B
   8  15
Direct
    0.494800     0.503989     0.494151 
    0.386412     0.583700     0.390754 
    0.632925     0.445775     0.397425 
    0.610695     0.544313     0.626386 
    0.646740     0.611639     0.438879 
    0.512095     0.383023     0.630065 
    0.369673     0.390911     0.394340 
    0.476668     0.458851     0.297265 
    0.535382     0.590221     0.344055 
    0.704323     0.499980     0.519676 
    0.508118     0.665544     0.429424 
    0.641038     0.408725     0.555784 
    0.484289     0.624183     0.616396 
    0.436765     0.665329     0.517786 
    0.377490     0.582778     0.570967 
    0.474309     0.522319     0.675091 
    0.554690     0.663682     0.537221 
    0.570970     0.342764     0.495038 
    0.384346     0.380874     0.548302 
    0.463103     0.320911     0.496231 
    0.336345     0.488126     0.511305 
    0.387028     0.471154     0.620924 
    0.511796     0.351209     0.392535 
EA16795 14.565 14.050 13.985 90.00 90.00 90.00 Sym.group:    0
1.0
   14.564525     0.000000     0.000000
    0.000000    14.049812     0.000000
    0.000000     0.000000    13.985200
   W   B
   8  13
Direct
    0.558456     0.570738     0.655741 
    0.585524     0.383475     0.602837 
    0.490870     0.501835     0.497629 
    0.361924     0.386676     0.428113 
    0.390125     0.588640     0.629557 
    0.502248     0.417782     0.328743 
    0.630514     0.616016     0.494374 
    0.392382     0.550293     0.344888 
    0.490430     0.667555     0.544544 
    0.389713     0.637380     0.479213 
    0.456956     0.446376     0.654946 
    0.356647     0.445877     0.579989 
    0.332241     0.529084     0.491546 
    0.601579     0.383480     0.445029 
    0.684319     0.504026     0.611971 
    0.499521     0.332530     0.470549 
    0.548753     0.572273     0.353671 
    0.670199     0.464473     0.502414 
    0.495934     0.654891     0.423065 
    0.435697     0.355659     0.570570 
    0.625970     0.490943     0.390611 
EA17164 14.569 14.113 14.276 90.00 90.00 90.00 Sym.group:    0
1.0
   14.569173     0.000000     0.000000
    0.000000    14.112700     0.000000
    0.000000     0.000000    14.275841
   W   B
   8  13
Direct
    0.442485     0.489702     0.669118 
    0.386999     0.370152     0.529068 
    0.509057     0.499901     0.499362 
    0.620289     0.411845     0.379671 
    0.612884     0.484575     0.651950 
    0.497359     0.515771     0.312471 
    0.396033     0.629026     0.553813 
    0.625697     0.597297     0.393519 
    0.532706     0.613974     0.623999 
    0.632459     0.600661     0.552312 
    0.521490     0.366585     0.604047 
    0.623933     0.383330     0.536419 
    0.668798     0.493255     0.504203 
    0.381738     0.451310     0.395130 
    0.314475     0.496357     0.598314 
    0.472427     0.375259     0.391225 
    0.480859     0.642570     0.413486 
    0.326505     0.507306     0.485136 
    0.539592     0.666696     0.513903 
    0.528480     0.330527     0.486836 
    0.385737     0.573903     0.406018 
EA17658 14.948 13.575 13.584 90.00 90.00 90.00 Sym.group:    0
1.0
   14.948374     0.000000     0.000000
    0.000000    13.574872     0.000000
    0.000000     0.000000    13.583745
   W   B
   8  11
Direct
    0.546067     0.473342     0.637682 
    0.442666     0.338957     0.561960 
    0.309757     0.420278     0.509319 
    0.694037     0.568627     0.529048 
    0.446947     0.631126     0.586223 
    0.460648     0.637832     0.398182 
    0.659624     0.435554     0.416467 
    0.513154     0.483339     0.321501 
    0.423979     0.388497     0.407774 
    0.378385     0.499708     0.386094 
    0.591465     0.356494     0.533713 
    0.530012     0.362381     0.429666 
    0.401718     0.477776     0.625647 
    0.319611     0.552436     0.588840 
    0.347307     0.578306     0.474033 
    0.599743     0.584498     0.405154 
    0.572517     0.661898     0.497673 
    0.587644     0.625212     0.614912 
    0.674718     0.423739     0.576112 
EA17826 15.801 13.462 13.136 90.00 90.00 90.00 Sym.group:    0
1.0
   15.800728     0.000000     0.000000
    0.000000    13.461791     0.000000
    0.000000     0.000000    13.135631
   W   B
   6  15
Direct
    0.342800     0.589098     0.411773 
    0.339886     0.417315     0.412251 
    0.584503     0.639916     0.494644 
    0.584690     0.502864     0.356730 
    0.577896     0.355262     0.504604 
    0.571292     0.494534     0.643498 
    0.681786     0.569349     0.580005 
    0.684656     0.419483     0.429531 
    0.443420     0.500839     0.335858 
    0.441921     0.337206     0.500740 
    0.426472     0.502809     0.630853 
    0.474662     0.389294     0.612511 
    0.483815     0.606264     0.601813 
    0.482348     0.607685     0.387448 
    0.483182     0.402311     0.399685 
    0.322295     0.504960     0.552111 
    0.378131     0.605775     0.569202 
    0.683377     0.449604     0.553849 
    0.373712     0.400963     0.570322 
    0.448045     0.664161     0.495972 
    0.691111     0.540309     0.456599 
EA18218 13.722 14.533 13.876 90.00 90.00 90.00 Sym.group:    0
1.0
   13.721871     0.000000     0.000000
    0.000000    14.532932     0.000000
    0.000000     0.000000    13.876030
   W   B
   9  11
Direct
    0.540873     0.541269     0.666315 
    0.379358     0.615501     0.618739 
    0.362616     0.354945     0.535021 
    0.525890     0.375757     0.630218 
    0.683626     0.518279     0.440813 
    0.581109     0.408340     0.347906 
    0.536435     0.601145     0.369409 
    0.481429     0.499824     0.493658 
    0.292922     0.512334     0.516341 
    0.517962     0.339642     0.475369 
    0.661504     0.461280     0.589231 
    0.608332     0.633994     0.517849 
    0.679408     0.571844     0.590139 
    0.627373     0.388393     0.500335 
    0.394319     0.468490     0.638433 
    0.438378     0.476116     0.329583 
    0.431223     0.374258     0.395817 
    0.368957     0.556057     0.376517 
    0.395968     0.637819     0.452946 
    0.492320     0.664715     0.515361 
EA18502 15.043 13.672 13.307 90.00 90.00 90.00 Sym.group:    0
1.0
   15.043158     0.000000     0.000000
    0.000000    13.671833     0.000000
    0.000000     0.000000    13.306716
   W   B
   6  15
Direct
    0.666617     0.593565     0.425657 
    0.667107     0.424384     0.405869 
    0.412753     0.639712     0.511283 
    0.413078     0.520560     0.359778 
    0.415493     0.360283     0.486164 
    0.423903     0.479551     0.639241 
    0.310325     0.562907     0.586294 
    0.304584     0.434847     0.420039 
    0.560803     0.518507     0.342926 
    0.558417     0.339507     0.480935 
    0.577880     0.485775     0.627634 
    0.524258     0.378236     0.596289 
    0.518084     0.591385     0.612178 
    0.521374     0.620702     0.401683 
    0.517073     0.414099     0.388484 
    0.682248     0.494517     0.551368 
    0.629879     0.594358     0.582393 
    0.306259     0.448629     0.545427 
    0.631819     0.388910     0.558840 
    0.557530     0.660091     0.516128 
    0.300516     0.549475     0.461388 
EA18789 14.461 14.054 14.427 90.00 90.00 90.00 Sym.group:    0
1.0
   14.461292     0.000000     0.000000
    0.000000    14.053822     0.000000
    0.000000     0.000000    14.427169
   W   B
   7  15
Direct
    0.498220     0.495967     0.494962 
    0.485360     0.671639     0.542151 
    0.352809     0.478129     0.383696 
    0.517861     0.532224     0.685869 
    0.679037     0.452556     0.481818 
    0.580825     0.389566     0.624778 
    0.650541     0.622593     0.492529 
    0.541256     0.622842     0.389839 
    0.392191     0.566844     0.604929 
    0.365939     0.384356     0.505138 
    0.332122     0.487827     0.540040 
    0.357386     0.591814     0.490427 
    0.447497     0.362919     0.420063 
    0.428079     0.610792     0.400260 
    0.466285     0.336166     0.540300 
    0.416483     0.429188     0.615006 
    0.574494     0.408724     0.376995 
    0.558898     0.340676     0.469619 
    0.657350     0.529396     0.616993 
    0.606475     0.642776     0.632599 
    0.604007     0.521776     0.357755 
    0.486887     0.521232     0.334237 
EA19376 13.830 14.365 12.821 90.00 90.00 90.00 Sym.group:    0
1.0
   13.829740     0.000000     0.000000
    0.000000    14.364912     0.000000
    0.000000     0.000000    12.820997
   W   B
   7  11
Direct
    0.507686     0.490413     0.464557 
    0.492660     0.352147     0.594075 
    0.406149     0.624917     0.591183 
    0.419096     0.339902     0.376824 
    0.539829     0.529421     0.668851 
    0.330081     0.369119     0.526115 
    0.688426     0.417016     0.447177 
    0.559140     0.640729     0.553909 
    0.660292     0.543139     0.387320 
    0.381687     0.588205     0.424912 
    0.398789     0.477241     0.619747 
    0.646770     0.557207     0.531567 
    0.359871     0.477101     0.384092 
    0.596992     0.627706     0.428411 
    0.481187     0.653187     0.448791 
    0.647561     0.450269     0.595037 
    0.322296     0.520579     0.517422 
    0.561487     0.341704     0.440011 
EA19728 14.509 13.765 12.319 90.00 90.00 90.00 Sym.group:    0
1.0
   14.509455     0.000000     0.000000
    0.000000    13.764567     0.000000
    0.000000     0.000000    12.319362
   W   B
   6  12
Direct
    0.318225     0.529671     0.554331 
    0.491104     0.482878     0.453894 
    0.567959     0.640359     0.565702 
    0.663736     0.440011     0.412648 
    0.597779     0.354718     0.565262 
    0.418861     0.400078     0.630540 
    0.421464     0.641440     0.525935 
    0.383007     0.594740     0.403073 
    0.347171     0.483862     0.390320 
    0.361149     0.388748     0.469246 
    0.598410     0.600457     0.398683 
    0.492891     0.645367     0.411968 
    0.549169     0.337662     0.404659 
    0.649899     0.504102     0.575651 
    0.459448     0.317083     0.485288 
    0.686910     0.583027     0.481670 
    0.446966     0.562126     0.629801 
    0.545854     0.493669     0.641331 
EA20058 14.542 13.713 12.365 90.00 90.00 90.00 Sym.group:    0
1.0
   14.541718     0.000000     0.000000
    0.000000    13.713312     0.000000
    0.000000     0.000000    12.364973
   W   B
   6  12
Direct
    0.678354     0.549685     0.552092 
    0.509063     0.484733     0.455494 
    0.419821     0.631309     0.569590 
    0.341114     0.421449     0.415691 
    0.418400     0.342781     0.566476 
    0.597173     0.407918     0.625914 
    0.563368     0.649120     0.525017 
    0.604096     0.609737     0.401518 
    0.650712     0.503856     0.387321 
    0.648239     0.406848     0.463854 
    0.390219     0.590368     0.402218 
    0.490290     0.646984     0.413017 
    0.465214     0.333544     0.405142 
    0.353142     0.486135     0.577809 
    0.556950     0.322616     0.483341 
    0.306037     0.561631     0.486736 
    0.549092     0.565715     0.628414 
    0.458717     0.485572     0.640357 
EA20408 14.837 14.130 13.394 90.00 90.00 90.00 Sym.group:    0
1.0
   14.836762     0.000000     0.000000
    0.000000    14.129681     0.000000
    0.000000     0.000000    13.394067
   W   B
   7  11
Direct
    0.673005     0.525954     0.454362 
    0.527022     0.315949     0.498727 
    0.628918     0.426693     0.599672 
    0.308722     0.471173     0.455557 
    0.473539     0.653166     0.596436 
    0.421952     0.529910     0.339387 
    0.372869     0.510288     0.624775 
    0.599243     0.576704     0.588329 
    0.484319     0.408753     0.621458 
    0.520412     0.517847     0.653488 
    0.633819     0.386165     0.435687 
    0.430160     0.394878     0.413712 
    0.539504     0.447514     0.395927 
    0.381482     0.596447     0.483955 
    0.402021     0.385319     0.540695 
    0.553241     0.571184     0.380711 
    0.472699     0.643841     0.434132 
    0.577074     0.638214     0.482990 
EA20625 14.898 13.237 13.579 90.00 90.00 90.00 Sym.group:    0
1.0
   14.897861     0.000000     0.000000
    0.000000    13.236535     0.000000
    0.000000     0.000000    13.579476
   W   B
   7  13
Direct
    0.396632     0.599236     0.600500 
    0.406131     0.373720     0.491419 
    0.497218     0.541776     0.425162 
    0.706832     0.479414     0.533626 
    0.550732     0.516975     0.620242 
    0.576823     0.364927     0.464201 
    0.439822     0.371123     0.319029 
    0.314903     0.512512     0.497335 
    0.639809     0.600628     0.455493 
    0.651797     0.624162     0.572198 
    0.566630     0.435473     0.318573 
    0.422668     0.432789     0.648873 
    0.366510     0.612565     0.442354 
    0.548032     0.663195     0.531086 
    0.625428     0.375878     0.615234 
    0.323784     0.460149     0.605074 
    0.447974     0.688588     0.479524 
    0.362337     0.491552     0.381711 
    0.643697     0.499029     0.385215 
    0.512239     0.356309     0.613151 
EA20896 14.453 13.941 13.570 90.00 90.00 90.00 Sym.group:    0
1.0
   14.452830     0.000000     0.000000
    0.000000    13.941286     0.000000
    0.000000     0.000000    13.569552
   W   B
   6  15
Direct
    0.544947     0.359227     0.600142 
    0.662349     0.558985     0.503444 
    0.574361     0.541095     0.668009 
    0.421535     0.618138     0.636320 
    0.457943     0.440526     0.328829 
    0.491719     0.503408     0.496625 
    0.674843     0.437019     0.603484 
    0.545405     0.656436     0.552177 
    0.548453     0.649222     0.425263 
    0.610421     0.449126     0.381443 
    0.648479     0.400304     0.490196 
    0.549962     0.354475     0.433738 
    0.568827     0.556106     0.350327 
    0.344570     0.497443     0.576309 
    0.437149     0.460328     0.656661 
    0.389199     0.386066     0.566645 
    0.432952     0.350543     0.458457 
    0.453875     0.592890     0.362541 
    0.352616     0.577825     0.484805 
    0.437248     0.658658     0.475095 
    0.353148     0.452183     0.449489 
EA21455 14.656 14.566 11.931 90.00 90.00 90.00 Sym.group:    0
1.0
   14.656261     0.000000     0.000000
    0.000000    14.565767     0.000000
    0.000000     0.000000    11.931191
   W   B
   6  11
Direct
    0.502209     0.497865     0.451685 
    0.632854     0.376774     0.447481 
    0.623274     0.644036     0.471388 
    0.362154     0.611626     0.431909 
    0.374309     0.352642     0.484323 
    0.563493     0.578621     0.650318 
    0.652954     0.505380     0.539703 
    0.507651     0.356357     0.551679 
    0.354133     0.489378     0.535360 
    0.655784     0.513115     0.394884 
    0.492476     0.663259     0.387013 
    0.348506     0.470888     0.392284 
    0.500489     0.334906     0.410416 
    0.578768     0.434094     0.608793 
    0.449502     0.449254     0.616379 
    0.419358     0.571762     0.599091 
    0.482087     0.650043     0.527294 
EA21506 14.661 14.364 14.084 90.00 90.00 90.00 Sym.group:    0
1.0
   14.661409     0.000000     0.000000
    0.000000    14.364442     0.000000
    0.000000     0.000000    14.084017
   W   B
   8  14
Direct
    0.509391     0.482062     0.479516 
    0.496032     0.669193     0.462311 
    0.611431     0.452922     0.326107 
    0.529995     0.315506     0.365727 
    0.406223     0.597036     0.610807 
    0.623737     0.492579     0.626176 
    0.629075     0.350080     0.499493 
    0.370296     0.423279     0.572270 
    0.355788     0.647557     0.473680 
    0.514409     0.571106     0.339709 
    0.315959     0.542000     0.497410 
    0.406272     0.356139     0.433109 
    0.403142     0.571760     0.388563 
    0.357290     0.459148     0.422794 
    0.611985     0.587003     0.403990 
    0.480307     0.322404     0.517216 
    0.477979     0.472093     0.675537 
    0.669778     0.497312     0.467101 
    0.556350     0.635677     0.605382 
    0.523779     0.379617     0.613678 
    0.523457     0.574993     0.699576 
    0.627327     0.600531     0.519847 
EA21916 14.629 13.914 13.442 90.00 90.00 90.00 Sym.group:    0
1.0
   14.628896     0.000000     0.000000
    0.000000    13.914154     0.000000
    0.000000     0.000000    13.442206
   W   B
   6  15
Direct
    0.474477     0.676563     0.470258 
    0.342481     0.429353     0.450919 
    0.614552     0.507852     0.656799 
    0.710200     0.541150     0.508612 
    0.618422     0.453613     0.380979 
    0.492633     0.496114     0.511890 
    0.400671     0.563762     0.383339 
    0.458941     0.463587     0.341399 
    0.610636     0.615244     0.417669 
    0.347472     0.507763     0.595295 
    0.404817     0.614797     0.601627 
    0.347583     0.583158     0.494449 
    0.514744     0.626278     0.623926 
    0.601515     0.640378     0.544602 
    0.514910     0.568939     0.356202 
    0.635677     0.409338     0.535261 
    0.558685     0.337780     0.483928 
    0.473583     0.359965     0.403499 
    0.544521     0.372261     0.609855 
    0.384282     0.398890     0.601037 
    0.449195     0.333216     0.528457 
EA22226 14.358 13.709 13.895 90.00 90.00 90.00 Sym.group:    0
1.0
   14.358186     0.000000     0.000000
    0.000000    13.709442     0.000000
    0.000000     0.000000    13.894665
   W   B
   6  15
Direct
    0.510745     0.675712     0.546023 
    0.302439     0.491175     0.537548 
    0.564960     0.402269     0.633878 
    0.465384     0.497515     0.522755 
    0.508027     0.325514     0.454077 
    0.511014     0.475459     0.344017 
    0.387447     0.604043     0.617700 
    0.604655     0.562894     0.608150 
    0.362025     0.538205     0.399891 
    0.368646     0.632008     0.497726 
    0.500946     0.574835     0.662872 
    0.430729     0.349230     0.600175 
    0.364556     0.348299     0.502830 
    0.646245     0.354458     0.515660 
    0.653737     0.478824     0.525618 
    0.645511     0.607368     0.501462 
    0.644968     0.526349     0.406331 
    0.450413     0.622261     0.404788 
    0.564793     0.614071     0.408549 
    0.377526     0.413668     0.402749 
    0.635236     0.405840     0.407202 
EA22489 14.132 14.428 14.226 90.00 90.00 90.00 Sym.group:    0
1.0
   14.132485     0.000000     0.000000
    0.000000    14.427595     0.000000
    0.000000     0.000000    14.225551
   W   B
   8  15
Direct
    0.552914     0.526456     0.681138 
    0.669030     0.392377     0.472710 
    0.515003     0.317251     0.505013 
    0.513771     0.502439     0.504857 
    0.358621     0.534425     0.396418 
    0.473258     0.680272     0.473378 
    0.661321     0.606141     0.505176 
    0.639807     0.522823     0.355275 
    0.402263     0.496319     0.631077 
    0.390270     0.387867     0.569340 
    0.432171     0.397278     0.383360 
    0.671535     0.480737     0.598267 
    0.552055     0.392142     0.374012 
    0.598423     0.390025     0.615264 
    0.482513     0.397240     0.638606 
    0.549317     0.650198     0.601704 
    0.354174     0.593687     0.533312 
    0.341778     0.394858     0.456123 
    0.497372     0.596538     0.348248 
    0.439948     0.611004     0.613621 
    0.589648     0.666718     0.382391 
    0.324615     0.479871     0.532499 
    0.490192     0.483333     0.328210 
EA22824 14.910 14.494 14.457 90.00 90.00 90.00 Sym.group:    0
1.0
   14.910448     0.000000     0.000000
    0.000000    14.494259     0.000000
    0.000000     0.000000    14.457183
   W   B
   9  15
Direct
    0.525298     0.593143     0.348110 
    0.561496     0.676894     0.495918 
    0.557838     0.560963     0.645246 
    0.561990     0.379316     0.630318 
    0.311763     0.450578     0.571749 
    0.475003     0.500626     0.499820 
    0.605034     0.439934     0.376490 
    0.421346     0.327889     0.547494 
    0.697175     0.613880     0.564989 
    0.343536     0.595846     0.539091 
    0.699730     0.487242     0.478711 
    0.397604     0.559766     0.635475 
    0.440839     0.648393     0.570665 
    0.673899     0.472751     0.596479 
    0.655150     0.577300     0.423336 
    0.434764     0.449631     0.655971 
    0.655195     0.386240     0.516925 
    0.390916     0.541045     0.360763 
    0.472251     0.363062     0.406998 
    0.320429     0.529752     0.446695 
    0.556776     0.342183     0.484372 
    0.462563     0.452862     0.332925 
    0.411080     0.632729     0.446574 
    0.368325     0.417972     0.424885 
EA23402 14.196 13.807 12.730 90.00 90.00 90.00 Sym.group:    0
1.0
   14.195597     0.000000     0.000000
    0.000000    13.806984     0.000000
    0.000000     0.000000    12.730178
   W   B
   6  13
Direct
    0.595268     0.576782     0.401944 
    0.516484     0.377042     0.401929 
    0.387906     0.546599     0.401599 
    0.516964     0.377387     0.598376 
    0.595177     0.576742     0.598022 
    0.387759     0.546231     0.598340 
    0.693386     0.487986     0.499375 
    0.393344     0.333761     0.499781 
    0.413546     0.677858     0.499749 
    0.647471     0.370804     0.500259 
    0.535143     0.695782     0.500393 
    0.317463     0.433356     0.500324 
    0.364811     0.390408     0.612130 
    0.475408     0.674789     0.612234 
    0.660010     0.434410     0.611959 
    0.476426     0.675206     0.387917 
    0.364099     0.391261     0.387964 
    0.659252     0.433406     0.387675 
    0.500081     0.500189     0.500030 
EA23620 14.686 14.091 13.297 90.00 90.00 90.00 Sym.group:    0
1.0
   14.686362     0.000000     0.000000
    0.000000    14.090544     0.000000
    0.000000     0.000000    13.297245
   W   B
   6  15
Direct
    0.466460     0.509171     0.541774 
    0.558169     0.654521     0.605687 
    0.465122     0.528296     0.359985 
    0.688328     0.570971     0.525001 
    0.437965     0.327399     0.568032 
    0.591847     0.312058     0.494291 
    0.570311     0.623018     0.440090 
    0.404866     0.653983     0.574432 
    0.326909     0.446333     0.556925 
    0.325944     0.514409     0.446519 
    0.326394     0.566276     0.566729 
    0.366449     0.620290     0.455336 
    0.468335     0.664061     0.466035 
    0.369611     0.408164     0.442774 
    0.648621     0.433381     0.568507 
    0.552956     0.395928     0.630958 
    0.595280     0.514442     0.646034 
    0.618060     0.528369     0.383447 
    0.475355     0.375994     0.413779 
    0.576065     0.415908     0.372281 
    0.666951     0.437026     0.441383 
EA23892 15.225 13.615 14.304 90.00 90.00 90.00 Sym.group:    0
1.0
   15.225383     0.000000     0.000000
    0.000000    13.614676     0.000000
    0.000000     0.000000    14.304199
   W   B
   7  15
Direct
    0.333844     0.473997     0.415716 
    0.496485     0.501316     0.512712 
    0.665842     0.472351     0.596523 
    0.603352     0.480365     0.351151 
    0.378987     0.476074     0.666811 
    0.366171     0.608371     0.564232 
    0.625207     0.621438     0.477903 
    0.480208     0.327078     0.528310 
    0.458677     0.507403     0.345103 
    0.433822     0.367274     0.426557 
    0.707221     0.490904     0.457808 
    0.546116     0.359214     0.431967 
    0.581322     0.355557     0.555707 
    0.521807     0.608144     0.375002 
    0.648416     0.389609     0.465139 
    0.381674     0.383933     0.535368 
    0.589902     0.598255     0.626349 
    0.485705     0.577023     0.661300 
    0.481990     0.670872     0.467400 
    0.511279     0.665183     0.578024 
    0.292218     0.460964     0.553919 
    0.409755     0.604676     0.406998 
EA24469 14.133 13.991 15.008 90.00 90.00 90.00 Sym.group:    0
1.0
   14.133463     0.000000     0.000000
    0.000000    13.990670     0.000000
    0.000000     0.000000    15.007726
   W   B
   7  11
Direct
    0.358485     0.611629     0.443997 
    0.467308     0.498807     0.539966 
    0.501705     0.318786     0.545310 
    0.562108     0.579627     0.407038 
    0.525635     0.394460     0.397836 
    0.603917     0.593998     0.584622 
    0.604619     0.420254     0.637029 
    0.430619     0.508956     0.362433 
    0.354476     0.452746     0.427759 
    0.303475     0.483360     0.524074 
    0.329867     0.579488     0.581175 
    0.418919     0.650045     0.582061 
    0.489487     0.671891     0.500782 
    0.697623     0.469679     0.540891 
    0.691423     0.563973     0.472921 
    0.660716     0.457731     0.426177 
    0.639180     0.369382     0.501480 
    0.360439     0.375190     0.524450 
EA24819 14.653 13.900 13.401 90.00 90.00 90.00 Sym.group:    0
1.0
   14.652611     0.000000     0.000000
    0.000000    13.899652     0.000000
    0.000000     0.000000    13.400666
   W   B
   7  11
Direct
    0.340688     0.432429     0.432454 
    0.470937     0.500208     0.573112 
    0.555181     0.677347     0.574883 
    0.524326     0.427392     0.397090 
    0.532643     0.609014     0.403934 
    0.584242     0.368614     0.573396 
    0.622732     0.541684     0.659800 
    0.418158     0.515951     0.326774 
    0.381169     0.583043     0.421906 
    0.330358     0.555332     0.529304 
    0.325006     0.457150     0.594663 
    0.379617     0.359590     0.583045 
    0.446157     0.336415     0.492599 
    0.691173     0.478093     0.539043 
    0.664597     0.399900     0.448912 
    0.652755     0.514633     0.416371 
    0.661709     0.596605     0.510362 
    0.418554     0.646601     0.522356 
EA24989 14.638 14.440 12.841 90.00 90.00 90.00 Sym.group:    0
1.0
   14.637987     0.000000     0.000000
    0.000000    14.439962     0.000000
    0.000000     0.000000    12.841156
   W   B
   6  15
Direct
    0.509645     0.589164     0.350080 
    0.304144     0.522941     0.494491 
    0.503243     0.484282     0.513594 
    0.420638     0.656392     0.503876 
    0.660666     0.579691     0.473645 
    0.586423     0.324757     0.567751 
    0.372901     0.392889     0.473514 
    0.362449     0.587008     0.361962 
    0.371580     0.427857     0.605915 
    0.395712     0.476448     0.379688 
    0.488387     0.595703     0.643955 
    0.563971     0.695872     0.449696 
    0.390292     0.542142     0.631342 
    0.562437     0.657435     0.571553 
    0.441614     0.342214     0.573785 
    0.473228     0.340676     0.445072 
    0.600608     0.560847     0.626587 
    0.609880     0.475972     0.364396 
    0.644066     0.455669     0.595471 
    0.660092     0.426656     0.467082 
    0.578025     0.365383     0.406548 
EA25388 14.271 13.904 14.814 90.00 90.00 90.00 Sym.group:    0
1.0
   14.270758     0.000000     0.000000
    0.000000    13.903504     0.000000
    0.000000     0.000000    14.814210
   W   B
   8  12
Direct
    0.541872     0.337841     0.561933 
    0.688484     0.486891     0.547960 
    0.577995     0.656146     0.556908 
    0.405299     0.652203     0.439181 
    0.343187     0.478634     0.436942 
    0.469918     0.506091     0.603953 
    0.548114     0.498314     0.444443 
    0.683200     0.628603     0.437719 
    0.332834     0.583242     0.553501 
    0.321916     0.469451     0.578945 
    0.598031     0.434053     0.659696 
    0.609089     0.552482     0.657990 
    0.540228     0.643975     0.385108 
    0.447428     0.543453     0.340371 
    0.456597     0.420688     0.351689 
    0.544721     0.343623     0.408245 
    0.643563     0.370444     0.461141 
    0.437090     0.353071     0.446463 
    0.422040     0.661455     0.578092 
    0.388393     0.379338     0.549718 
EA25693 14.752 14.491 13.864 90.00 90.00 90.00 Sym.group:    0
1.0
   14.751946     0.000000     0.000000
    0.000000    14.491210     0.000000
    0.000000     0.000000    13.863943
   W   B
   8  12
Direct
    0.582543     0.378362     0.426069 
    0.658529     0.451028     0.565950 
    0.445458     0.329463     0.555922 
    0.512387     0.431459     0.670094 
    0.559473     0.651356     0.398993 
    0.426366     0.598324     0.642798 
    0.324177     0.577876     0.507928 
    0.495316     0.515374     0.487621 
    0.574158     0.510004     0.334729 
    0.635785     0.597782     0.520303 
    0.576474     0.567370     0.626985 
    0.646853     0.523235     0.424245 
    0.586329     0.321972     0.583383 
    0.438420     0.667611     0.492639 
    0.538539     0.657962     0.556348 
    0.349362     0.424641     0.484609 
    0.373088     0.486918     0.385145 
    0.374625     0.462768     0.598248 
    0.470303     0.463962     0.330067 
    0.431816     0.382534     0.407922 
EA26021 13.753 13.503 14.329 90.00 90.00 90.00 Sym.group:    0
1.0
   13.753425     0.000000     0.000000
    0.000000    13.503300     0.000000
    0.000000     0.000000    14.329331
   W   B
   9  11
Direct
    0.518068     0.628337     0.641803 
    0.589600     0.397521     0.641622 
    0.403862     0.495156     0.656517 
    0.560356     0.613865     0.359715 
    0.448956     0.307546     0.600231 
    0.578599     0.320243     0.473778 
    0.501986     0.493952     0.503232 
    0.387333     0.602850     0.386753 
    0.481093     0.448176     0.327343 
    0.390681     0.624881     0.543400 
    0.641570     0.551124     0.583606 
    0.665012     0.556935     0.460332 
    0.485239     0.681968     0.489736 
    0.667848     0.446708     0.514485 
    0.326512     0.524374     0.512211 
    0.345944     0.401527     0.529963 
    0.422891     0.351121     0.446442 
    0.352256     0.446793     0.416301 
    0.604426     0.648257     0.512681 
    0.627769     0.458666     0.399848 
EA26398 14.234 14.011 14.147 90.00 90.00 90.00 Sym.group:    0
1.0
   14.233750     0.000000     0.000000
    0.000000    14.011063     0.000000
    0.000000     0.000000    14.147287
   W   B
   9  11
Direct
    0.419289     0.546659     0.666139 
    0.493183     0.345298     0.607072 
    0.582022     0.500204     0.660978 
    0.385915     0.596393     0.384806 
    0.653506     0.350918     0.553177 
    0.540727     0.328396     0.423296 
    0.498601     0.492256     0.497581 
    0.529996     0.676741     0.434435 
    0.534935     0.524724     0.321955 
    0.519948     0.641423     0.595235 
    0.360817     0.435789     0.571497 
    0.338009     0.463855     0.451269 
    0.415317     0.645219     0.535279 
    0.395309     0.361717     0.476238 
    0.621011     0.606797     0.543288 
    0.672799     0.500089     0.526761 
    0.642467     0.444059     0.419417 
    0.638122     0.565924     0.427719 
    0.340314     0.550987     0.531445 
    0.417715     0.422552     0.372415 
EA26608 15.210 14.281 13.918 90.00 90.00 90.00 Sym.group:    0
1.0
   15.210359     0.000000     0.000000
    0.000000    14.281271     0.000000
    0.000000     0.000000    13.918108
   W   B
   7  15
Direct
    0.555336     0.577876     0.378020 
    0.459820     0.506501     0.523966 
    0.524775     0.597770     0.655479 
    0.474863     0.313452     0.491993 
    0.578472     0.392233     0.615276 
    0.512758     0.411978     0.347372 
    0.707662     0.572329     0.445613 
    0.406605     0.525225     0.371202 
    0.332397     0.595179     0.499146 
    0.504789     0.667762     0.504861 
    0.423571     0.633856     0.429508 
    0.315723     0.486906     0.474777 
    0.406702     0.655225     0.554910 
    0.608214     0.635035     0.520268 
    0.634968     0.530570     0.581084 
    0.469152     0.467874     0.685920 
    0.353546     0.387531     0.526086 
    0.425419     0.382144     0.620473 
    0.645713     0.450704     0.392597 
    0.606035     0.359399     0.457815 
    0.380882     0.410654     0.410491 
    0.672596     0.439796     0.513143 
EA27056 14.334 14.171 13.750 90.00 90.00 90.00 Sym.group:    0
1.0
   14.333622     0.000000     0.000000
    0.000000    14.170529     0.000000
    0.000000     0.000000    13.749934
   W   B
   6  14
Direct
    0.504832     0.524105     0.557078 
    0.275557     0.458355     0.493349 
    0.513795     0.356184     0.602780 
    0.513158     0.357793     0.428373 
    0.435760     0.539636     0.389212 
    0.698028     0.525175     0.481852 
    0.352186     0.559904     0.573657 
    0.372063     0.447562     0.610891 
    0.369988     0.394383     0.400912 
    0.385725     0.359273     0.523333 
    0.645155     0.458642     0.612700 
    0.649569     0.380103     0.523592 
    0.583448     0.604928     0.419011 
    0.582508     0.490378     0.385697 
    0.656824     0.400200     0.400900 
    0.639096     0.573881     0.617732 
    0.506793     0.674520     0.472715 
    0.402219     0.651132     0.502399 
    0.305889     0.597316     0.468713 
    0.607406     0.646530     0.535103 
EA27260 13.909 13.943 13.741 90.00 90.00 90.00 Sym.group:    0
1.0
   13.908623     0.000000     0.000000
    0.000000    13.943099     0.000000
    0.000000     0.000000    13.741141
   W   B
   7  15
Direct
    0.349554     0.580827     0.455560 
    0.408163     0.592234     0.639788 
    0.565606     0.509324     0.686093 
    0.677448     0.560090     0.550821 
    0.514256     0.500652     0.498492 
    0.610723     0.467430     0.329308 
    0.416042     0.341230     0.512493 
    0.329355     0.467422     0.582098 
    0.460222     0.675721     0.521240 
    0.426860     0.433331     0.646601 
    0.580226     0.669075     0.485418 
    0.550517     0.648622     0.603422 
    0.611867     0.600290     0.395414 
    0.487982     0.637108     0.402338 
    0.458936     0.517960     0.344627 
    0.622806     0.391581     0.568906 
    0.374795     0.436852     0.385766 
    0.524082     0.366129     0.631206 
    0.484439     0.389396     0.372336 
    0.671999     0.426281     0.468783 
    0.577733     0.356978     0.446914 
    0.296386     0.431469     0.472375 
EA27833 14.385 14.544 14.334 90.00 90.00 90.00 Sym.group:    0
1.0
   14.384930     0.000000     0.000000
    0.000000    14.544415     0.000000
    0.000000     0.000000    14.334284
   W   B
   7  12
Direct
    0.532259     0.443431     0.660339 
    0.630574     0.423455     0.482447 
    0.436020     0.374483     0.397887 
    0.490581     0.535962     0.381355 
    0.357491     0.634259     0.458427 
    0.528442     0.597896     0.556308 
    0.385768     0.472491     0.545292 
    0.642680     0.528141     0.379707 
    0.506983     0.356778     0.531532 
    0.598982     0.632484     0.422516 
    0.374151     0.614283     0.602053 
    0.669439     0.565188     0.492406 
    0.441963     0.337249     0.627968 
    0.435053     0.549601     0.669494 
    0.650544     0.518143     0.597059 
    0.398044     0.311189     0.525117 
    0.585178     0.429646     0.342547 
    0.342891     0.495793     0.400098 
    0.492957     0.679527     0.427449 
EA27957 14.553 14.368 14.118 90.00 90.00 90.00 Sym.group:    0
1.0
   14.553152     0.000000     0.000000
    0.000000    14.367921     0.000000
    0.000000     0.000000    14.118397
   W   B
   7  15
Direct
    0.488665     0.490882     0.507906 
    0.630467     0.438761     0.614357 
    0.619211     0.625102     0.460785 
    0.479730     0.398616     0.374175 
    0.489558     0.668452     0.562643 
    0.495329     0.506896     0.686793 
    0.342534     0.624664     0.475964 
    0.685760     0.486751     0.471720 
    0.413270     0.544931     0.356773 
    0.610897     0.594340     0.623486 
    0.623209     0.391138     0.452346 
    0.447442     0.324839     0.528003 
    0.525928     0.551659     0.342083 
    0.704036     0.556163     0.562276 
    0.554215     0.326307     0.510226 
    0.611980     0.486623     0.378721 
    0.472259     0.640107     0.405521 
    0.363097     0.387775     0.491579 
    0.341522     0.481700     0.423133 
    0.375414     0.579855     0.612259 
    0.328791     0.486871     0.547480 
    0.396688     0.407569     0.611772 
EA28324 14.662 14.570 13.789 90.00 90.00 90.00 Sym.group:    0
1.0
   14.661599     0.000000     0.000000
    0.000000    14.570153     0.000000
    0.000000     0.000000    13.789299
   W   B
   9  13
Direct
    0.486624     0.502333     0.498835 
    0.593887     0.536337     0.366163 
    0.620128     0.384004     0.555057 
    0.506376     0.629777     0.604460 
    0.474544     0.316989     0.490954 
    0.449441     0.407816     0.329843 
    0.340564     0.401962     0.578071 
    0.436181     0.675520     0.406068 
    0.322628     0.518057     0.446035 
    0.688971     0.510931     0.494411 
    0.437077     0.493573     0.666691 
    0.585120     0.378834     0.393679 
    0.633115     0.610621     0.507590 
    0.550605     0.484242     0.661313 
    0.683537     0.427501     0.417446 
    0.564902     0.683243     0.456613 
    0.631924     0.534552     0.600067 
    0.485972     0.388702     0.634021 
    0.363331     0.641438     0.528337 
    0.362227     0.555818     0.604867 
    0.344149     0.366801     0.425565 
    0.438701     0.550953     0.333919 
EA28932 15.423 14.076 12.836 90.00 90.00 90.00 Sym.group:    0
1.0
   15.422738     0.000000     0.000000
    0.000000    14.076416     0.000000
    0.000000     0.000000    12.835700
   W   B
   7  11
Direct
    0.596673     0.636798     0.443100 
    0.513858     0.594661     0.595797 
    0.298048     0.497002     0.467517 
    0.612004     0.368063     0.432577 
    0.517443     0.396319     0.580116 
    0.474397     0.497183     0.420714 
    0.357164     0.338311     0.462040 
    0.384945     0.612727     0.521629 
    0.457418     0.658511     0.434306 
    0.365674     0.607338     0.392775 
    0.657107     0.564699     0.573479 
    0.600656     0.494872     0.658815 
    0.660372     0.440703     0.569786 
    0.609508     0.505699     0.364735 
    0.360074     0.416450     0.596652 
    0.482603     0.334595     0.414697 
    0.372570     0.529611     0.608398 
    0.679486     0.506456     0.462866 
EA29199 14.395 14.317 13.204 90.00 90.00 90.00 Sym.group:    0
1.0
   14.395278     0.000000     0.000000
    0.000000    14.316549     0.000000
    0.000000     0.000000    13.204439
   W   B
   7  12
Direct
    0.495820     0.496992     0.519262 
    0.337273     0.572200     0.453392 
    0.486373     0.605460     0.349488 
    0.599562     0.655797     0.475772 
    0.568613     0.431449     0.344934 
    0.461636     0.325802     0.443739 
    0.683365     0.487918     0.468045 
    0.450308     0.658531     0.510122 
    0.401154     0.596653     0.606140 
    0.352169     0.491164     0.598125 
    0.411552     0.457252     0.373802 
    0.518234     0.628615     0.612261 
    0.629067     0.569037     0.343432 
    0.520631     0.359141     0.600949 
    0.407234     0.382546     0.594487 
    0.352780     0.424835     0.488318 
    0.596715     0.364841     0.502038 
    0.614955     0.434722     0.607535 
    0.612562     0.557044     0.608159 
EA29578 14.474 13.935 13.094 90.00 90.00 90.00 Sym.group:    0
1.0
   14.473893     0.000000     0.000000
    0.000000    13.935386     0.000000
    0.000000     0.000000    13.094329
   W   B
   7  11
Direct
    0.352974     0.490083     0.640633 
    0.391122     0.655138     0.550624 
    0.287138     0.522265     0.483954 
    0.479898     0.331502     0.428695 
    0.537400     0.507752     0.351388 
    0.554572     0.678610     0.595584 
    0.507606     0.508216     0.543374 
    0.363036     0.389710     0.510859 
    0.451992     0.361741     0.588837 
    0.402882     0.456314     0.397708 
    0.409230     0.582905     0.402917 
    0.615806     0.611830     0.458533 
    0.654792     0.560886     0.571873 
    0.506184     0.647662     0.437319 
    0.658589     0.501979     0.456394 
    0.650219     0.440830     0.571045 
    0.567446     0.356125     0.566034 
    0.609119     0.396450     0.444228 
EA29878 14.067 13.833 13.147 90.00 90.00 90.00 Sym.group:    0
1.0
   14.066753     0.000000     0.000000
    0.000000    13.833289     0.000000
    0.000000     0.000000    13.147086
   W   B
   7  12
Direct
    0.490528     0.500477     0.515103 
    0.404147     0.640364     0.409450 
    0.575228     0.594571     0.360716 
    0.662503     0.599631     0.523138 
    0.576618     0.396445     0.368067 
    0.403358     0.354538     0.419601 
    0.662286     0.400757     0.529722 
    0.521432     0.671924     0.508669 
    0.426960     0.637328     0.580979 
    0.340525     0.563317     0.544111 
    0.440793     0.494798     0.347737 
    0.540098     0.615283     0.625350 
    0.688039     0.497147     0.400186 
    0.426969     0.368324     0.590445 
    0.340618     0.440030     0.548864 
    0.340312     0.498067     0.433224 
    0.520932     0.329102     0.520819 
    0.540180     0.393420     0.633112 
    0.598474     0.504476     0.640708 
EA30205 14.079 13.722 13.138 90.00 90.00 90.00 Sym.group:    0
1.0
   14.079103     0.000000     0.000000
    0.000000    13.721938     0.000000
    0.000000     0.000000    13.137769
   W   B
   6  13
Direct
    0.503882     0.498921     0.514715 
    0.598913     0.358731     0.413121 
    0.441630     0.423581     0.341581 
    0.331256     0.415335     0.495380 
    0.601487     0.650361     0.435530 
    0.443165     0.683300     0.483412 
    0.463771     0.333048     0.491078 
    0.554842     0.351528     0.576249 
    0.646394     0.432341     0.562838 
    0.576878     0.506694     0.355493 
    0.442699     0.376404     0.612420 
    0.371765     0.549736     0.418666 
    0.553128     0.632813     0.596277 
    0.647293     0.555833     0.570049 
    0.662039     0.497921     0.452053 
    0.440199     0.600925     0.633077 
    0.393033     0.486002     0.640678 
    0.350595     0.564538     0.549976 
    0.477032     0.581990     0.357407 
EA30526 13.897 14.046 13.169 90.00 90.00 90.00 Sym.group:    0
1.0
   13.897120     0.000000     0.000000
    0.000000    14.046132     0.000000
    0.000000     0.000000    13.169470
   W   B
   8  11
Direct
    0.499788     0.503643     0.518870 
    0.656685     0.600736     0.451129 
    0.495501     0.572079     0.326183 
    0.362214     0.620594     0.436532 
    0.579129     0.327600     0.465570 
    0.396391     0.344892     0.475292 
    0.678684     0.546480     0.620802 
    0.360008     0.411740     0.640465 
    0.511823     0.661897     0.467507 
    0.565074     0.642994     0.585255 
    0.606296     0.463774     0.383246 
    0.444062     0.649157     0.576633 
    0.382734     0.472586     0.383875 
    0.500116     0.359882     0.607837 
    0.614100     0.407283     0.603753 
    0.666690     0.452026     0.497162 
    0.364902     0.557561     0.599064 
    0.322953     0.485268     0.498702 
    0.492849     0.419809     0.362123 
EA30869 14.508 14.057 12.999 90.00 90.00 90.00 Sym.group:    0
1.0
   14.508005     0.000000     0.000000
    0.000000    14.057188     0.000000
    0.000000     0.000000    12.999419
   W   B
   8  11
Direct
    0.508560     0.500534     0.520071 
    0.637289     0.391421     0.423838 
    0.457078     0.398037     0.353111 
    0.365968     0.366292     0.507691 
    0.545877     0.666165     0.414365 
    0.699403     0.479361     0.565238 
    0.510450     0.687602     0.594422 
    0.383701     0.647046     0.477742 
    0.513177     0.334643     0.501894 
    0.591405     0.378242     0.592123 
    0.563164     0.512246     0.349473 
    0.480038     0.372182     0.623442 
    0.360629     0.498394     0.420427 
    0.634495     0.613041     0.543940 
    0.646355     0.547778     0.430915 
    0.408683     0.580276     0.632977 
    0.405249     0.461292     0.645726 
    0.448481     0.554108     0.353869 
    0.339995     0.511343     0.548734 
EA31040 13.848 14.011 14.145 90.00 90.00 90.00 Sym.group:    0
1.0
   13.848063     0.000000     0.000000
    0.000000    14.011286     0.000000
    0.000000     0.000000    14.145096
   W   B
   6  15
Direct
    0.682260     0.518013     0.398838 
    0.485857     0.329648     0.445638 
    0.434749     0.672158     0.405725 
    0.546376     0.555108     0.638545 
    0.448842     0.388912     0.611254 
    0.507734     0.518471     0.459319 
    0.593368     0.654827     0.420068 
    0.581795     0.325363     0.560941 
    0.638532     0.387763     0.473155 
    0.591281     0.411462     0.362237 
    0.661648     0.487995     0.551249 
    0.345600     0.569786     0.491800 
    0.357820     0.550204     0.370020 
    0.429230     0.640310     0.555634 
    0.541464     0.671353     0.528112 
    0.641720     0.605675     0.522519 
    0.603396     0.414154     0.635726 
    0.344011     0.355173     0.497118 
    0.350126     0.447412     0.422249 
    0.322430     0.460133     0.545615 
    0.391761     0.536082     0.604239 
EA31361 14.975 14.137 14.342 90.00 90.00 90.00 Sym.group:    0
1.0
   14.975066     0.000000     0.000000
    0.000000    14.136524     0.000000
    0.000000     0.000000    14.342494
   W   B
   8  14
Direct
    0.478953     0.492921     0.517715 
    0.647233     0.433687     0.566720 
    0.473614     0.683128     0.553357 
    0.581740     0.527692     0.356496 
    0.459235     0.383693     0.382992 
    0.609273     0.598185     0.616184 
    0.424903     0.544588     0.312900 
    0.350365     0.624140     0.448903 
    0.441512     0.330041     0.536804 
    0.694435     0.460462     0.429275 
    0.519015     0.369625     0.616185 
    0.609214     0.387217     0.418648 
    0.355555     0.386759     0.500579 
    0.537359     0.474007     0.669451 
    0.548227     0.335854     0.507060 
    0.494568     0.646240     0.404912 
    0.373220     0.577484     0.598659 
    0.322719     0.497726     0.531790 
    0.468630     0.571646     0.661238 
    0.590252     0.641615     0.467370 
    0.342940     0.470077     0.419745 
    0.677038     0.563215     0.483019 
EA31896 14.792 14.141 13.418 90.00 90.00 90.00 Sym.group:    0
1.0
   14.792383     0.000000     0.000000
    0.000000    14.141118     0.000000
    0.000000     0.000000    13.418168
   W   B
   6  13
Direct
    0.601390     0.440097     0.430678 
    0.514736     0.594296     0.431522 
    0.639510     0.628672     0.577531 
    0.503124     0.517248     0.605671 
    0.394700     0.450172     0.466512 
    0.364734     0.648149     0.558066 
    0.663048     0.589331     0.427311 
    0.484361     0.359988     0.367462 
    0.710216     0.513488     0.503831 
    0.648109     0.463365     0.589904 
    0.567068     0.380281     0.574467 
    0.499549     0.331604     0.481802 
    0.476408     0.465674     0.321515 
    0.372246     0.413457     0.635684 
    0.502701     0.675396     0.578079 
    0.402395     0.546737     0.326408 
    0.342785     0.518512     0.617657 
    0.359119     0.606456     0.413474 
    0.453800     0.357077     0.592429 
EA32326 14.452 13.788 13.353 90.00 90.00 90.00 Sym.group:    0
1.0
   14.452088     0.000000     0.000000
    0.000000    13.787841     0.000000
    0.000000     0.000000    13.353093
   W   B
   6  11
Direct
    0.551031     0.437506     0.347311 
    0.492049     0.516853     0.532198 
    0.580575     0.618585     0.405525 
    0.304564     0.476965     0.563268 
    0.368184     0.417683     0.412064 
    0.687510     0.488205     0.433251 
    0.604892     0.371205     0.488078 
    0.627050     0.446333     0.586568 
    0.641899     0.566735     0.566491 
    0.532330     0.370293     0.589562 
    0.569547     0.658459     0.569043 
    0.492541     0.348941     0.468086 
    0.418754     0.374171     0.568603 
    0.462365     0.672219     0.581504 
    0.367377     0.613857     0.572027 
    0.357237     0.571688     0.449359 
    0.442093     0.550302     0.367063 
EA32659 14.607 13.955 12.630 90.00 90.00 90.00 Sym.group:    0
1.0
   14.606576     0.000000     0.000000
    0.000000    13.955102     0.000000
    0.000000     0.000000    12.630493
   W   B
   6  11
Direct
    0.437953     0.421893     0.351279 
    0.509029     0.517427     0.527299 
    0.441454     0.622827     0.386070 
    0.685793     0.451708     0.569132 
    0.611024     0.379798     0.422046 
    0.321093     0.518211     0.428810 
    0.376427     0.394766     0.510337 
    0.369137     0.485837     0.598591 
    0.376746     0.602666     0.563046 
    0.448676     0.395122     0.617173 
    0.461136     0.677670     0.552264 
    0.480240     0.346179     0.496078 
    0.560279     0.373407     0.594409 
    0.567798     0.670614     0.554178 
    0.649150     0.595161     0.548522 
    0.647299     0.530611     0.430522 
    0.556767     0.516103     0.350244 
EA32726 13.782 14.297 14.225 90.00 90.00 90.00 Sym.group:    0
1.0
   13.782404     0.000000     0.000000
    0.000000    14.296564     0.000000
    0.000000     0.000000    14.224655
   W   B
   6  15
Direct
    0.485199     0.680754     0.468963 
    0.488780     0.498389     0.488975 
    0.550849     0.496098     0.338933 
    0.453781     0.505645     0.669662 
    0.626234     0.602439     0.594118 
    0.551679     0.349651     0.579082 
    0.425347     0.390521     0.370354 
    0.624229     0.622172     0.439200 
    0.337021     0.498418     0.563682 
    0.346623     0.572654     0.457224 
    0.372873     0.492451     0.365194 
    0.424603     0.595747     0.364865 
    0.379023     0.608341     0.571336 
    0.481621     0.648448     0.618558 
    0.632708     0.403384     0.463596 
    0.674408     0.519893     0.462746 
    0.675845     0.458893     0.565058 
    0.606259     0.469588     0.660372 
    0.431679     0.336841     0.475686 
    0.395803     0.395408     0.571163 
    0.535436     0.354265     0.411230 
EA33137 14.926 14.521 13.800 90.00 90.00 90.00 Sym.group:    0
1.0
   14.926267     0.000000     0.000000
    0.000000    14.521391     0.000000
    0.000000     0.000000    13.800045
   W   B
   6  15
Direct
    0.504077     0.456475     0.499652 
    0.437134     0.413538     0.335426 
    0.632493     0.588450     0.429615 
    0.443521     0.533899     0.653155 
    0.368846     0.561653     0.383919 
    0.606683     0.562994     0.617632 
    0.403032     0.341573     0.475406 
    0.367468     0.411288     0.570859 
    0.557975     0.362940     0.618950 
    0.454038     0.342310     0.596253 
    0.338984     0.434500     0.455305 
    0.706210     0.496995     0.520621 
    0.650485     0.438124     0.438753 
    0.640493     0.414061     0.565638 
    0.576377     0.460274     0.351008 
    0.402181     0.616422     0.529368 
    0.344120     0.521352     0.536038 
    0.490898     0.646656     0.445749 
    0.576671     0.683490     0.524749 
    0.490889     0.658328     0.592147 
    0.507427     0.554680     0.359756 
EA33527 14.327 14.093 13.681 90.00 90.00 90.00 Sym.group:    0
1.0
   14.327396     0.000000     0.000000
    0.000000    14.093286     0.000000
    0.000000     0.000000    13.680584
   W   B
   9  11
Direct
    0.680033     0.441787     0.496111 
    0.520138     0.497860     0.501229 
    0.610593     0.571524     0.648168 
    0.544172     0.687645     0.472319 
    0.431349     0.358277     0.596053 
    0.439153     0.648643     0.601203 
    0.450603     0.559274     0.347349 
    0.428857     0.350455     0.420238 
    0.608094     0.402759     0.660837 
    0.582038     0.365376     0.399600 
    0.663391     0.596817     0.500666 
    0.617460     0.576009     0.388188 
    0.586058     0.470972     0.344536 
    0.563324     0.332447     0.514302 
    0.327801     0.439371     0.510454 
    0.398617     0.668734     0.446887 
    0.355977     0.561196     0.481820 
    0.475871     0.496224     0.671588 
    0.377469     0.503795     0.602868 
    0.338999     0.470839     0.395586 
EA33770 13.982 14.693 14.253 90.00 90.00 90.00 Sym.group:    0
1.0
   13.982483     0.000000     0.000000
    0.000000    14.693267     0.000000
    0.000000     0.000000    14.252888
   W   B
  10  11
Direct
    0.633031     0.613941     0.461502 
    0.591102     0.492430     0.331081 
    0.367019     0.585518     0.377540 
    0.358806     0.624172     0.544543 
    0.642470     0.394595     0.577431 
    0.625327     0.556183     0.629124 
    0.595034     0.356884     0.419446 
    0.466520     0.328921     0.581243 
    0.486912     0.495400     0.490954 
    0.358950     0.457970     0.631462 
    0.513293     0.645961     0.565836 
    0.481533     0.666307     0.454842 
    0.359508     0.438012     0.392723 
    0.311113     0.490637     0.489013 
    0.513425     0.617925     0.355717 
    0.513116     0.452840     0.652554 
    0.735291     0.514784     0.538277 
    0.468355     0.562638     0.643763 
    0.346516     0.382122     0.497026 
    0.435726     0.347971     0.429985 
    0.696955     0.474791     0.435942 
EA34309 13.993 13.815 13.723 90.00 90.00 90.00 Sym.group:    0
1.0
   13.992988     0.000000     0.000000
    0.000000    13.815130     0.000000
    0.000000     0.000000    13.722562
   W   B
   6  12
Direct
    0.648221     0.599164     0.553944 
    0.502324     0.634202     0.640464 
    0.539731     0.461065     0.669345 
    0.371244     0.637308     0.499254 
    0.408645     0.363566     0.584605 
    0.500913     0.499048     0.491310 
    0.591870     0.593549     0.397002 
    0.526339     0.666741     0.473557 
    0.650705     0.490233     0.426776 
    0.647600     0.439638     0.546280 
    0.602690     0.381646     0.435376 
    0.559617     0.348798     0.549217 
    0.378904     0.524003     0.384920 
    0.334064     0.482967     0.497704 
    0.387771     0.522290     0.608093 
    0.489842     0.341511     0.446185 
    0.470454     0.610284     0.376029 
    0.389068     0.403986     0.419938 
EA34691 14.104 13.981 12.789 90.00 90.00 90.00 Sym.group:    0
1.0
   14.104348     0.000000     0.000000
    0.000000    13.980836     0.000000
    0.000000     0.000000    12.789079
   W   B
   6  11
Direct
    0.488188     0.335299     0.540624 
    0.457383     0.674236     0.410763 
    0.614050     0.630302     0.491678 
    0.421980     0.476535     0.632525 
    0.538086     0.545990     0.330960 
    0.357745     0.535323     0.371638 
    0.643268     0.487846     0.439350 
    0.659100     0.499238     0.569937 
    0.567217     0.396481     0.412446 
    0.574171     0.427214     0.637086 
    0.626954     0.391742     0.524741 
    0.311018     0.503180     0.526080 
    0.484291     0.620904     0.579349 
    0.371852     0.602087     0.531520 
    0.452188     0.415965     0.388299 
    0.566423     0.548395     0.629628 
    0.366083     0.409264     0.483374 
