EA32521 14.200 13.381 12.842 90.00 90.00 90.00 Sym.group:    0
1.0
   14.200486     0.000000     0.000000
    0.000000    13.380990     0.000000
    0.000000     0.000000    12.842118
   W   B
  11   1
Direct
    0.493128     0.592414     0.465117 
    0.652550     0.604111     0.391976 
    0.638329     0.448639     0.527332 
    0.411387     0.447086     0.366216 
    0.511328     0.533515     0.641043 
    0.330900     0.600018     0.608276 
    0.313645     0.599519     0.437166 
    0.518508     0.340281     0.622962 
    0.377066     0.430269     0.549708 
    0.515021     0.318335     0.441912 
    0.669656     0.621781     0.568454 
    0.568479     0.464033     0.379840 
EA32479 13.799 13.105 14.927 90.00 90.00 90.00 Sym.group:    0
1.0
   13.799206     0.000000     0.000000
    0.000000    13.105340     0.000000
    0.000000     0.000000    14.926644
   W   B
  11   2
Direct
    0.312409     0.571454     0.593855 
    0.364581     0.549483     0.436923 
    0.435474     0.702552     0.544540 
    0.384689     0.358972     0.409785 
    0.488647     0.512753     0.589850 
    0.517238     0.332357     0.530705 
    0.662173     0.452243     0.587884 
    0.541972     0.479207     0.421947 
    0.622313     0.618433     0.511284 
    0.329453     0.389237     0.553049 
    0.489754     0.681265     0.401467 
    0.698951     0.485841     0.453639 
    0.652346     0.366202     0.465073 
EA32418 14.782 14.088 12.381 90.00 90.00 90.00 Sym.group:    0
1.0
   14.781694     0.000000     0.000000
    0.000000    14.087971     0.000000
    0.000000     0.000000    12.380766
   W   B
  11   3
Direct
    0.491419     0.684520     0.499325 
    0.639468     0.570559     0.569771 
    0.618630     0.636378     0.396225 
    0.487641     0.508234     0.437534 
    0.663003     0.454480     0.388445 
    0.685029     0.397224     0.562374 
    0.544416     0.340536     0.453726 
    0.521818     0.439628     0.630810 
    0.307838     0.481293     0.428660 
    0.369235     0.533580     0.599312 
    0.382775     0.361153     0.565423 
    0.507867     0.601528     0.639521 
    0.371435     0.613668     0.435257 
    0.409425     0.377217     0.393616 
EA14135 14.628 14.628 14.867 90.00 90.00 90.00 Sym.group:    0
1.0
   14.628186     0.000000     0.000000
    0.000000    14.628186     0.000000
    0.000000     0.000000    14.866712
   W   B
  11   4
Direct
    0.500019     0.499913     0.499967 
    0.466221     0.599634     0.367507 
    0.365293     0.400405     0.533339 
    0.533861     0.599546     0.632686 
    0.634811     0.400512     0.466652 
    0.533782     0.400278     0.632540 
    0.634678     0.599612     0.466690 
    0.466228     0.400248     0.367485 
    0.365271     0.599493     0.533335 
    0.500006     0.300120     0.499982 
    0.499927     0.699868     0.499927 
    0.418257     0.500222     0.634442 
    0.581653     0.500126     0.365406 
    0.636781     0.499983     0.580394 
    0.363212     0.500039     0.419648 
EA32299 14.504 13.794 13.702 90.00 90.00 90.00 Sym.group:    0
1.0
   14.503885     0.000000     0.000000
    0.000000    13.794111     0.000000
    0.000000     0.000000    13.701778
   W   B
  11   5
Direct
    0.342775     0.577946     0.409124 
    0.411664     0.490886     0.668234 
    0.419052     0.344201     0.564440 
    0.385864     0.392062     0.398086 
    0.499171     0.509828     0.491607 
    0.380275     0.631240     0.565445 
    0.608850     0.387141     0.585582 
    0.586460     0.537697     0.672226 
    0.579770     0.672656     0.549172 
    0.613747     0.614877     0.397775 
    0.655173     0.421199     0.417702 
    0.526332     0.343068     0.454443 
    0.333541     0.477464     0.532172 
    0.470514     0.657051     0.409519 
    0.525990     0.408100     0.350022 
    0.660822     0.534585     0.534452 
EA32480 14.813 13.707 12.262 90.00 90.00 90.00 Sym.group:    0
1.0
   14.812793     0.000000     0.000000
    0.000000    13.707256     0.000000
    0.000000     0.000000    12.261701
   W   B
  12   1
Direct
    0.694173     0.498904     0.593420 
    0.630717     0.501053     0.410687 
    0.620075     0.663620     0.544147 
    0.551929     0.338748     0.378545 
    0.523852     0.500543     0.607452 
    0.445636     0.348228     0.537609 
    0.347075     0.505933     0.623897 
    0.450571     0.500560     0.411857 
    0.438803     0.650612     0.534122 
    0.625719     0.339774     0.545938 
    0.551330     0.663630     0.378110 
    0.293853     0.568250     0.457823 
    0.326269     0.420146     0.476393 
EA14853 14.803 14.139 12.329 90.00 90.00 90.00 Sym.group:    0
1.0
   14.803419     0.000000     0.000000
    0.000000    14.138903     0.000000
    0.000000     0.000000    12.328579
   W   B
  12   2
Direct
    0.501264     0.313222     0.490094 
    0.646682     0.431352     0.558850 
    0.620401     0.382768     0.376912 
    0.486860     0.489844     0.430777 
    0.660695     0.562077     0.387358 
    0.679158     0.605317     0.568985 
    0.537467     0.661398     0.467287 
    0.523052     0.546600     0.634304 
    0.304679     0.503021     0.451040 
    0.376764     0.457109     0.612209 
    0.379639     0.643155     0.570012 
    0.385171     0.639856     0.378260 
    0.518572     0.389449     0.632469 
    0.379593     0.374832     0.441445 
EA25930 14.992 14.992 14.992 90.00 90.00 90.00 Sym.group:    0
1.0
   14.992341     0.000000     0.000000
    0.000000    14.992341     0.000000
    0.000000     0.000000    14.992341
   W   B
  12   3
Direct
    0.500895     0.499991     0.498743 
    0.441639     0.593600     0.375148 
    0.375549     0.404102     0.558838 
    0.552825     0.597267     0.626857 
    0.626688     0.404790     0.447692 
    0.553170     0.403487     0.627238 
    0.625296     0.595705     0.446027 
    0.442043     0.404270     0.376319 
    0.375558     0.596000     0.558428 
    0.497357     0.694050     0.505544 
    0.498272     0.306246     0.506438 
    0.568905     0.499430     0.319121 
    0.443677     0.500611     0.647468 
    0.354127     0.499643     0.447067 
    0.643998     0.500810     0.559073 
EA25550 15.364 15.146 13.078 90.00 90.00 90.00 Sym.group:    0
1.0
   15.364134     0.000000     0.000000
    0.000000    15.146191     0.000000
    0.000000     0.000000    13.078346
   W   B
  12   4
Direct
    0.589898     0.426449     0.606770 
    0.588326     0.596969     0.590251 
    0.639251     0.574148     0.394214 
    0.631910     0.409000     0.414202 
    0.720342     0.508495     0.531811 
    0.530287     0.697308     0.454407 
    0.319354     0.549256     0.449021 
    0.413759     0.631855     0.571388 
    0.492990     0.508544     0.450795 
    0.473417     0.369150     0.343642 
    0.360496     0.381877     0.474263 
    0.516532     0.304537     0.497042 
    0.475255     0.513400     0.640275 
    0.420435     0.632921     0.401841 
    0.449252     0.404641     0.599745 
    0.378494     0.491452     0.580331 
EA32260 14.265 14.111 14.140 90.00 90.00 90.00 Sym.group:    0
1.0
   14.264582     0.000000     0.000000
    0.000000    14.111190     0.000000
    0.000000     0.000000    14.140481
   W   B
  12   5
Direct
    0.317067     0.459810     0.450354 
    0.440948     0.375820     0.368679 
    0.372778     0.478200     0.626199 
    0.503559     0.496779     0.498250 
    0.519411     0.656147     0.409515 
    0.572682     0.526438     0.321359 
    0.668937     0.421452     0.437014 
    0.596981     0.649188     0.583612 
    0.657689     0.488351     0.596299 
    0.500515     0.380344     0.648478 
    0.544061     0.307723     0.486586 
    0.434031     0.649467     0.604410 
    0.420822     0.541192     0.362711 
    0.648165     0.571290     0.455254 
    0.519620     0.538867     0.668156 
    0.402376     0.357227     0.522525 
    0.380358     0.601706     0.460599 
EA25696 14.867 14.033 13.088 90.00 90.00 90.00 Sym.group:    0
1.0
   14.867418     0.000000     0.000000
    0.000000    14.033288     0.000000
    0.000000     0.000000    13.087655
   W   B
  13   1
Direct
    0.296214     0.552516     0.478941 
    0.453680     0.633508     0.521399 
    0.439230     0.544253     0.358251 
    0.593414     0.636292     0.376741 
    0.679493     0.498338     0.500767 
    0.373392     0.543600     0.653251 
    0.640087     0.370158     0.618148 
    0.480015     0.427262     0.508465 
    0.336040     0.405336     0.405117 
    0.600710     0.312601     0.463777 
    0.549832     0.526448     0.649727 
    0.623715     0.660259     0.553503 
    0.598976     0.463431     0.348364 
    0.335203     0.425997     0.563550 
EA32355 15.095 14.343 12.687 90.00 90.00 90.00 Sym.group:    0
1.0
   15.094831     0.000000     0.000000
    0.000000    14.342616     0.000000
    0.000000     0.000000    12.687449
   W   B
  13   2
Direct
    0.476954     0.475672     0.597046 
    0.575113     0.617204     0.569958 
    0.701058     0.528151     0.444256 
    0.321377     0.528122     0.619843 
    0.420432     0.669697     0.589757 
    0.640937     0.378154     0.448822 
    0.517031     0.490939     0.396951 
    0.458481     0.686380     0.410184 
    0.374442     0.391434     0.348179 
    0.323349     0.374164     0.521778 
    0.358756     0.548477     0.431670 
    0.672893     0.489918     0.621174 
    0.479258     0.327377     0.493462 
    0.589583     0.369491     0.604046 
    0.590336     0.624820     0.402873 
EA12010 14.160 13.605 13.951 90.00 90.00 90.00 Sym.group:    0
1.0
   14.160375     0.000000     0.000000
    0.000000    13.604857     0.000000
    0.000000     0.000000    13.950522
   W   B
  13   3
Direct
    0.374149     0.352794     0.550801 
    0.536810     0.305035     0.518576 
    0.684552     0.378381     0.594540 
    0.395233     0.381709     0.389230 
    0.680639     0.425499     0.433383 
    0.522887     0.445059     0.648289 
    0.499556     0.506480     0.473381 
    0.375998     0.594456     0.357671 
    0.644648     0.561997     0.583797 
    0.526887     0.684200     0.427285 
    0.380462     0.556655     0.630930 
    0.292643     0.525420     0.482423 
    0.505601     0.680052     0.599913 
    0.548646     0.373668     0.381318 
    0.641924     0.575277     0.429123 
    0.389364     0.653317     0.499339 
EA32261 14.678 14.678 12.753 90.00 90.00 90.00 Sym.group:    0
1.0
   14.678016     0.000000     0.000000
    0.000000    14.678016     0.000000
    0.000000     0.000000    12.753093
   W   B
  13   4
Direct
    0.500157     0.500016     0.483737 
    0.594637     0.588782     0.352561 
    0.588919     0.405569     0.352456 
    0.405473     0.411277     0.352544 
    0.411123     0.594540     0.352511 
    0.505984     0.623188     0.648360 
    0.376587     0.505581     0.648621 
    0.494033     0.376744     0.648334 
    0.623185     0.494258     0.648319 
    0.491205     0.303403     0.473561 
    0.303105     0.508402     0.473832 
    0.508716     0.696681     0.473492 
    0.696897     0.491579     0.473831 
    0.380751     0.391414     0.529417 
    0.608669     0.380673     0.529466 
    0.619242     0.608627     0.529464 
    0.391317     0.619264     0.529494 
EA8897 15.081 14.566 14.230 90.00 90.00 90.00 Sym.group:    0
1.0
   15.080711     0.000000     0.000000
    0.000000    14.566145     0.000000
    0.000000     0.000000    14.229909
   W   B
  13   5
Direct
    0.323518     0.446712     0.564905 
    0.433869     0.342939     0.499655 
    0.476553     0.409845     0.327826 
    0.637308     0.478759     0.649836 
    0.469137     0.453910     0.665740 
    0.323582     0.588073     0.464910 
    0.675697     0.576877     0.518505 
    0.573857     0.640797     0.401333 
    0.502235     0.510335     0.498064 
    0.539612     0.617208     0.647322 
    0.427226     0.565790     0.334152 
    0.626685     0.485033     0.361587 
    0.446064     0.686516     0.526727 
    0.569026     0.370647     0.444103 
    0.563006     0.374991     0.566544 
    0.364985     0.450495     0.416215 
    0.651823     0.427303     0.502957 
    0.395818     0.573769     0.609620 
EA32356 15.044 15.004 14.335 90.00 90.00 90.00 Sym.group:    0
1.0
   15.043983     0.000000     0.000000
    0.000000    15.003892     0.000000
    0.000000     0.000000    14.335487
   W   B
  14   1
Direct
    0.500492     0.499359     0.501181 
    0.637147     0.519098     0.395744 
    0.524668     0.373937     0.615199 
    0.472833     0.640787     0.590730 
    0.367986     0.466960     0.393668 
    0.363242     0.481598     0.599836 
    0.475260     0.626054     0.384377 
    0.526741     0.357750     0.403824 
    0.632489     0.532761     0.603356 
    0.391751     0.339886     0.501621 
    0.609351     0.659707     0.481564 
    0.338978     0.608262     0.482059 
    0.495878     0.514706     0.706228 
    0.659142     0.391073     0.507808 
    0.504040     0.488060     0.332806 
EA27241 15.216 14.156 13.595 90.00 90.00 90.00 Sym.group:    0
1.0
   15.215669     0.000000     0.000000
    0.000000    14.156064     0.000000
    0.000000     0.000000    13.594948
   W   B
  14   2
Direct
    0.367036     0.617433     0.391052 
    0.477537     0.610246     0.665509 
    0.486500     0.512661     0.477619 
    0.445247     0.439840     0.648755 
    0.328873     0.562349     0.546422 
    0.353268     0.446419     0.370411 
    0.585280     0.656197     0.503934 
    0.724835     0.560816     0.475576 
    0.575510     0.330051     0.621051 
    0.513507     0.397594     0.336286 
    0.608786     0.510166     0.617323 
    0.638441     0.405398     0.462456 
    0.472424     0.316279     0.490035 
    0.622349     0.558995     0.351491 
    0.441075     0.663332     0.521506 
    0.359333     0.412225     0.520576 
EA32264 15.051 14.465 13.857 90.00 90.00 90.00 Sym.group:    0
1.0
   15.051083     0.000000     0.000000
    0.000000    14.464628     0.000000
    0.000000     0.000000    13.856954
   W   B
  14   3
Direct
    0.444675     0.430679     0.649813 
    0.309583     0.399978     0.552572 
    0.505619     0.511404     0.501995 
    0.613752     0.513542     0.660907 
    0.448462     0.339215     0.472234 
    0.631781     0.523909     0.367056 
    0.577781     0.341092     0.582568 
    0.642709     0.614956     0.528950 
    0.490032     0.691773     0.510974 
    0.474893     0.580904     0.324236 
    0.349793     0.565593     0.574213 
    0.358393     0.478623     0.396385 
    0.493392     0.629822     0.669071 
    0.616186     0.365143     0.405948 
    0.658135     0.459903     0.517000 
    0.499961     0.434390     0.347669 
    0.384853     0.619075     0.438407 
EA8898 14.720 14.834 14.076 90.00 90.00 90.00 Sym.group:    0
1.0
   14.720462     0.000000     0.000000
    0.000000    14.834409     0.000000
    0.000000     0.000000    14.075613
   W   B
  14   4
Direct
    0.348633     0.614738     0.575918 
    0.486959     0.672599     0.488124 
    0.703818     0.502164     0.526364 
    0.504475     0.557615     0.328418 
    0.603692     0.478165     0.661859 
    0.478208     0.597388     0.670577 
    0.383241     0.450783     0.642869 
    0.628934     0.364196     0.491218 
    0.515706     0.374781     0.353434 
    0.501936     0.492280     0.504874 
    0.503783     0.340690     0.619476 
    0.372199     0.445115     0.345232 
    0.394705     0.341718     0.489703 
    0.633361     0.625832     0.418346 
    0.594613     0.607169     0.571352 
    0.386353     0.573531     0.427090 
    0.340505     0.482505     0.495933 
    0.618880     0.478731     0.389211 
EA32217 15.401 14.079 14.159 90.00 90.00 90.00 Sym.group:    0
1.0
   15.400567     0.000000     0.000000
    0.000000    14.078863     0.000000
    0.000000     0.000000    14.159460
   W   B
  14   5
Direct
    0.709723     0.552640     0.540299 
    0.589517     0.509386     0.667079 
    0.644002     0.384937     0.564307 
    0.648113     0.450136     0.394938 
    0.612836     0.620275     0.403850 
    0.589747     0.661790     0.578845 
    0.353425     0.469134     0.400933 
    0.310576     0.532669     0.560782 
    0.498791     0.417097     0.321527 
    0.504937     0.500557     0.501245 
    0.425966     0.466406     0.671353 
    0.495464     0.323820     0.592665 
    0.461503     0.589830     0.333536 
    0.424265     0.642056     0.607167 
    0.549364     0.344783     0.448758 
    0.378513     0.396728     0.538070 
    0.439020     0.351234     0.448117 
    0.380541     0.619927     0.459149 
    0.483696     0.666597     0.467378 
EA32302 15.009 14.376 14.307 90.00 90.00 90.00 Sym.group:    0
1.0
   15.008960     0.000000     0.000000
    0.000000    14.376207     0.000000
    0.000000     0.000000    14.306854
   W   B
  15   1
Direct
    0.502926     0.694824     0.469147 
    0.616835     0.603497     0.382709 
    0.408982     0.383765     0.418745 
    0.287229     0.496789     0.427821 
    0.421804     0.565014     0.362239 
    0.342638     0.451250     0.595557 
    0.363230     0.610934     0.546945 
    0.509084     0.645769     0.629297 
    0.504310     0.504479     0.510659 
    0.597355     0.328310     0.467202 
    0.543219     0.439268     0.332752 
    0.640396     0.421172     0.597545 
    0.487230     0.464983     0.685490 
    0.655279     0.591506     0.542705 
    0.472441     0.330088     0.581558 
    0.647039     0.468351     0.449628 
EA32266 15.026 14.501 13.911 90.00 90.00 90.00 Sym.group:    0
1.0
   15.026027     0.000000     0.000000
    0.000000    14.501082     0.000000
    0.000000     0.000000    13.911073
   W   B
  15   2
Direct
    0.670726     0.449276     0.457399 
    0.585382     0.345949     0.616528 
    0.614321     0.579159     0.367776 
    0.508108     0.495866     0.509965 
    0.506750     0.508770     0.685433 
    0.630443     0.624127     0.547558 
    0.492451     0.667538     0.618478 
    0.429950     0.562672     0.350287 
    0.363644     0.634680     0.499940 
    0.540887     0.434184     0.305420 
    0.560148     0.325736     0.440827 
    0.342984     0.488682     0.584347 
    0.398192     0.391082     0.419546 
    0.280353     0.508819     0.417664 
    0.431360     0.345205     0.610231 
    0.635997     0.487092     0.609576 
    0.508303     0.651162     0.459024 
EA10575 14.920 14.778 14.080 90.00 90.00 90.00 Sym.group:    0
1.0
   14.919916     0.000000     0.000000
    0.000000    14.777961     0.000000
    0.000000     0.000000    14.080351
   W   B
  15   3
Direct
    0.323285     0.589934     0.543407 
    0.444635     0.671675     0.470703 
    0.689987     0.563638     0.531222 
    0.496136     0.581115     0.321971 
    0.589026     0.511355     0.665400 
    0.444581     0.596442     0.659743 
    0.400452     0.429345     0.641859 
    0.322662     0.426344     0.487479 
    0.687072     0.407544     0.526309 
    0.559728     0.343498     0.419290 
    0.502711     0.501560     0.502824 
    0.540205     0.352164     0.611984 
    0.427996     0.422032     0.346696 
    0.628589     0.497199     0.367552 
    0.420602     0.293110     0.497226 
    0.587593     0.626119     0.440829 
    0.561682     0.636116     0.561902 
    0.373059     0.550807     0.403605 
EA32218 14.962 14.845 14.268 90.00 90.00 90.00 Sym.group:    0
1.0
   14.962368     0.000000     0.000000
    0.000000    14.845264     0.000000
    0.000000     0.000000    14.268394
   W   B
  15   4
Direct
    0.522848     0.405593     0.667265 
    0.661051     0.480357     0.613132 
    0.677062     0.442087     0.436257 
    0.538831     0.352524     0.388549 
    0.459847     0.307909     0.544225 
    0.406141     0.627063     0.394308 
    0.316330     0.587398     0.541478 
    0.584521     0.548968     0.341115 
    0.501199     0.500196     0.501133 
    0.426619     0.557491     0.668300 
    0.574587     0.621281     0.624832 
    0.441034     0.475208     0.315542 
    0.341764     0.423561     0.569736 
    0.702691     0.598201     0.489205 
    0.560299     0.675800     0.452780 
    0.445964     0.650465     0.547060 
    0.346509     0.490748     0.433609 
    0.399097     0.388751     0.434005 
    0.593603     0.366398     0.537466 
EA32212 15.719 14.454 14.046 90.00 90.00 90.00 Sym.group:    0
1.0
   15.718968     0.000000     0.000000
    0.000000    14.454185     0.000000
    0.000000     0.000000    14.045571
   W   B
  15   5
Direct
    0.458438     0.663440     0.609403 
    0.723322     0.473182     0.609793 
    0.603959     0.583095     0.632242 
    0.584829     0.402049     0.635926 
    0.440603     0.506576     0.672971 
    0.509756     0.508796     0.494229 
    0.315351     0.604292     0.559882 
    0.316550     0.433816     0.590521 
    0.386001     0.358722     0.448806 
    0.678133     0.583375     0.472139 
    0.647278     0.410423     0.463855 
    0.580751     0.602765     0.334733 
    0.396632     0.632203     0.416577 
    0.425807     0.484153     0.329576 
    0.544235     0.701328     0.464811 
    0.450941     0.380559     0.584513 
    0.521267     0.339093     0.504351 
    0.518900     0.374790     0.392191 
    0.561928     0.459179     0.332453 
    0.335320     0.498163     0.451031 
