EA4    14.916 12.577 12.244 90.00 90.00 90.00 Sym.group:    0
1.0
   14.916120     0.000000     0.000000
    0.000000    12.576693     0.000000
    0.000000     0.000000    12.244367
   W   B
  15   5
Direct
    0.276685     0.502863     0.498693 
    0.712883     0.501324     0.498198 
    0.487846     0.355245     0.638187 
    0.487611     0.538943     0.697414 
    0.491304     0.677440     0.561321 
    0.490401     0.635676     0.365633 
    0.490783     0.450504     0.306608 
    0.488148     0.309215     0.446070 
    0.660414     0.677530     0.472636 
    0.645151     0.576722     0.299140 
    0.659357     0.388934     0.345420 
    0.640869     0.295938     0.529491 
    0.657986     0.432068     0.676055 
    0.644341     0.626122     0.668783 
    0.334177     0.672106     0.457251 
    0.366937     0.534897     0.361462 
    0.367785     0.405447     0.398233 
    0.367826     0.368568     0.532906 
    0.365028     0.458990     0.635696 
    0.364467     0.591471     0.610801 
EA611  15.051 13.599 13.448 90.00 90.00 90.00 Sym.group:    0
1.0
   15.051209     0.000000     0.000000
    0.000000    13.598636     0.000000
    0.000000     0.000000    13.448388
   W   B
  13   2
Direct
    0.500007     0.500915     0.515961 
    0.700113     0.504655     0.508990 
    0.302318     0.493024     0.518829 
    0.491540     0.596130     0.335392 
    0.505361     0.341748     0.626615 
    0.499503     0.412805     0.330606 
    0.505153     0.645491     0.648615 
    0.403869     0.510296     0.666779 
    0.607380     0.501755     0.663238 
    0.386153     0.636393     0.484066 
    0.588769     0.650106     0.470934 
    0.408330     0.343725     0.470864 
    0.602837     0.358820     0.476623 
    0.388350     0.496764     0.394813 
    0.610317     0.507373     0.387677 
EA1059 14.161 13.173 12.660 90.00 90.00 90.00 Sym.group:    0
1.0
   14.161090     0.000000     0.000000
    0.000000    13.172808     0.000000
    0.000000     0.000000    12.660253
   W   B
  11   1
Direct
    0.329992     0.621907     0.473252 
    0.337437     0.463654     0.376369 
    0.349340     0.328331     0.490229 
    0.344051     0.483973     0.594083 
    0.650639     0.648400     0.488628 
    0.672547     0.492230     0.391010 
    0.673712     0.356661     0.506289 
    0.651451     0.510383     0.609212 
    0.488207     0.627296     0.561495 
    0.498136     0.563306     0.375146 
    0.507712     0.413359     0.490910 
    0.496776     0.490500     0.643375 
EA1208 14.797 14.406 13.236 90.00 90.00 90.00 Sym.group:    0
1.0
   14.796966     0.000000     0.000000
    0.000000    14.405827     0.000000
    0.000000     0.000000    13.235529
   W   B
  12   4
Direct
    0.644343     0.363419     0.558870 
    0.319586     0.380670     0.498500 
    0.443485     0.591981     0.339202 
    0.514090     0.599884     0.633403 
    0.392482     0.472924     0.630763 
    0.694650     0.482722     0.438208 
    0.668992     0.536971     0.605670 
    0.483216     0.336463     0.533505 
    0.435795     0.412397     0.371452 
    0.440372     0.698675     0.474902 
    0.321163     0.545235     0.458775 
    0.587409     0.624410     0.455775 
    0.541257     0.449937     0.626546 
    0.578282     0.389499     0.418270 
    0.374820     0.615519     0.584445 
    0.560057     0.499295     0.371713 
EA1424 15.970 14.958 14.204 90.00 90.00 90.00 Sym.group:    0
1.0
   15.970131     0.000000     0.000000
    0.000000    14.958120     0.000000
    0.000000     0.000000    14.203879
   W   B
  14   5
Direct
    0.503149     0.508737     0.488318 
    0.366386     0.502759     0.383854 
    0.636163     0.528383     0.379770 
    0.613971     0.528047     0.635930 
    0.396378     0.356843     0.495779 
    0.506510     0.380001     0.629365 
    0.618563     0.643371     0.507826 
    0.513176     0.367167     0.375336 
    0.365927     0.595877     0.529113 
    0.626255     0.395460     0.506491 
    0.488292     0.644308     0.362661 
    0.275981     0.467461     0.523680 
    0.524587     0.258075     0.509411 
    0.504540     0.511966     0.280966 
    0.698175     0.523313     0.514272 
    0.477222     0.525071     0.654606 
    0.483500     0.673676     0.509525 
    0.507236     0.622775     0.608096 
    0.393989     0.466709     0.605000 
EA2023 14.965 14.954 13.048 90.00 90.00 90.00 Sym.group:    0
1.0
   14.964872     0.000000     0.000000
    0.000000    14.953986     0.000000
    0.000000     0.000000    13.048044
   W   B
  11   3
Direct
    0.536823     0.351277     0.619903 
    0.666099     0.477321     0.581655 
    0.363824     0.506121     0.427564 
    0.492919     0.637721     0.413527 
    0.607585     0.503855     0.400435 
    0.491997     0.380149     0.415576 
    0.379033     0.638193     0.550904 
    0.373945     0.368944     0.551607 
    0.644542     0.341795     0.490697 
    0.496197     0.509863     0.565661 
    0.469842     0.514009     0.283618 
    0.350130     0.501087     0.599592 
    0.521740     0.662291     0.575767 
    0.605324     0.607372     0.523495 
EA2124 15.370 14.254 14.659 90.00 90.00 90.00 Sym.group:    0
1.0
   15.369838     0.000000     0.000000
    0.000000    14.254164     0.000000
    0.000000     0.000000    14.658889
   W   B
  13   5
Direct
    0.315440     0.538305     0.456326 
    0.416103     0.325780     0.581521 
    0.500348     0.389622     0.325974 
    0.353162     0.483142     0.607548 
    0.369640     0.377603     0.430621 
    0.540637     0.311419     0.469376 
    0.640160     0.471875     0.391930 
    0.440954     0.652423     0.411429 
    0.613377     0.572571     0.613309 
    0.603000     0.636673     0.440963 
    0.530368     0.426634     0.655787 
    0.657930     0.407395     0.545248 
    0.493424     0.490754     0.492306 
    0.445365     0.523275     0.348732 
    0.703181     0.550660     0.497303 
    0.400991     0.616329     0.549436 
    0.506626     0.651188     0.549187 
    0.469296     0.574353     0.633004 
EA2447 16.283 14.159 13.279 90.00 90.00 90.00 Sym.group:    0
1.0
   16.283324     0.000000     0.000000
    0.000000    14.158674     0.000000
    0.000000     0.000000    13.279133
   W   B
  14   5
Direct
    0.682951     0.392967     0.450312 
    0.604466     0.671190     0.470765 
    0.629955     0.525348     0.355118 
    0.556578     0.320700     0.533438 
    0.583934     0.583115     0.640684 
    0.505912     0.507183     0.471023 
    0.427324     0.363527     0.399027 
    0.410886     0.375561     0.581247 
    0.433963     0.549913     0.651301 
    0.359937     0.615716     0.492183 
    0.285625     0.434177     0.443555 
    0.480710     0.684476     0.387214 
    0.288284     0.491672     0.603966 
    0.386065     0.528035     0.342027 
    0.563232     0.384529     0.384204 
    0.625124     0.442271     0.590584 
    0.529482     0.434386     0.638193 
    0.485451     0.664915     0.551721 
    0.660120     0.530319     0.513439 
EA2926 14.376 14.485 14.054 90.00 90.00 90.00 Sym.group:    0
1.0
   14.376405     0.000000     0.000000
    0.000000    14.484788     0.000000
    0.000000     0.000000    14.053851
   W   B
  11   5
Direct
    0.313072     0.503445     0.497459 
    0.535835     0.681183     0.521563 
    0.393128     0.643196     0.585160 
    0.534094     0.571566     0.663031 
    0.513093     0.356196     0.358635 
    0.608310     0.346015     0.508604 
    0.613350     0.490025     0.348622 
    0.514936     0.504054     0.494760 
    0.401526     0.365284     0.516611 
    0.404503     0.491413     0.350068 
    0.519658     0.379375     0.648162 
    0.510524     0.601828     0.364518 
    0.410042     0.488926     0.623178 
    0.635160     0.471777     0.600048 
    0.674629     0.477464     0.485753 
    0.418140     0.628253     0.433825 
EA3179 15.179 14.298 13.660 90.00 90.00 90.00 Sym.group:    0
1.0
   15.178690     0.000000     0.000000
    0.000000    14.297834     0.000000
    0.000000     0.000000    13.659808
   W   B
  13   5
Direct
    0.688388     0.452357     0.468828 
    0.580772     0.620279     0.652463 
    0.530927     0.660444     0.363489 
    0.625417     0.456627     0.636140 
    0.653360     0.617892     0.492602 
    0.487591     0.699290     0.523161 
    0.374111     0.588392     0.387477 
    0.558429     0.384476     0.361405 
    0.360986     0.400140     0.570835 
    0.397617     0.412780     0.376853 
    0.442262     0.509190     0.672122 
    0.342736     0.597041     0.558516 
    0.503179     0.514011     0.496926 
    0.600833     0.527076     0.367051 
    0.294716     0.482420     0.462417 
    0.581028     0.360728     0.515095 
    0.473757     0.340718     0.488457 
    0.503891     0.376141     0.606161 
EA3597 14.379 14.168 14.239 90.00 90.00 90.00 Sym.group:    0
1.0
   14.379415     0.000000     0.000000
    0.000000    14.167665     0.000000
    0.000000     0.000000    14.239498
   W   B
  14   2
Direct
    0.598510     0.366052     0.446523 
    0.689541     0.500573     0.519215 
    0.630934     0.566599     0.369077 
    0.466967     0.317227     0.561501 
    0.408722     0.340527     0.401139 
    0.514110     0.453316     0.314173 
    0.356416     0.530952     0.398629 
    0.307094     0.410793     0.518071 
    0.476908     0.679117     0.580184 
    0.492325     0.670810     0.407449 
    0.591718     0.566708     0.651268 
    0.492816     0.508442     0.491327 
    0.446061     0.460610     0.660795 
    0.337811     0.575292     0.573435 
    0.585385     0.418492     0.598499 
    0.604684     0.634493     0.508714 
EA3865 13.982 14.427 14.510 90.00 90.00 90.00 Sym.group:    0
1.0
   13.982061     0.000000     0.000000
    0.000000    14.427302     0.000000
    0.000000     0.000000    14.509901
   W   B
  13   4
Direct
    0.465749     0.563744     0.657710 
    0.475180     0.714359     0.573531 
    0.490133     0.490938     0.500288 
    0.475295     0.379117     0.641206 
    0.622732     0.616962     0.550392 
    0.603032     0.387186     0.388909 
    0.630311     0.474879     0.649725 
    0.456851     0.318128     0.472089 
    0.339376     0.426583     0.403070 
    0.504901     0.505393     0.313123 
    0.345703     0.594840     0.525357 
    0.501434     0.657959     0.417186 
    0.320891     0.412934     0.569358 
    0.604510     0.374714     0.540981 
    0.658278     0.473992     0.499249 
    0.617912     0.542257     0.409726 
    0.387710     0.566013     0.388101 
EA4275 15.445 14.319 14.029 90.00 90.00 90.00 Sym.group:    0
1.0
   15.444536     0.000000     0.000000
    0.000000    14.319094     0.000000
    0.000000     0.000000    14.028732
   W   B
  15   1
Direct
    0.525359     0.348377     0.420049 
    0.625810     0.391565     0.592608 
    0.518918     0.528982     0.390125 
    0.675520     0.420566     0.435026 
    0.581603     0.650267     0.532987 
    0.584854     0.545134     0.666449 
    0.469471     0.490851     0.555859 
    0.388217     0.650716     0.595183 
    0.393447     0.417274     0.336314 
    0.302925     0.509031     0.589137 
    0.439389     0.687079     0.441852 
    0.342402     0.366730     0.483733 
    0.333773     0.555697     0.431172 
    0.475460     0.316519     0.580017 
    0.669533     0.588736     0.403079 
    0.673318     0.532476     0.546412 
EA4550 15.598 14.407 13.600 90.00 90.00 90.00 Sym.group:    0
1.0
   15.597646     0.000000     0.000000
    0.000000    14.406805     0.000000
    0.000000     0.000000    13.600050
   W   B
  14   3
Direct
    0.683572     0.535259     0.437000 
    0.636494     0.364963     0.490236 
    0.549057     0.367707     0.637063 
    0.553314     0.388054     0.342905 
    0.628398     0.523118     0.615016 
    0.509114     0.504335     0.489323 
    0.395479     0.394882     0.582741 
    0.453396     0.695288     0.487041 
    0.605559     0.669009     0.487716 
    0.374155     0.577969     0.588129 
    0.552470     0.568176     0.330112 
    0.380994     0.572346     0.382802 
    0.282054     0.474647     0.488162 
    0.396559     0.397323     0.385582 
    0.495368     0.335177     0.484245 
    0.488052     0.511239     0.658329 
    0.515964     0.620510     0.613599 
EA5036 15.139 15.139 15.139 90.00 90.00 90.00 Sym.group:    0
1.0
   15.139323     0.000000     0.000000
    0.000000    15.139323     0.000000
    0.000000     0.000000    15.139323
   W   B
  13   2
Direct
    0.500031     0.499968     0.500061 
    0.595400     0.363262     0.517020 
    0.404645     0.512552     0.637263 
    0.595228     0.636787     0.483002 
    0.404652     0.487472     0.362738 
    0.404772     0.636466     0.482256 
    0.595313     0.487406     0.362681 
    0.404690     0.363555     0.517749 
    0.595371     0.512534     0.637240 
    0.309886     0.500087     0.500028 
    0.689670     0.499963     0.499942 
    0.499961     0.648122     0.618288 
    0.499983     0.351797     0.381773 
    0.500184     0.598211     0.377480 
    0.500214     0.401817     0.622480 
EA5216 14.486 14.340 14.018 90.00 90.00 90.00 Sym.group:    0
1.0
   14.486080     0.000000     0.000000
    0.000000    14.339616     0.000000
    0.000000     0.000000    14.018357
   W   B
  13   4
Direct
    0.453014     0.518403     0.665443 
    0.330867     0.403766     0.625716 
    0.504367     0.497613     0.485533 
    0.598009     0.630301     0.610134 
    0.487711     0.346453     0.580644 
    0.642780     0.498759     0.360870 
    0.617692     0.447128     0.646158 
    0.589845     0.653287     0.446877 
    0.476836     0.464479     0.304656 
    0.333445     0.563197     0.540554 
    0.353040     0.401575     0.450227 
    0.662187     0.386954     0.486264 
    0.514434     0.329893     0.390810 
    0.669633     0.536444     0.515533 
    0.375409     0.543465     0.391695 
    0.460362     0.645724     0.558649 
    0.430370     0.632560     0.440237 
EA5688 14.962 14.962 14.962 90.00 90.00 90.00 Sym.group:    0
1.0
   14.962233     0.000000     0.000000
    0.000000    14.962233     0.000000
    0.000000     0.000000    14.962233
   W   B
  12   3
Direct
    0.495942     0.495198     0.499775 
    0.504700     0.638921     0.406073 
    0.358807     0.506984     0.593135 
    0.504472     0.359506     0.405871 
    0.638547     0.502184     0.594965 
    0.503798     0.360169     0.595274 
    0.638761     0.502225     0.405030 
    0.504559     0.639230     0.593318 
    0.358934     0.506449     0.406541 
    0.504474     0.505320     0.690259 
    0.505843     0.504715     0.309748 
    0.363079     0.364235     0.500000 
    0.613561     0.610800     0.500025 
    0.613058     0.389388     0.500498 
    0.391464     0.614677     0.499488 
EA5826 15.363 15.014 14.038 90.00 90.00 90.00 Sym.group:    0
1.0
   15.362923     0.000000     0.000000
    0.000000    15.014218     0.000000
    0.000000     0.000000    14.037648
   W   B
  15   5
Direct
    0.607063     0.576017     0.361844 
    0.465635     0.672307     0.381160 
    0.667027     0.426569     0.425391 
    0.579961     0.675040     0.511652 
    0.639353     0.592166     0.648298 
    0.650116     0.434973     0.603462 
    0.502293     0.496981     0.494357 
    0.461419     0.516185     0.308747 
    0.341049     0.585058     0.449254 
    0.532175     0.370446     0.355885 
    0.603586     0.292760     0.511694 
    0.447573     0.308885     0.491777 
    0.500302     0.379202     0.637527 
    0.384491     0.537966     0.633178 
    0.344797     0.430930     0.407351 
    0.442305     0.643216     0.538406 
    0.504837     0.612224     0.628725 
    0.665157     0.556009     0.505702 
    0.371201     0.411467     0.565342 
    0.289661     0.481600     0.540246 
EA6203 14.804 14.269 13.940 90.00 90.00 90.00 Sym.group:    0
1.0
   14.803753     0.000000     0.000000
    0.000000    14.268830     0.000000
    0.000000     0.000000    13.939502
   W   B
  13   5
Direct
    0.453645     0.689453     0.536076 
    0.508708     0.508887     0.507117 
    0.575469     0.676817     0.427106 
    0.552229     0.537377     0.316685 
    0.606312     0.332360     0.509949 
    0.673326     0.467584     0.437159 
    0.547257     0.556667     0.672572 
    0.439724     0.330237     0.477952 
    0.378163     0.425718     0.617356 
    0.289899     0.400761     0.470492 
    0.406838     0.464451     0.352081 
    0.333606     0.567925     0.490749 
    0.667763     0.599744     0.555936 
    0.544428     0.395186     0.380884 
    0.637667     0.454678     0.600530 
    0.535218     0.404106     0.629944 
    0.408459     0.571414     0.626061 
    0.441289     0.616635     0.391351 
EA6534 14.916 14.366 14.201 90.00 90.00 90.00 Sym.group:    0
1.0
   14.916158     0.000000     0.000000
    0.000000    14.365596     0.000000
    0.000000     0.000000    14.200894
   W   B
  14   4
Direct
    0.498304     0.686742     0.552850 
    0.491569     0.501426     0.506136 
    0.391026     0.652447     0.430270 
    0.426245     0.314617     0.471335 
    0.345505     0.469333     0.410896 
    0.428436     0.511731     0.673929 
    0.599819     0.355072     0.470782 
    0.619178     0.439814     0.621419 
    0.735238     0.456857     0.488282 
    0.620906     0.512063     0.369795 
    0.649172     0.603038     0.519585 
    0.312287     0.562278     0.551636 
    0.469508     0.350734     0.636069 
    0.488376     0.399940     0.332243 
    0.358342     0.420415     0.561653 
    0.555044     0.575967     0.637142 
    0.538741     0.633678     0.413974 
    0.472303     0.553847     0.352007 
EA6882 15.081 14.566 14.230 90.00 90.00 90.00 Sym.group:    0
1.0
   15.080711     0.000000     0.000000
    0.000000    14.566145     0.000000
    0.000000     0.000000    14.229909
   W   B
  13   5
Direct
    0.323518     0.446712     0.564905 
    0.433869     0.342939     0.499655 
    0.476553     0.409845     0.327826 
    0.637308     0.478759     0.649836 
    0.469137     0.453910     0.665740 
    0.323582     0.588073     0.464910 
    0.675697     0.576877     0.518505 
    0.573857     0.640797     0.401333 
    0.502235     0.510335     0.498064 
    0.539612     0.617208     0.647322 
    0.427226     0.565790     0.334152 
    0.626685     0.485033     0.361587 
    0.446064     0.686516     0.526727 
    0.569026     0.370647     0.444103 
    0.563006     0.374991     0.566544 
    0.364985     0.450495     0.416215 
    0.651823     0.427303     0.502957 
    0.395818     0.573769     0.609620 
EA7187 14.668 13.964 14.439 90.00 90.00 90.00 Sym.group:    0
1.0
   14.667503     0.000000     0.000000
    0.000000    13.964485     0.000000
    0.000000     0.000000    14.438822
   W   B
  15   5
Direct
    0.576994     0.691679     0.528017 
    0.394962     0.633792     0.546155 
    0.285016     0.500148     0.603102 
    0.526920     0.626910     0.670678 
    0.680752     0.552333     0.589510 
    0.570372     0.425204     0.652870 
    0.530441     0.506132     0.497343 
    0.696121     0.375127     0.540704 
    0.583032     0.619222     0.349345 
    0.698499     0.499361     0.423923 
    0.404634     0.547504     0.368468 
    0.285340     0.394979     0.479296 
    0.450949     0.367727     0.406964 
    0.414575     0.361007     0.586505 
    0.553246     0.465355     0.298128 
    0.469149     0.671131     0.424961 
    0.291626     0.546945     0.466679 
    0.435134     0.506044     0.628319 
    0.550256     0.336129     0.520289 
    0.601983     0.373271     0.418742 
EA7699 14.514 13.737 13.694 90.00 90.00 90.00 Sym.group:    0
1.0
   14.513949     0.000000     0.000000
    0.000000    13.737164     0.000000
    0.000000     0.000000    13.693762
   W   B
  11   5
Direct
    0.343634     0.578539     0.414155 
    0.402153     0.469056     0.668823 
    0.423825     0.339535     0.548932 
    0.392686     0.401984     0.387128 
    0.499754     0.509548     0.505529 
    0.371298     0.620042     0.576011 
    0.610197     0.374706     0.577181 
    0.581976     0.522708     0.675524 
    0.585411     0.671052     0.545993 
    0.694532     0.530908     0.542265 
    0.594360     0.603806     0.385838 
    0.538170     0.358965     0.434210 
    0.331855     0.467692     0.526228 
    0.465499     0.665336     0.436548 
    0.535596     0.448121     0.349698 
    0.629057     0.438005     0.425936 
EA7988 14.504 13.794 13.702 90.00 90.00 90.00 Sym.group:    0
1.0
   14.503885     0.000000     0.000000
    0.000000    13.794111     0.000000
    0.000000     0.000000    13.701778
   W   B
  11   5
Direct
    0.342775     0.577946     0.409124 
    0.411664     0.490886     0.668234 
    0.419052     0.344201     0.564440 
    0.385864     0.392062     0.398086 
    0.499171     0.509828     0.491607 
    0.380275     0.631240     0.565445 
    0.608850     0.387141     0.585582 
    0.586460     0.537697     0.672226 
    0.579770     0.672656     0.549172 
    0.613747     0.614877     0.397775 
    0.655173     0.421199     0.417702 
    0.526332     0.343068     0.454443 
    0.333541     0.477464     0.532172 
    0.470514     0.657051     0.409519 
    0.525990     0.408100     0.350022 
    0.660822     0.534585     0.534452 
EA8223 14.436 14.540 14.321 90.00 90.00 90.00 Sym.group:    0
1.0
   14.436382     0.000000     0.000000
    0.000000    14.539606     0.000000
    0.000000     0.000000    14.321409
   W   B
  13   5
Direct
    0.526595     0.697831     0.530588 
    0.623020     0.577506     0.369855 
    0.674538     0.607004     0.531008 
    0.506163     0.512760     0.489867 
    0.352098     0.613638     0.541071 
    0.438929     0.346001     0.563564 
    0.509707     0.442401     0.314980 
    0.685101     0.446841     0.463354 
    0.554326     0.329434     0.429723 
    0.473642     0.614881     0.661320 
    0.305665     0.447728     0.508573 
    0.356868     0.508245     0.356766 
    0.443731     0.650478     0.389233 
    0.625323     0.492518     0.606848 
    0.413125     0.381711     0.417313 
    0.586644     0.389818     0.567719 
    0.407221     0.486618     0.617246 
    0.517305     0.454587     0.640970 
EA8849 15.531 13.367 12.398 90.00 90.00 90.00 Sym.group:    0
1.0
   15.530919     0.000000     0.000000
    0.000000    13.367271     0.000000
    0.000000     0.000000    12.398320
   W   B
  12   1
Direct
    0.541844     0.589483     0.476499 
    0.676122     0.454235     0.411312 
    0.700403     0.612987     0.487483 
    0.330984     0.495372     0.601493 
    0.363000     0.638383     0.449370 
    0.508657     0.414875     0.407147 
    0.494949     0.450124     0.618646 
    0.661177     0.500419     0.625193 
    0.385283     0.346708     0.510066 
    0.330195     0.475251     0.388325 
    0.435610     0.628103     0.623178 
    0.624855     0.344156     0.548154 
    0.446921     0.549902     0.353133 
EA8880 14.955 14.506 14.176 90.00 90.00 90.00 Sym.group:    0
1.0
   14.955118     0.000000     0.000000
    0.000000    14.505861     0.000000
    0.000000     0.000000    14.176060
   W   B
  14   5
Direct
    0.304663     0.612557     0.488332 
    0.424275     0.603262     0.634142 
    0.455228     0.692524     0.490314 
    0.421188     0.593524     0.344094 
    0.342989     0.457754     0.404374 
    0.325174     0.473659     0.585717 
    0.634070     0.389493     0.443358 
    0.620003     0.380418     0.623213 
    0.557187     0.490906     0.313974 
    0.497837     0.501896     0.499544 
    0.579287     0.541874     0.673079 
    0.611034     0.651448     0.541635 
    0.478676     0.352558     0.381477 
    0.464121     0.395302     0.657680 
    0.558907     0.618967     0.398426 
    0.659328     0.507011     0.543458 
    0.641211     0.543222     0.431262 
    0.516947     0.328710     0.529081 
    0.407871     0.364912     0.516842 
EA9220 15.331 14.008 14.132 90.00 90.00 90.00 Sym.group:    0
1.0
   15.331430     0.000000     0.000000
    0.000000    14.008325     0.000000
    0.000000     0.000000    14.131765
   W   B
  14   5
Direct
    0.713641     0.459249     0.541591 
    0.582391     0.488466     0.667678 
    0.639555     0.618975     0.573921 
    0.650006     0.566945     0.399361 
    0.620180     0.396018     0.400158 
    0.599137     0.340040     0.572264 
    0.351909     0.522783     0.399426 
    0.312112     0.452459     0.558286 
    0.498701     0.585587     0.325036 
    0.504224     0.499333     0.500902 
    0.419875     0.529131     0.672993 
    0.484806     0.674257     0.597359 
    0.466904     0.411247     0.328784 
    0.430988     0.349737     0.601775 
    0.542481     0.658548     0.456092 
    0.370954     0.596329     0.538856 
    0.431330     0.645992     0.450755 
    0.387583     0.372795     0.454385 
    0.493224     0.332110     0.460379 
EA9569 15.401 14.079 14.159 90.00 90.00 90.00 Sym.group:    0
1.0
   15.400567     0.000000     0.000000
    0.000000    14.078863     0.000000
    0.000000     0.000000    14.159460
   W   B
  14   5
Direct
    0.709723     0.552640     0.540299 
    0.589517     0.509386     0.667079 
    0.644002     0.384937     0.564307 
    0.648113     0.450136     0.394938 
    0.612836     0.620275     0.403850 
    0.589747     0.661790     0.578845 
    0.353425     0.469134     0.400933 
    0.310576     0.532669     0.560782 
    0.498791     0.417097     0.321527 
    0.504937     0.500557     0.501245 
    0.425966     0.466406     0.671353 
    0.495464     0.323820     0.592665 
    0.461503     0.589830     0.333536 
    0.424265     0.642056     0.607167 
    0.549364     0.344783     0.448758 
    0.378513     0.396728     0.538070 
    0.439020     0.351234     0.448117 
    0.380541     0.619927     0.459149 
    0.483696     0.666597     0.467378 
EA10204 15.157 13.225 13.060 90.00 90.00 90.00 Sym.group:    0
1.0
   15.157328     0.000000     0.000000
    0.000000    13.225346     0.000000
    0.000000     0.000000    13.060015
   W   B
  11   2
Direct
    0.705434     0.508257     0.465823 
    0.602517     0.491522     0.322133 
    0.603534     0.646785     0.451157 
    0.458648     0.507011     0.414260 
    0.572950     0.361944     0.450706 
    0.619116     0.590109     0.623099 
    0.649237     0.408024     0.609472 
    0.453720     0.627309     0.555150 
    0.377046     0.351324     0.502278 
    0.483692     0.444186     0.611036 
    0.322288     0.495400     0.595938 
    0.314751     0.475053     0.432827 
    0.337068     0.593073     0.466123 
EA10493 14.940 13.944 13.040 90.00 90.00 90.00 Sym.group:    0
1.0
   14.939765     0.000000     0.000000
    0.000000    13.944480     0.000000
    0.000000     0.000000    13.039503
   W   B
  11   3
Direct
    0.692001     0.420191     0.509462 
    0.642974     0.546221     0.380871 
    0.516940     0.361886     0.555419 
    0.576728     0.374612     0.381982 
    0.611592     0.607999     0.545313 
    0.624373     0.455053     0.665977 
    0.448444     0.691110     0.529718 
    0.347218     0.418800     0.579895 
    0.473805     0.544819     0.629046 
    0.472808     0.510807     0.433909 
    0.381152     0.348596     0.426694 
    0.534219     0.656008     0.408194 
    0.323486     0.487348     0.437156 
    0.354258     0.576552     0.516365 
EA10562 14.962 14.845 14.268 90.00 90.00 90.00 Sym.group:    0
1.0
   14.962368     0.000000     0.000000
    0.000000    14.845264     0.000000
    0.000000     0.000000    14.268394
   W   B
  15   4
Direct
    0.522848     0.405593     0.667265 
    0.661051     0.480357     0.613132 
    0.677062     0.442087     0.436257 
    0.538831     0.352524     0.388549 
    0.459847     0.307909     0.544225 
    0.406141     0.627063     0.394308 
    0.316330     0.587398     0.541478 
    0.584521     0.548968     0.341115 
    0.501199     0.500196     0.501133 
    0.426619     0.557491     0.668300 
    0.574587     0.621281     0.624832 
    0.441034     0.475208     0.315542 
    0.341764     0.423561     0.569736 
    0.702691     0.598201     0.489205 
    0.560299     0.675800     0.452780 
    0.445964     0.650465     0.547060 
    0.346509     0.490748     0.433609 
    0.399097     0.388751     0.434005 
    0.593603     0.366398     0.537466 
EA11204 14.813 13.707 12.262 90.00 90.00 90.00 Sym.group:    0
1.0
   14.812793     0.000000     0.000000
    0.000000    13.707256     0.000000
    0.000000     0.000000    12.261701
   W   B
  12   1
Direct
    0.694173     0.498904     0.593420 
    0.630717     0.501053     0.410687 
    0.620075     0.663620     0.544147 
    0.551929     0.338748     0.378545 
    0.523852     0.500543     0.607452 
    0.445636     0.348228     0.537609 
    0.347075     0.505933     0.623897 
    0.450571     0.500560     0.411857 
    0.438803     0.650612     0.534122 
    0.625719     0.339774     0.545938 
    0.551330     0.663630     0.378110 
    0.293853     0.568250     0.457823 
    0.326269     0.420146     0.476393 
EA11290 14.418 14.235 14.038 90.00 90.00 90.00 Sym.group:    0
1.0
   14.418186     0.000000     0.000000
    0.000000    14.234981     0.000000
    0.000000     0.000000    14.037758
   W   B
  14   3
Direct
    0.354054     0.500671     0.624522 
    0.338521     0.617821     0.499799 
    0.499190     0.505416     0.500298 
    0.375079     0.545880     0.351266 
    0.421454     0.384129     0.378238 
    0.541680     0.302242     0.483043 
    0.396946     0.342508     0.558037 
    0.588975     0.458880     0.336378 
    0.681822     0.418805     0.474841 
    0.562650     0.384489     0.631704 
    0.570169     0.667577     0.519510 
    0.672539     0.548813     0.590205 
    0.527725     0.542693     0.690601 
    0.540399     0.623157     0.350829 
    0.329722     0.463251     0.475490 
    0.446631     0.628288     0.603249 
    0.652443     0.565382     0.431991 
EA11724 15.924 14.966 12.608 90.00 90.00 90.00 Sym.group:    0
1.0
   15.924166     0.000000     0.000000
    0.000000    14.965650     0.000000
    0.000000     0.000000    12.608204
   W   B
  12   3
Direct
    0.496670     0.526739     0.559988 
    0.653591     0.496605     0.630002 
    0.553555     0.362161     0.580409 
    0.695152     0.406887     0.486014 
    0.447173     0.306567     0.449763 
    0.385187     0.404386     0.589065 
    0.397188     0.459762     0.390224 
    0.554706     0.422269     0.390886 
    0.278738     0.505836     0.504719 
    0.536004     0.681934     0.455404 
    0.387257     0.623325     0.459477 
    0.642126     0.561502     0.436775 
    0.603575     0.623882     0.584908 
    0.501887     0.564188     0.371216 
    0.367191     0.553958     0.611150 
EA11952 14.691 14.337 14.147 90.00 90.00 90.00 Sym.group:    0
1.0
   14.690827     0.000000     0.000000
    0.000000    14.336505     0.000000
    0.000000     0.000000    14.146940
   W   B
  13   4
Direct
    0.355373     0.597900     0.576483 
    0.346943     0.401813     0.573684 
    0.491255     0.494794     0.500764 
    0.416483     0.334274     0.432709 
    0.445172     0.464809     0.315357 
    0.551784     0.591160     0.334040 
    0.421735     0.655415     0.420563 
    0.593951     0.406352     0.373608 
    0.576205     0.670475     0.498332 
    0.568382     0.432752     0.655117 
    0.518580     0.615898     0.650161 
    0.554880     0.313972     0.522792 
    0.309472     0.507576     0.442581 
    0.433022     0.490551     0.658654 
    0.644413     0.440027     0.521533 
    0.630513     0.544745     0.573305 
    0.641837     0.537487     0.450315 
EA12304 14.145 14.330 14.122 90.00 90.00 90.00 Sym.group:    0
1.0
   14.145026     0.000000     0.000000
    0.000000    14.329728     0.000000
    0.000000     0.000000    14.122434
   W   B
  13   4
Direct
    0.398496     0.670328     0.490693 
    0.337733     0.527095     0.614715 
    0.488440     0.499421     0.500095 
    0.360051     0.367447     0.560221 
    0.400377     0.375737     0.384607 
    0.540820     0.444380     0.318404 
    0.458682     0.599053     0.338402 
    0.539383     0.321041     0.470568 
    0.628479     0.588885     0.382584 
    0.578209     0.527034     0.664163 
    0.577658     0.667602     0.526370 
    0.505501     0.368511     0.647787 
    0.307457     0.535805     0.446512 
    0.464112     0.613563     0.620869 
    0.624576     0.420579     0.561799 
    0.652568     0.530756     0.529470 
    0.637455     0.442761     0.442740 
EA12844 13.922 15.199 13.360 90.00 90.00 90.00 Sym.group:    0
1.0
   13.921611     0.000000     0.000000
    0.000000    15.198522     0.000000
    0.000000     0.000000    13.360389
   W   B
  11   2
Direct
    0.430517     0.407842     0.627176 
    0.292935     0.449591     0.511591 
    0.360990     0.553044     0.628012 
    0.557955     0.528665     0.616120 
    0.338491     0.592773     0.442181 
    0.697701     0.478703     0.376177 
    0.682760     0.609971     0.479616 
    0.727451     0.476061     0.558510 
    0.524610     0.509032     0.403466 
    0.581501     0.386730     0.507123 
    0.496859     0.640386     0.508481 
    0.431267     0.396783     0.461620 
    0.376963     0.470418     0.379928 
EA12954 14.714 14.199 14.072 90.00 90.00 90.00 Sym.group:    0
1.0
   14.714016     0.000000     0.000000
    0.000000    14.198740     0.000000
    0.000000     0.000000    14.071789
   W   B
  13   4
Direct
    0.484978     0.588648     0.342948 
    0.660834     0.564739     0.441488 
    0.336687     0.544946     0.414179 
    0.398378     0.658015     0.533219 
    0.436856     0.415798     0.335846 
    0.505606     0.508954     0.505980 
    0.655340     0.377822     0.457237 
    0.682675     0.487689     0.592560 
    0.572648     0.623291     0.622477 
    0.340134     0.382660     0.508198 
    0.495557     0.318928     0.467987 
    0.436979     0.403176     0.638763 
    0.552526     0.701443     0.470329 
    0.352118     0.519034     0.575996 
    0.575882     0.381382     0.588461 
    0.436524     0.560621     0.646474 
    0.576277     0.462854     0.357859 
EA13438 14.937 14.881 14.859 90.00 90.00 90.00 Sym.group:    0
1.0
   14.937060     0.000000     0.000000
    0.000000    14.881121     0.000000
    0.000000     0.000000    14.858656
   W   B
  14   1
Direct
    0.397063     0.385949     0.426336 
    0.401067     0.424682     0.617430 
    0.401565     0.618439     0.577847 
    0.397198     0.575737     0.384279 
    0.500216     0.500063     0.500032 
    0.493862     0.690985     0.458109 
    0.490350     0.458480     0.306838 
    0.493011     0.306276     0.541449 
    0.494384     0.541554     0.692702 
    0.596430     0.573733     0.381668 
    0.595122     0.384586     0.424157 
    0.598024     0.423664     0.613598 
    0.601953     0.613633     0.573966 
    0.699131     0.499224     0.498514 
    0.340623     0.502995     0.503074 
EA13935 14.130 13.676 13.450 90.00 90.00 90.00 Sym.group:    0
1.0
   14.129677     0.000000     0.000000
    0.000000    13.676430     0.000000
    0.000000     0.000000    13.449572
   W   B
  11   1
Direct
    0.483764     0.591937     0.477824 
    0.648992     0.640696     0.447020 
    0.638019     0.467699     0.548534 
    0.442614     0.456012     0.349763 
    0.482178     0.512481     0.637308 
    0.304176     0.554362     0.577333 
    0.312594     0.577927     0.415317 
    0.523932     0.331561     0.597130 
    0.384367     0.405424     0.510091 
    0.553018     0.337321     0.425663 
    0.634766     0.631280     0.615264 
    0.591580     0.493300     0.398753 
EA14194 14.782 14.088 12.381 90.00 90.00 90.00 Sym.group:    0
1.0
   14.781694     0.000000     0.000000
    0.000000    14.087971     0.000000
    0.000000     0.000000    12.380766
   W   B
  11   3
Direct
    0.491419     0.684520     0.499325 
    0.639468     0.570559     0.569771 
    0.618630     0.636378     0.396225 
    0.487641     0.508234     0.437534 
    0.663003     0.454480     0.388445 
    0.685029     0.397224     0.562374 
    0.544416     0.340536     0.453726 
    0.521818     0.439628     0.630810 
    0.307838     0.481293     0.428660 
    0.369235     0.533580     0.599312 
    0.382775     0.361153     0.565423 
    0.507867     0.601528     0.639521 
    0.371435     0.613668     0.435257 
    0.409425     0.377217     0.393616 
EA14442 15.051 13.396 13.865 90.00 90.00 90.00 Sym.group:    0
1.0
   15.050945     0.000000     0.000000
    0.000000    13.396004     0.000000
    0.000000     0.000000    13.864590
   W   B
  14   1
Direct
    0.499904     0.500223     0.502943 
    0.595857     0.605895     0.386868 
    0.403307     0.612807     0.602643 
    0.596719     0.392676     0.608661 
    0.403140     0.388858     0.394144 
    0.403709     0.393050     0.608050 
    0.596976     0.389166     0.393231 
    0.403656     0.605709     0.387414 
    0.597611     0.611766     0.604302 
    0.306923     0.499419     0.492742 
    0.691732     0.499582     0.492603 
    0.500109     0.281461     0.499320 
    0.500702     0.506746     0.712978 
    0.499906     0.716657     0.486601 
    0.499748     0.495986     0.327500 
EA14766 14.260 14.029 13.587 90.00 90.00 90.00 Sym.group:    0
1.0
   14.259596     0.000000     0.000000
    0.000000    14.028681     0.000000
    0.000000     0.000000    13.587386
   W   B
  12   3
Direct
    0.366411     0.363982     0.489482 
    0.554629     0.554033     0.380862 
    0.397883     0.639265     0.418371 
    0.313739     0.455910     0.621138 
    0.545649     0.666653     0.527514 
    0.366064     0.620437     0.590712 
    0.667719     0.566959     0.616285 
    0.541133     0.308900     0.528350 
    0.713400     0.607568     0.458590 
    0.670043     0.437665     0.471588 
    0.525853     0.366392     0.371587 
    0.490598     0.490850     0.546090 
    0.324783     0.516219     0.474690 
    0.410172     0.480079     0.390818 
    0.611924     0.425089     0.613920 
EA15133 15.156 14.640 12.892 90.00 90.00 90.00 Sym.group:    0
1.0
   15.155630     0.000000     0.000000
    0.000000    14.639954     0.000000
    0.000000     0.000000    12.892355
   W   B
  12   3
Direct
    0.482887     0.519449     0.593209 
    0.586069     0.381556     0.553580 
    0.697295     0.467556     0.457758 
    0.329681     0.463930     0.622369 
    0.431722     0.328258     0.591122 
    0.477274     0.670909     0.498736 
    0.641447     0.621169     0.461486 
    0.516848     0.514626     0.398652 
    0.467087     0.319717     0.412406 
    0.372375     0.605257     0.357120 
    0.323558     0.619913     0.527108 
    0.360808     0.447300     0.439405 
    0.586224     0.628396     0.607878 
    0.633254     0.524058     0.593413 
    0.593472     0.387905     0.385758 
EA15342 13.801 14.321 14.253 90.00 90.00 90.00 Sym.group:    0
1.0
   13.800800     0.000000     0.000000
    0.000000    14.320635     0.000000
    0.000000     0.000000    14.253263
   W   B
  11   5
Direct
    0.429142     0.316770     0.461841 
    0.327297     0.443150     0.553076 
    0.456269     0.493567     0.673925 
    0.310548     0.561888     0.434860 
    0.493146     0.501459     0.471642 
    0.538642     0.643084     0.581648 
    0.638853     0.474271     0.355998 
    0.623009     0.507798     0.640824 
    0.683300     0.592605     0.471183 
    0.543178     0.355720     0.590289 
    0.557133     0.644938     0.381382 
    0.387477     0.590198     0.570188 
    0.359828     0.429574     0.399741 
    0.424578     0.653197     0.474777 
    0.574247     0.361066     0.437839 
    0.653352     0.430714     0.500787 
EA15645 15.015 14.765 14.334 90.00 90.00 90.00 Sym.group:    0
1.0
   15.015358     0.000000     0.000000
    0.000000    14.764694     0.000000
    0.000000     0.000000    14.334222
   W   B
  15   2
Direct
    0.382213     0.494800     0.369035 
    0.523426     0.489753     0.495853 
    0.544701     0.373391     0.365736 
    0.388930     0.442263     0.616511 
    0.541437     0.327509     0.576348 
    0.663326     0.364004     0.478699 
    0.399057     0.351701     0.464236 
    0.270935     0.462664     0.494555 
    0.535039     0.453215     0.692420 
    0.528668     0.533096     0.301849 
    0.505686     0.680680     0.539883 
    0.363896     0.596131     0.522529 
    0.702858     0.527304     0.500513 
    0.615011     0.585776     0.629283 
    0.610186     0.629870     0.409132 
    0.464058     0.570517     0.635527 
    0.460574     0.617326     0.407889 
EA16120 15.065 14.624 13.133 90.00 90.00 90.00 Sym.group:    0
1.0
   15.065141     0.000000     0.000000
    0.000000    14.623747     0.000000
    0.000000     0.000000    13.132584
   W   B
  14   1
Direct
    0.654414     0.526039     0.353317 
    0.708761     0.504350     0.520261 
    0.598181     0.648288     0.468202 
    0.588796     0.563136     0.633757 
    0.443665     0.694259     0.428751 
    0.323071     0.374894     0.504267 
    0.338482     0.553354     0.428051 
    0.385453     0.403400     0.349684 
    0.495863     0.513205     0.458096 
    0.435640     0.647865     0.594885 
    0.468223     0.435517     0.634632 
    0.321261     0.515229     0.607267 
    0.496237     0.335872     0.484278 
    0.626222     0.376016     0.598640 
    0.615731     0.408576     0.435913 
EA16465 15.102 13.975 12.631 90.00 90.00 90.00 Sym.group:    0
1.0
   15.102148     0.000000     0.000000
    0.000000    13.975040     0.000000
    0.000000     0.000000    12.630983
   W   B
  13   2
Direct
    0.475322     0.528139     0.593508 
    0.568955     0.377280     0.579974 
    0.702115     0.464064     0.453918 
    0.316793     0.481118     0.613064 
    0.412737     0.331118     0.592766 
    0.642745     0.619001     0.450026 
    0.520730     0.505239     0.396758 
    0.457478     0.309395     0.413054 
    0.383556     0.609134     0.337873 
    0.326359     0.635048     0.508269 
    0.358901     0.452029     0.428414 
    0.669114     0.509509     0.628176 
    0.484023     0.677710     0.486647 
    0.589624     0.634512     0.604350 
    0.591549     0.366707     0.413202 
EA16821 14.974 14.411 12.704 90.00 90.00 90.00 Sym.group:    0
1.0
   14.974210     0.000000     0.000000
    0.000000    14.411234     0.000000
    0.000000     0.000000    12.703600
   W   B
  13   2
Direct
    0.521437     0.522851     0.598729 
    0.418265     0.385902     0.569024 
    0.298117     0.480323     0.435050 
    0.676896     0.464889     0.626075 
    0.572825     0.328848     0.594314 
    0.363687     0.628139     0.443504 
    0.486284     0.508970     0.398339 
    0.537076     0.314648     0.413138 
    0.633355     0.599965     0.351479 
    0.681413     0.617499     0.526460 
    0.643668     0.444828     0.437912 
    0.322072     0.518613     0.612307 
    0.526092     0.670361     0.492684 
    0.412242     0.633846     0.600184 
    0.406571     0.380316     0.400802 
EA17139 15.095 14.343 12.687 90.00 90.00 90.00 Sym.group:    0
1.0
   15.094831     0.000000     0.000000
    0.000000    14.342616     0.000000
    0.000000     0.000000    12.687449
   W   B
  13   2
Direct
    0.476954     0.475672     0.597046 
    0.575113     0.617204     0.569958 
    0.701058     0.528151     0.444256 
    0.321377     0.528122     0.619843 
    0.420432     0.669697     0.589757 
    0.640937     0.378154     0.448822 
    0.517031     0.490939     0.396951 
    0.458481     0.686380     0.410184 
    0.374442     0.391434     0.348179 
    0.323349     0.374164     0.521778 
    0.358756     0.548477     0.431670 
    0.672893     0.489918     0.621174 
    0.479258     0.327377     0.493462 
    0.589583     0.369491     0.604046 
    0.590336     0.624820     0.402873 
EA17466 13.179 14.007 14.287 90.00 90.00 90.00 Sym.group:    0
1.0
   13.178959     0.000000     0.000000
    0.000000    14.006864     0.000000
    0.000000     0.000000    14.286692
   W   B
  11   4
Direct
    0.655859     0.398145     0.450468 
    0.486767     0.321002     0.573911 
    0.660520     0.399831     0.613459 
    0.477999     0.329347     0.405812 
    0.323050     0.417091     0.481948 
    0.338723     0.583392     0.426692 
    0.505280     0.494281     0.525319 
    0.317663     0.560409     0.593077 
    0.492199     0.492762     0.349234 
    0.651808     0.581486     0.403641 
    0.700886     0.560023     0.559468 
    0.384926     0.428009     0.624242 
    0.438518     0.647382     0.537081 
    0.496073     0.638150     0.428493 
    0.569733     0.648691     0.527155 
EA17822 14.920 14.920 14.920 90.00 90.00 90.00 Sym.group:    0
1.0
   14.919869     0.000000     0.000000
    0.000000    14.919869     0.000000
    0.000000     0.000000    14.919869
   W   B
  12   3
Direct
    0.503021     0.500080     0.500063 
    0.595562     0.600956     0.595152 
    0.400149     0.596335     0.404010 
    0.400309     0.403358     0.596014 
    0.595390     0.399259     0.404716 
    0.399323     0.403815     0.404774 
    0.595994     0.398778     0.594660 
    0.595935     0.601453     0.404947 
    0.399623     0.596135     0.595382 
    0.492708     0.500115     0.692025 
    0.492719     0.499924     0.307895 
    0.694383     0.499909     0.499911 
    0.340561     0.499913     0.500162 
    0.497123     0.658219     0.500425 
    0.497201     0.341751     0.499864 
EA18181 14.904 14.517 13.958 90.00 90.00 90.00 Sym.group:    0
1.0
   14.904064     0.000000     0.000000
    0.000000    14.517444     0.000000
    0.000000     0.000000    13.957914
   W   B
  12   3
Direct
    0.499986     0.494307     0.499881 
    0.405178     0.406491     0.613629 
    0.595685     0.607441     0.596954 
    0.403400     0.598954     0.394585 
    0.595231     0.397789     0.393849 
    0.594492     0.599145     0.392174 
    0.404400     0.397040     0.395968 
    0.596187     0.407065     0.611975 
    0.405672     0.607105     0.600749 
    0.308022     0.507401     0.503070 
    0.692039     0.507550     0.496724 
    0.500463     0.301375     0.507517 
    0.499278     0.662370     0.493273 
    0.501045     0.509487     0.668649 
    0.498922     0.496478     0.331001 
EA18497 14.558 13.986 13.421 90.00 90.00 90.00 Sym.group:    0
1.0
   14.558414     0.000000     0.000000
    0.000000    13.986183     0.000000
    0.000000     0.000000    13.420585
   W   B
  12   3
Direct
    0.563786     0.309859     0.399278 
    0.604309     0.436976     0.666067 
    0.417449     0.405086     0.407366 
    0.558724     0.504181     0.368921 
    0.653996     0.600257     0.599474 
    0.501357     0.325796     0.560309 
    0.663080     0.422985     0.498600 
    0.540084     0.668840     0.459213 
    0.489134     0.519030     0.553506 
    0.370902     0.656180     0.532669 
    0.703680     0.594542     0.438249 
    0.401500     0.595416     0.365400 
    0.331419     0.511665     0.482024 
    0.337672     0.527825     0.608038 
    0.362909     0.421362     0.560885 
EA18717 15.286 14.082 14.128 90.00 90.00 90.00 Sym.group:    0
1.0
   15.285985     0.000000     0.000000
    0.000000    14.081835     0.000000
    0.000000     0.000000    14.127872
   W   B
  13   4
Direct
    0.505913     0.496296     0.503982 
    0.374974     0.503094     0.620238 
    0.286055     0.485585     0.474181 
    0.544662     0.502613     0.702754 
    0.471805     0.661613     0.598827 
    0.465100     0.354341     0.631669 
    0.624163     0.601859     0.588514 
    0.494884     0.670651     0.428903 
    0.389548     0.350984     0.478283 
    0.399725     0.527398     0.354886 
    0.581552     0.492319     0.328603 
    0.628865     0.407623     0.601927 
    0.600850     0.356452     0.423306 
    0.382717     0.598549     0.491693 
    0.618662     0.598960     0.430930 
    0.473549     0.396685     0.369491 
    0.656973     0.494977     0.471812 
EA19334 15.243 13.561 12.899 90.00 90.00 90.00 Sym.group:    0
1.0
   15.243191     0.000000     0.000000
    0.000000    13.561280     0.000000
    0.000000     0.000000    12.899114
   W   B
  11   2
Direct
    0.522399     0.552571     0.601915 
    0.684583     0.537572     0.592510 
    0.354873     0.536417     0.651231 
    0.371210     0.604618     0.481266 
    0.636437     0.623160     0.438659 
    0.449946     0.403480     0.528605 
    0.341356     0.471710     0.363531 
    0.572433     0.338745     0.415553 
    0.287770     0.427565     0.530719 
    0.508896     0.509576     0.384466 
    0.617421     0.375395     0.589702 
    0.506990     0.655504     0.472941 
    0.645686     0.463689     0.448901 
EA19395 14.678 14.678 12.753 90.00 90.00 90.00 Sym.group:    0
1.0
   14.678016     0.000000     0.000000
    0.000000    14.678016     0.000000
    0.000000     0.000000    12.753093
   W   B
  13   4
Direct
    0.500157     0.500016     0.483737 
    0.594637     0.588782     0.352561 
    0.588919     0.405569     0.352456 
    0.405473     0.411277     0.352544 
    0.411123     0.594540     0.352511 
    0.505984     0.623188     0.648360 
    0.376587     0.505581     0.648621 
    0.494033     0.376744     0.648334 
    0.623185     0.494258     0.648319 
    0.491205     0.303403     0.473561 
    0.303105     0.508402     0.473832 
    0.508716     0.696681     0.473492 
    0.696897     0.491579     0.473831 
    0.380751     0.391414     0.529417 
    0.608669     0.380673     0.529466 
    0.619242     0.608627     0.529464 
    0.391317     0.619264     0.529494 
EA19784 14.803 14.369 12.867 90.00 90.00 90.00 Sym.group:    0
1.0
   14.802522     0.000000     0.000000
    0.000000    14.368723     0.000000
    0.000000     0.000000    12.866694
   W   B
  11   5
Direct
    0.432726     0.639163     0.620520 
    0.441896     0.644958     0.438135 
    0.318242     0.404850     0.507354 
    0.530978     0.502051     0.554596 
    0.587409     0.677072     0.545989 
    0.683686     0.443740     0.602091 
    0.625846     0.433700     0.392835 
    0.708788     0.563675     0.483034 
    0.587987     0.318736     0.528441 
    0.463406     0.371916     0.404331 
    0.371384     0.475161     0.658712 
    0.341397     0.553429     0.515513 
    0.577529     0.585597     0.407737 
    0.493492     0.514885     0.363033 
    0.450022     0.367212     0.573928 
    0.385213     0.503854     0.403749 
EA20071 15.826 15.001 12.449 90.00 90.00 90.00 Sym.group:    0
1.0
   15.825694     0.000000     0.000000
    0.000000    15.001147     0.000000
    0.000000     0.000000    12.448982
   W   B
  14   3
Direct
    0.426767     0.656824     0.615794 
    0.345568     0.503443     0.607753 
    0.455612     0.359119     0.618547 
    0.622945     0.415281     0.615779 
    0.612523     0.415300     0.403204 
    0.459298     0.368045     0.408045 
    0.357506     0.501949     0.408153 
    0.451039     0.645720     0.403888 
    0.322136     0.360362     0.509627 
    0.569127     0.282856     0.515192 
    0.726165     0.494864     0.497182 
    0.503785     0.510356     0.542615 
    0.617580     0.586848     0.396745 
    0.559324     0.692719     0.531321 
    0.337486     0.623590     0.502133 
    0.497452     0.509378     0.350605 
    0.635686     0.573348     0.573414 
EA20396 14.659 15.278 13.243 90.00 90.00 90.00 Sym.group:    0
1.0
   14.659248     0.000000     0.000000
    0.000000    15.277887     0.000000
    0.000000     0.000000    13.242758
   W   B
  14   4
Direct
    0.483741     0.613411     0.331942 
    0.560724     0.674703     0.488109 
    0.561164     0.308220     0.541620 
    0.603678     0.426924     0.653470 
    0.626745     0.523181     0.373655 
    0.690858     0.568206     0.542896 
    0.445399     0.662190     0.613285 
    0.371273     0.668652     0.444768 
    0.336893     0.525914     0.582212 
    0.424749     0.381044     0.622464 
    0.349955     0.508584     0.400531 
    0.509251     0.508825     0.524358 
    0.428367     0.352690     0.435000 
    0.593118     0.593498     0.679749 
    0.648977     0.424619     0.496403 
    0.568474     0.392968     0.404962 
    0.489330     0.462139     0.349888 
    0.307305     0.404233     0.514688 
EA20942 14.765 13.794 12.360 90.00 90.00 90.00 Sym.group:    0
1.0
   14.764638     0.000000     0.000000
    0.000000    13.794478     0.000000
    0.000000     0.000000    12.359686
   W   B
  12   2
Direct
    0.694547     0.474404     0.388961 
    0.565718     0.597011     0.376919 
    0.373461     0.544985     0.390746 
    0.344232     0.362849     0.407644 
    0.509575     0.427997     0.395471 
    0.483871     0.524607     0.573447 
    0.339529     0.621821     0.557781 
    0.309049     0.439481     0.570950 
    0.452745     0.344828     0.575964 
    0.666105     0.551453     0.561219 
    0.599254     0.424143     0.682288 
    0.639524     0.356904     0.515652 
    0.459366     0.667938     0.472215 
    0.563022     0.661581     0.530744 
EA21369 14.251 14.827 12.050 90.00 90.00 90.00 Sym.group:    0
1.0
   14.251156     0.000000     0.000000
    0.000000    14.826866     0.000000
    0.000000     0.000000    12.050044
   W   B
  11   2
Direct
    0.504351     0.457545     0.377652 
    0.590827     0.365313     0.521580 
    0.678521     0.497547     0.414630 
    0.570096     0.623888     0.421550 
    0.435824     0.302519     0.428368 
    0.506543     0.526315     0.572349 
    0.435121     0.355464     0.609961 
    0.414281     0.692650     0.527051 
    0.375395     0.595637     0.387615 
    0.339089     0.448194     0.479385 
    0.336625     0.574682     0.611883 
    0.659324     0.476995     0.593662 
    0.654002     0.583250     0.554317 
EA21520 14.996 14.996 14.996 90.00 90.00 90.00 Sym.group:    0
1.0
   14.996242     0.000000     0.000000
    0.000000    14.996242     0.000000
    0.000000     0.000000    14.996242
   W   B
  14   1
Direct
    0.500032     0.499559     0.500523 
    0.597508     0.600906     0.597151 
    0.402907     0.600716     0.403105 
    0.402673     0.401871     0.596723 
    0.596902     0.401951     0.402769 
    0.402792     0.401388     0.402864 
    0.597246     0.401214     0.597297 
    0.597650     0.600887     0.402120 
    0.402232     0.600823     0.597777 
    0.500212     0.506896     0.305832 
    0.499966     0.507074     0.693877 
    0.305651     0.506390     0.500494 
    0.693768     0.507088     0.499384 
    0.500265     0.302741     0.500009 
    0.500196     0.660498     0.500076 
EA21804 15.154 14.564 13.089 90.00 90.00 90.00 Sym.group:    0
1.0
   15.154205     0.000000     0.000000
    0.000000    14.564228     0.000000
    0.000000     0.000000    13.089081
   W   B
  15   1
Direct
    0.509256     0.297084     0.433624 
    0.516826     0.472410     0.446216 
    0.660309     0.353249     0.480474 
    0.678997     0.513095     0.391589 
    0.664284     0.626754     0.519702 
    0.550127     0.637253     0.369066 
    0.414043     0.509665     0.590175 
    0.312767     0.661560     0.520145 
    0.481565     0.658125     0.535093 
    0.582905     0.563181     0.663975 
    0.382246     0.583189     0.382323 
    0.562268     0.388057     0.618397 
    0.352061     0.412645     0.409817 
    0.408128     0.332453     0.564881 
    0.259582     0.507801     0.516658 
    0.664635     0.483477     0.557866 
EA22089 14.736 14.977 13.559 90.00 90.00 90.00 Sym.group:    0
1.0
   14.736213     0.000000     0.000000
    0.000000    14.977463     0.000000
    0.000000     0.000000    13.559381
   W   B
  14   4
Direct
    0.611459     0.474902     0.359540 
    0.288629     0.457970     0.566392 
    0.426711     0.428587     0.668999 
    0.599765     0.334145     0.481980 
    0.672489     0.602278     0.459854 
    0.550277     0.651932     0.590256 
    0.422747     0.723457     0.505577 
    0.388916     0.592568     0.620622 
    0.516822     0.633891     0.388434 
    0.510819     0.497057     0.515797 
    0.357197     0.577771     0.434165 
    0.431061     0.329491     0.526536 
    0.606249     0.401529     0.640748 
    0.342103     0.415550     0.403595 
    0.463228     0.494426     0.344213 
    0.651328     0.534084     0.600021 
    0.488931     0.388512     0.385873 
    0.671267     0.461851     0.507398 
EA22507 15.231 14.739 14.221 90.00 90.00 90.00 Sym.group:    0
1.0
   15.230716     0.000000     0.000000
    0.000000    14.739228     0.000000
    0.000000     0.000000    14.221102
   W   B
  14   2
Direct
    0.540277     0.367895     0.642722 
    0.451793     0.492572     0.693270 
    0.582671     0.638094     0.453694 
    0.710558     0.532408     0.457543 
    0.632571     0.514677     0.602720 
    0.591497     0.489913     0.336979 
    0.622574     0.381014     0.462910 
    0.472799     0.310175     0.488349 
    0.496491     0.490152     0.503380 
    0.404915     0.658646     0.457601 
    0.503132     0.645577     0.602866 
    0.331786     0.514679     0.435696 
    0.447202     0.412663     0.346809 
    0.361660     0.414235     0.577361 
    0.378731     0.566474     0.575377 
    0.471345     0.570826     0.362724 
EA22826 15.009 14.376 14.307 90.00 90.00 90.00 Sym.group:    0
1.0
   15.008960     0.000000     0.000000
    0.000000    14.376207     0.000000
    0.000000     0.000000    14.306854
   W   B
  15   1
Direct
    0.502926     0.694824     0.469147 
    0.616835     0.603497     0.382709 
    0.408982     0.383765     0.418745 
    0.287229     0.496789     0.427821 
    0.421804     0.565014     0.362239 
    0.342638     0.451250     0.595557 
    0.363230     0.610934     0.546945 
    0.509084     0.645769     0.629297 
    0.504310     0.504479     0.510659 
    0.597355     0.328310     0.467202 
    0.543219     0.439268     0.332752 
    0.640396     0.421172     0.597545 
    0.487230     0.464983     0.685490 
    0.655279     0.591506     0.542705 
    0.472441     0.330088     0.581558 
    0.647039     0.468351     0.449628 
EA23251 16.067 14.044 13.229 90.00 90.00 90.00 Sym.group:    0
1.0
   16.067213     0.000000     0.000000
    0.000000    14.043946     0.000000
    0.000000     0.000000    13.228555
   W   B
  14   1
Direct
    0.632695     0.560291     0.348640 
    0.602404     0.645609     0.499574 
    0.618976     0.386505     0.404806 
    0.562494     0.403389     0.575252 
    0.712359     0.493443     0.494749 
    0.651192     0.548802     0.643871 
    0.355573     0.595546     0.373583 
    0.422824     0.659785     0.535206 
    0.489526     0.516174     0.428459 
    0.404757     0.489657     0.615780 
    0.468828     0.323727     0.420198 
    0.341015     0.429208     0.449481 
    0.288399     0.580077     0.531851 
    0.426128     0.310241     0.585541 
    0.522829     0.557546     0.593008 
EA23451 15.024 14.657 14.546 90.00 90.00 90.00 Sym.group:    0
1.0
   15.024281     0.000000     0.000000
    0.000000    14.657457     0.000000
    0.000000     0.000000    14.545987
   W   B
  14   4
Direct
    0.608743     0.607710     0.386248 
    0.568877     0.693320     0.525530 
    0.426952     0.628113     0.588637 
    0.292035     0.607080     0.478946 
    0.444141     0.641389     0.408866 
    0.358684     0.481389     0.388585 
    0.505591     0.497972     0.495508 
    0.482658     0.480609     0.692619 
    0.565658     0.326632     0.476547 
    0.620353     0.436226     0.614131 
    0.340010     0.472154     0.563608 
    0.455443     0.342482     0.616023 
    0.676858     0.439882     0.434562 
    0.561295     0.461115     0.321064 
    0.571480     0.579821     0.620962 
    0.646907     0.562244     0.531326 
    0.464655     0.375447     0.379414 
    0.409661     0.366416     0.477421 
EA23812 14.730 14.155 14.219 90.00 90.00 90.00 Sym.group:    0
1.0
   14.730225     0.000000     0.000000
    0.000000    14.154576     0.000000
    0.000000     0.000000    14.218671
   W   B
  13   4
Direct
    0.343948     0.445148     0.423317 
    0.474386     0.510414     0.311062 
    0.521743     0.345561     0.386970 
    0.521218     0.350996     0.603006 
    0.503781     0.496956     0.491706 
    0.329525     0.558344     0.550146 
    0.458761     0.526657     0.666285 
    0.558856     0.662253     0.427731 
    0.651004     0.395651     0.498392 
    0.630750     0.528139     0.356372 
    0.627380     0.497189     0.651007 
    0.580956     0.654370     0.601892 
    0.401154     0.296190     0.490281 
    0.413722     0.606148     0.419293 
    0.383232     0.419447     0.580302 
    0.654283     0.561166     0.507732 
    0.445298     0.645369     0.534509 
EA24399 14.570 13.749 12.349 90.00 90.00 90.00 Sym.group:    0
1.0
   14.570460     0.000000     0.000000
    0.000000    13.749355     0.000000
    0.000000     0.000000    12.349303
   W   B
  11   2
Direct
    0.539428     0.377812     0.591056 
    0.642887     0.547089     0.598323 
    0.527060     0.403124     0.387426 
    0.687605     0.414434     0.494574 
    0.640048     0.542888     0.371080 
    0.399549     0.318090     0.498762 
    0.356806     0.450502     0.376893 
    0.321349     0.594945     0.484665 
    0.365809     0.462757     0.605030 
    0.458952     0.640693     0.578399 
    0.474946     0.592053     0.375337 
    0.583279     0.642066     0.485024 
    0.502283     0.513549     0.653430 
EA24743 14.231 13.603 12.545 90.00 90.00 90.00 Sym.group:    0
1.0
   14.230527     0.000000     0.000000
    0.000000    13.602770     0.000000
    0.000000     0.000000    12.544887
   W   B
  11   2
Direct
    0.474351     0.370939     0.587402 
    0.348312     0.526997     0.593979 
    0.486139     0.401971     0.386048 
    0.320544     0.388239     0.488689 
    0.353100     0.526318     0.370569 
    0.624233     0.331795     0.498694 
    0.654211     0.470377     0.382530 
    0.669415     0.620368     0.489212 
    0.640003     0.479297     0.606173 
    0.523192     0.645684     0.579701 
    0.514643     0.595590     0.379929 
    0.397547     0.631600     0.485223 
    0.494310     0.510828     0.651852 
EA25118 15.289 13.039 12.030 90.00 90.00 90.00 Sym.group:    0
1.0
   15.288721     0.000000     0.000000
    0.000000    13.038791     0.000000
    0.000000     0.000000    12.030173
   W   B
  11   1
Direct
    0.510836     0.484748     0.379798 
    0.333582     0.497931     0.385305 
    0.287924     0.593486     0.540632 
    0.334612     0.432070     0.601189 
    0.510922     0.427339     0.598492 
    0.619818     0.363145     0.455028 
    0.454403     0.591272     0.543461 
    0.611229     0.617970     0.606701 
    0.690154     0.520921     0.429413 
    0.587415     0.660468     0.421433 
    0.404179     0.345909     0.448394 
    0.654926     0.464740     0.590155 
EA25450 14.727 13.243 12.617 90.00 90.00 90.00 Sym.group:    0
1.0
   14.726572     0.000000     0.000000
    0.000000    13.242980     0.000000
    0.000000     0.000000    12.617253
   W   B
  11   1
Direct
    0.540588     0.589820     0.423423 
    0.531026     0.390807     0.438454 
    0.681295     0.480707     0.385301 
    0.678869     0.408006     0.559845 
    0.685640     0.586594     0.537978 
    0.347716     0.599827     0.433654 
    0.351632     0.517576     0.625083 
    0.428450     0.358679     0.590737 
    0.540151     0.503785     0.618332 
    0.444112     0.659824     0.570461 
    0.332588     0.414633     0.451433 
    0.437933     0.489742     0.365299 
EA25793 14.439 13.228 12.518 90.00 90.00 90.00 Sym.group:    0
1.0
   14.439244     0.000000     0.000000
    0.000000    13.228059     0.000000
    0.000000     0.000000    12.517761
   W   B
  11   1
Direct
    0.535831     0.400387     0.429171 
    0.531506     0.603302     0.440936 
    0.687779     0.507310     0.392846 
    0.683550     0.588251     0.560525 
    0.685615     0.412790     0.556124 
    0.337541     0.484109     0.614468 
    0.424468     0.640260     0.594186 
    0.530736     0.493102     0.623113 
    0.436823     0.343275     0.579502 
    0.336269     0.592441     0.439748 
    0.433652     0.505075     0.316963 
    0.376231     0.429698     0.452419 
EA26127 14.792 13.210 12.896 90.00 90.00 90.00 Sym.group:    0
1.0
   14.792077     0.000000     0.000000
    0.000000    13.209898     0.000000
    0.000000     0.000000    12.896241
   W   B
  11   1
Direct
    0.536679     0.619424     0.503566 
    0.669493     0.559540     0.399709 
    0.668069     0.386443     0.520338 
    0.703636     0.548485     0.572795 
    0.343441     0.616184     0.489110 
    0.342431     0.446575     0.603810 
    0.443308     0.332181     0.519456 
    0.536379     0.456540     0.615169 
    0.336528     0.446644     0.416330 
    0.443784     0.582542     0.349239 
    0.543122     0.435169     0.401948 
    0.433130     0.570272     0.608530 
EA26142 15.719 14.454 14.046 90.00 90.00 90.00 Sym.group:    0
1.0
   15.718968     0.000000     0.000000
    0.000000    14.454185     0.000000
    0.000000     0.000000    14.045571
   W   B
  15   5
Direct
    0.458438     0.663440     0.609403 
    0.723322     0.473182     0.609793 
    0.603959     0.583095     0.632242 
    0.584829     0.402049     0.635926 
    0.440603     0.506576     0.672971 
    0.509756     0.508796     0.494229 
    0.315351     0.604292     0.559882 
    0.316550     0.433816     0.590521 
    0.386001     0.358722     0.448806 
    0.678133     0.583375     0.472139 
    0.647278     0.410423     0.463855 
    0.580751     0.602765     0.334733 
    0.396632     0.632203     0.416577 
    0.425807     0.484153     0.329576 
    0.544235     0.701328     0.464811 
    0.450941     0.380559     0.584513 
    0.521267     0.339093     0.504351 
    0.518900     0.374790     0.392191 
    0.561928     0.459179     0.332453 
    0.335320     0.498163     0.451031 
EA26535 13.978 14.028 13.994 90.00 90.00 90.00 Sym.group:    0
1.0
   13.978428     0.000000     0.000000
    0.000000    14.027634     0.000000
    0.000000     0.000000    13.994228
   W   B
  14   2
Direct
    0.567332     0.468849     0.303570 
    0.549758     0.691071     0.489886 
    0.506748     0.490829     0.478961 
    0.618858     0.569347     0.598439 
    0.674450     0.542845     0.406920 
    0.608970     0.343181     0.417086 
    0.390002     0.610095     0.414914 
    0.253402     0.548760     0.528334 
    0.505707     0.501983     0.723890 
    0.444090     0.319601     0.500463 
    0.423216     0.613755     0.595498 
    0.366939     0.437760     0.611384 
    0.563785     0.377460     0.625725 
    0.322781     0.440541     0.422364 
    0.535491     0.609419     0.361113 
    0.668470     0.434502     0.521454 
EA26902 15.216 14.156 13.595 90.00 90.00 90.00 Sym.group:    0
1.0
   15.215669     0.000000     0.000000
    0.000000    14.156064     0.000000
    0.000000     0.000000    13.594948
   W   B
  14   2
Direct
    0.367036     0.617433     0.391052 
    0.477537     0.610246     0.665509 
    0.486500     0.512661     0.477619 
    0.445247     0.439840     0.648755 
    0.328873     0.562349     0.546422 
    0.353268     0.446419     0.370411 
    0.585280     0.656197     0.503934 
    0.724835     0.560816     0.475576 
    0.575510     0.330051     0.621051 
    0.513507     0.397594     0.336286 
    0.608786     0.510166     0.617323 
    0.638441     0.405398     0.462456 
    0.472424     0.316279     0.490035 
    0.622349     0.558995     0.351491 
    0.441075     0.663332     0.521506 
    0.359333     0.412225     0.520576 
EA27391 14.952 14.113 12.685 90.00 90.00 90.00 Sym.group:    0
1.0
   14.951747     0.000000     0.000000
    0.000000    14.113150     0.000000
    0.000000     0.000000    12.684876
   W   B
  13   1
Direct
    0.510587     0.504865     0.456023 
    0.637717     0.368736     0.418878 
    0.560508     0.673321     0.395782 
    0.583313     0.667421     0.571730 
    0.575508     0.329732     0.574407 
    0.406821     0.651021     0.550527 
    0.405083     0.380353     0.589096 
    0.377755     0.589288     0.377970 
    0.475456     0.523911     0.649874 
    0.648310     0.492726     0.601353 
    0.676361     0.544435     0.429737 
    0.355067     0.418387     0.399589 
    0.298320     0.508528     0.547080 
    0.489195     0.347277     0.437952 
EA27800 13.959 13.985 12.903 90.00 90.00 90.00 Sym.group:    0
1.0
   13.959436     0.000000     0.000000
    0.000000    13.984666     0.000000
    0.000000     0.000000    12.902986
   W   B
  11   2
Direct
    0.547244     0.311952     0.474484 
    0.649556     0.468718     0.540822 
    0.538722     0.356096     0.644337 
    0.383792     0.408235     0.549128 
    0.497956     0.537325     0.628055 
    0.618456     0.604130     0.393633 
    0.333933     0.558400     0.413934 
    0.465205     0.664769     0.488548 
    0.641166     0.645304     0.562120 
    0.431140     0.403303     0.369382 
    0.316025     0.573747     0.586778 
    0.494871     0.519449     0.454702 
    0.581933     0.448572     0.394078 
EA28140 14.102 14.114 12.769 90.00 90.00 90.00 Sym.group:    0
1.0
   14.102310     0.000000     0.000000
    0.000000    14.113843     0.000000
    0.000000     0.000000    12.769253
   W   B
  11   2
Direct
    0.675633     0.425999     0.464392 
    0.511152     0.348552     0.539379 
    0.642932     0.440476     0.637827 
    0.610565     0.600593     0.542664 
    0.472833     0.508637     0.629748 
    0.372738     0.400360     0.399631 
    0.462516     0.671222     0.417069 
    0.343172     0.557085     0.497902 
    0.340557     0.381666     0.572067 
    0.599124     0.554826     0.362792 
    0.457291     0.688742     0.591646 
    0.479244     0.508086     0.454583 
    0.532243     0.413756     0.390300 
EA28394 14.977 14.159 12.225 90.00 90.00 90.00 Sym.group:    0
1.0
   14.976921     0.000000     0.000000
    0.000000    14.158684     0.000000
    0.000000     0.000000    12.225126
   W   B
  12   2
Direct
    0.389038     0.615232     0.468538 
    0.305090     0.440546     0.521343 
    0.541729     0.484761     0.612701 
    0.562109     0.346903     0.471717 
    0.524398     0.511322     0.382325 
    0.647434     0.589500     0.503000 
    0.694100     0.420912     0.568663 
    0.519482     0.673199     0.617110 
    0.387251     0.546937     0.645885 
    0.525804     0.698695     0.428754 
    0.421391     0.349010     0.593890 
    0.681745     0.445631     0.380680 
    0.424954     0.391609     0.427221 
    0.375475     0.485743     0.378170 
EA28725 15.066 14.221 12.513 90.00 90.00 90.00 Sym.group:    0
1.0
   15.066172     0.000000     0.000000
    0.000000    14.220906     0.000000
    0.000000     0.000000    12.512860
   W   B
  11   3
Direct
    0.611138     0.614462     0.455717 
    0.462006     0.491077     0.614378 
    0.448029     0.346076     0.498211 
    0.474193     0.503761     0.388138 
    0.346610     0.583414     0.508323 
    0.310458     0.419901     0.590270 
    0.486164     0.676910     0.598226 
    0.625279     0.540540     0.626401 
    0.464261     0.686440     0.417893 
    0.595113     0.372476     0.606289 
    0.319015     0.433969     0.405645 
    0.577413     0.391094     0.433674 
    0.618347     0.483697     0.369420 
    0.661973     0.456184     0.487416 
EA28912 14.214 14.224 13.899 90.00 90.00 90.00 Sym.group:    0
1.0
   14.213678     0.000000     0.000000
    0.000000    14.224089     0.000000
    0.000000     0.000000    13.899145
   W   B
  11   5
Direct
    0.501972     0.486904     0.515579 
    0.612031     0.549111     0.650347 
    0.598031     0.655295     0.517364 
    0.643714     0.400424     0.406592 
    0.641084     0.385720     0.578653 
    0.492391     0.319330     0.478918 
    0.424412     0.521309     0.679998 
    0.479942     0.473139     0.333305 
    0.340779     0.399964     0.434778 
    0.349188     0.572397     0.406961 
    0.418742     0.645093     0.561166 
    0.390468     0.400852     0.586986 
    0.338252     0.505789     0.548212 
    0.668917     0.518759     0.500240 
    0.602769     0.552253     0.398544 
    0.497309     0.613658     0.402356 
EA29343 15.083 14.313 13.796 90.00 90.00 90.00 Sym.group:    0
1.0
   15.083450     0.000000     0.000000
    0.000000    14.313323     0.000000
    0.000000     0.000000    13.796084
   W   B
  12   3
Direct
    0.396958     0.390182     0.415283 
    0.389504     0.589662     0.402877 
    0.419268     0.398301     0.617338 
    0.307180     0.488199     0.525784 
    0.589366     0.394209     0.388359 
    0.691507     0.498344     0.475775 
    0.503603     0.503932     0.498574 
    0.492744     0.702588     0.491513 
    0.578947     0.599957     0.377101 
    0.411916     0.598683     0.613429 
    0.603135     0.604407     0.592404 
    0.608422     0.402219     0.596637 
    0.483525     0.490142     0.331964 
    0.506820     0.335654     0.505325 
    0.517106     0.503523     0.667639 
EA29676 15.342 14.395 12.856 90.00 90.00 90.00 Sym.group:    0
1.0
   15.341876     0.000000     0.000000
    0.000000    14.395329     0.000000
    0.000000     0.000000    12.855895
   W   B
  11   4
Direct
    0.404040     0.356132     0.489972 
    0.460912     0.455354     0.640202 
    0.303084     0.464274     0.564862 
    0.578684     0.358878     0.404771 
    0.635190     0.443621     0.591220 
    0.656232     0.615078     0.510912 
    0.524903     0.703598     0.511072 
    0.697007     0.465818     0.425053 
    0.400602     0.607254     0.572918 
    0.349669     0.525707     0.398907 
    0.518448     0.518769     0.451540 
    0.447648     0.420365     0.353609 
    0.535561     0.345016     0.557309 
    0.552533     0.576264     0.620283 
    0.435489     0.643873     0.407371 
EA30095 15.206 14.596 12.653 90.00 90.00 90.00 Sym.group:    0
1.0
   15.206388     0.000000     0.000000
    0.000000    14.595512     0.000000
    0.000000     0.000000    12.652973
   W   B
  12   2
Direct
    0.521196     0.493844     0.352522 
    0.471105     0.498820     0.544755 
    0.386431     0.601716     0.386114 
    0.576746     0.633785     0.438231 
    0.653998     0.525448     0.589862 
    0.439501     0.688271     0.532352 
    0.694439     0.515109     0.412953 
    0.313494     0.564973     0.543817 
    0.601863     0.380004     0.462773 
    0.477555     0.314131     0.569675 
    0.324251     0.391509     0.539082 
    0.416404     0.363329     0.398508 
    0.548236     0.619181     0.604746 
    0.574781     0.409880     0.624608 
EA30365 15.795 13.754 12.643 90.00 90.00 90.00 Sym.group:    0
1.0
   15.795375     0.000000     0.000000
    0.000000    13.754054     0.000000
    0.000000     0.000000    12.643217
   W   B
  11   4
Direct
    0.344503     0.607387     0.583559 
    0.694644     0.479182     0.471873 
    0.494403     0.623266     0.509940 
    0.462773     0.474664     0.391067 
    0.349245     0.615875     0.398594 
    0.664332     0.645871     0.490970 
    0.478093     0.472134     0.609465 
    0.621891     0.569728     0.647578 
    0.400215     0.339442     0.500409 
    0.292083     0.465203     0.446211 
    0.554011     0.339196     0.488432 
    0.589045     0.552690     0.392075 
    0.597004     0.434673     0.367822 
    0.618194     0.426212     0.600822 
    0.339566     0.454473     0.601182 
EA30756 14.392 14.234 12.391 90.00 90.00 90.00 Sym.group:    0
1.0
   14.392097     0.000000     0.000000
    0.000000    14.234467     0.000000
    0.000000     0.000000    12.391463
   W   B
  13   1
Direct
    0.510658     0.501451     0.453378 
    0.637479     0.382879     0.392459 
    0.660640     0.402792     0.572371 
    0.632464     0.586849     0.599878 
    0.490971     0.473667     0.653325 
    0.481122     0.683622     0.581027 
    0.495036     0.324885     0.559559 
    0.325310     0.382440     0.549129 
    0.351424     0.550971     0.587005 
    0.554677     0.687883     0.419218 
    0.678537     0.555980     0.421892 
    0.436801     0.353809     0.378954 
    0.330936     0.487748     0.396148 
    0.413943     0.625024     0.435660 
EA31106 14.223 14.048 12.487 90.00 90.00 90.00 Sym.group:    0
1.0
   14.222850     0.000000     0.000000
    0.000000    14.048423     0.000000
    0.000000     0.000000    12.487313
   W   B
  11   3
Direct
    0.496192     0.497549     0.449343 
    0.660856     0.413521     0.389358 
    0.706049     0.461647     0.557743 
    0.613662     0.618566     0.583672 
    0.506776     0.482295     0.645760 
    0.428925     0.655140     0.582529 
    0.572664     0.343155     0.551677 
    0.377105     0.367397     0.574765 
    0.482195     0.678544     0.415483 
    0.654817     0.590781     0.405042 
    0.437261     0.333367     0.408283 
    0.361739     0.580768     0.439642 
    0.342399     0.459227     0.437649 
    0.359359     0.518043     0.559053 
EA31418 14.618 14.251 12.423 90.00 90.00 90.00 Sym.group:    0
1.0
   14.618203     0.000000     0.000000
    0.000000    14.250826     0.000000
    0.000000     0.000000    12.422898
   W   B
  11   3
Direct
    0.504729     0.502939     0.448576 
    0.341876     0.581264     0.387864 
    0.297006     0.530850     0.555722 
    0.390431     0.381186     0.580101 
    0.491659     0.516157     0.646704 
    0.571449     0.349273     0.584512 
    0.425451     0.651693     0.549788 
    0.612900     0.634426     0.577719 
    0.523922     0.324665     0.414548 
    0.352742     0.407705     0.400138 
    0.559765     0.666030     0.407781 
    0.638221     0.423538     0.442946 
    0.653799     0.544198     0.441091 
    0.636048     0.486077     0.562511 
EA31684 15.513 13.365 13.212 90.00 90.00 90.00 Sym.group:    0
1.0
   15.513472     0.000000     0.000000
    0.000000    13.364666     0.000000
    0.000000     0.000000    13.211993
   W   B
  13   2
Direct
    0.659152     0.559599     0.624183 
    0.303179     0.478306     0.463277 
    0.500883     0.610525     0.572762 
    0.538686     0.530862     0.400978 
    0.649839     0.652765     0.472801 
    0.327360     0.635152     0.552955 
    0.520876     0.423246     0.576962 
    0.378325     0.498287     0.656071 
    0.709130     0.493300     0.434241 
    0.456689     0.359217     0.414031 
    0.408372     0.646898     0.401904 
    0.359676     0.344588     0.560447 
    0.683258     0.387062     0.574788 
    0.403309     0.495308     0.355411 
    0.601267     0.384885     0.439189 
EA32144 15.344 13.332 13.132 90.00 90.00 90.00 Sym.group:    0
1.0
   15.343892     0.000000     0.000000
    0.000000    13.332253     0.000000
    0.000000     0.000000    13.132213
   W   B
  11   2
Direct
    0.716307     0.491083     0.524715 
    0.491404     0.616388     0.436986 
    0.361582     0.532470     0.365075 
    0.650178     0.642295     0.498108 
    0.325665     0.584351     0.540950 
    0.476591     0.330287     0.542489 
    0.463175     0.627299     0.620288 
    0.390235     0.455618     0.655720 
    0.562501     0.485854     0.578078 
    0.332636     0.395036     0.496462 
    0.493942     0.423757     0.387953 
    0.624641     0.397014     0.447151 
    0.611143     0.518548     0.406028 
EA32490 15.237 13.321 13.154 90.00 90.00 90.00 Sym.group:    0
1.0
   15.237204     0.000000     0.000000
    0.000000    13.320698     0.000000
    0.000000     0.000000    13.153737
   W   B
  11   2
Direct
    0.284177     0.478219     0.448345 
    0.492728     0.599942     0.583821 
    0.622067     0.515078     0.656942 
    0.339658     0.626462     0.508572 
    0.670101     0.607235     0.503318 
    0.547646     0.347498     0.423532 
    0.534226     0.647980     0.411476 
    0.630222     0.501830     0.355346 
    0.443488     0.491680     0.412481 
    0.677905     0.414485     0.507161 
    0.504014     0.401722     0.590011 
    0.374558     0.377638     0.519702 
    0.379208     0.490229     0.579296 
