EA39833 10.809  9.240  9.240 90.00 90.00 90.00 Sym.group:    0
1.0
   10.808704     0.000000     0.000000
    0.000000     9.240000     0.000000
    0.000000     0.000000     9.240000
   W   B
   1   1
Direct
    0.415890     0.500000     0.500000 
    0.584110     0.500000     0.500000 
EA39830 11.092 11.260  9.240 90.00 90.00 90.00 Sym.group:    0
1.0
   11.091516     0.000000     0.000000
    0.000000    11.259851     0.000000
    0.000000     0.000000     9.240000
   W   B
   1   2
Direct
    0.498107     0.398730     0.500000 
    0.429580     0.552113     0.500001 
    0.572313     0.549157     0.499999 
EA38143 11.315 11.374 10.391 90.00 90.00 90.00 Sym.group:    0
1.0
   11.314540     0.000000     0.000000
    0.000000    11.373922     0.000000
    0.000000     0.000000    10.390640
   W   B
   1   3
Direct
    0.398133     0.468424     0.468113 
    0.577229     0.515032     0.465440 
    0.540172     0.404331     0.552613 
    0.484465     0.612211     0.513834 
EA39781 10.729 10.990 11.421 90.00 90.00 90.00 Sym.group:    0
1.0
   10.729030     0.000000     0.000000
    0.000000    10.989675     0.000000
    0.000000     0.000000    11.420721
   W   B
   1   4
Direct
    0.414152     0.606553     0.490207 
    0.418966     0.428304     0.502296 
    0.545065     0.533210     0.586777 
    0.569974     0.410844     0.507836 
    0.551841     0.521089     0.412885 
EA39715 10.834 11.047 12.228 90.00 90.00 90.00 Sym.group:    0
1.0
   10.834184     0.000000     0.000000
    0.000000    11.047460     0.000000
    0.000000     0.000000    12.228040
   W   B
   1   5
Direct
    0.329710     0.520127     0.508192 
    0.494632     0.535296     0.576278 
    0.458276     0.396410     0.490991 
    0.487126     0.557758     0.433943 
    0.604901     0.425569     0.491128 
    0.625356     0.564840     0.499468 
EA39831 11.102 10.955  9.240 90.00 90.00 90.00 Sym.group:    0
1.0
   11.102091     0.000000     0.000000
    0.000000    10.955455     0.000000
    0.000000     0.000000     9.240000
   W   B
   2   1
Direct
    0.457717     0.598982     0.500000 
    0.605896     0.488607     0.500000 
    0.436387     0.412411     0.500000 
EA39816 11.976 11.637 10.095 90.00 90.00 90.00 Sym.group:    0
1.0
   11.976316     0.000000     0.000000
    0.000000    11.637010     0.000000
    0.000000     0.000000    10.094527
   W   B
   2   2
Direct
    0.552393     0.420561     0.537463 
    0.446582     0.578226     0.538468 
    0.602730     0.572179     0.466237 
    0.398294     0.429033     0.457833 
EA4001 11.295 11.162 11.296 90.00 90.00 90.00 Sym.group:    0
1.0
   11.295223     0.000000     0.000000
    0.000000    11.162202     0.000000
    0.000000     0.000000    11.296373
   W   B
   2   3
Direct
    0.581252     0.579825     0.463780 
    0.416988     0.448989     0.431519 
    0.415732     0.598891     0.535330 
    0.501704     0.475649     0.589810 
    0.584324     0.396647     0.479561 
EA39716 12.422 11.111 11.179 90.00 90.00 90.00 Sym.group:    0
1.0
   12.421941     0.000000     0.000000
    0.000000    11.111184     0.000000
    0.000000     0.000000    11.179275
   W   B
   2   4
Direct
    0.493290     0.383216     0.458390 
    0.500003     0.499259     0.622599 
    0.634286     0.471709     0.512727 
    0.363777     0.491059     0.513754 
    0.442114     0.581018     0.445387 
    0.566529     0.573739     0.447143 
EA39610 12.008 11.907 11.695 90.00 90.00 90.00 Sym.group:    0
1.0
   12.008368     0.000000     0.000000
    0.000000    11.907412     0.000000
    0.000000     0.000000    11.694990
   W   B
   2   5
Direct
    0.469815     0.575502     0.593495 
    0.367260     0.545706     0.440738 
    0.518186     0.451485     0.441401 
    0.538207     0.590521     0.414959 
    0.621769     0.519218     0.501679 
    0.559545     0.415132     0.569635 
    0.425217     0.402436     0.538095 
EA36777 12.317 12.317  9.433 90.00 90.00 90.00 Sym.group:    0
1.0
   12.316594     0.000000     0.000000
    0.000000    12.316594     0.000000
    0.000000     0.000000     9.433296
   W   B
   3   1
Direct
    0.552499     0.591317     0.496042 
    0.615935     0.426645     0.499649 
    0.440377     0.413113     0.502809 
    0.391188     0.568925     0.501500 
EA39782 12.320 11.797 11.272 90.00 90.00 90.00 Sym.group:    0
1.0
   12.320385     0.000000     0.000000
    0.000000    11.796508     0.000000
    0.000000     0.000000    11.272335
   W   B
   3   2
Direct
    0.507513     0.610961     0.543215 
    0.490785     0.510970     0.377087 
    0.636637     0.468933     0.504134 
    0.486595     0.417811     0.554705 
    0.378469     0.491325     0.520857 
EA27521 12.131 11.906 10.926 90.00 90.00 90.00 Sym.group:    0
1.0
   12.131326     0.000000     0.000000
    0.000000    11.906090     0.000000
    0.000000     0.000000    10.925956
   W   B
   3   3
Direct
    0.593628     0.595823     0.467850 
    0.501808     0.437953     0.388208 
    0.493638     0.510985     0.629718 
    0.424337     0.583957     0.468205 
    0.611072     0.421333     0.532354 
    0.375518     0.449947     0.513666 
EA30478 11.853 12.254 11.207 90.00 90.00 90.00 Sym.group:    0
1.0
   11.852977     0.000000     0.000000
    0.000000    12.254082     0.000000
    0.000000     0.000000    11.207210
   W   B
   3   4
Direct
    0.485741     0.518812     0.375883 
    0.361751     0.572645     0.529413 
    0.571579     0.365982     0.463382 
    0.629571     0.524875     0.504758 
    0.533702     0.619657     0.533509 
    0.407101     0.408423     0.514623 
    0.510555     0.489605     0.578433 
EA39540 12.153 11.975 11.613 90.00 90.00 90.00 Sym.group:    0
1.0
   12.153396     0.000000     0.000000
    0.000000    11.974553     0.000000
    0.000000     0.000000    11.613140
   W   B
   3   5
Direct
    0.430318     0.391216     0.583813 
    0.403003     0.616560     0.510087 
    0.540649     0.543194     0.624559 
    0.349919     0.464504     0.447314 
    0.494717     0.477844     0.431614 
    0.586597     0.393106     0.511537 
    0.558886     0.610640     0.439032 
    0.635910     0.502935     0.452045 
EA18180 11.905 11.647 11.462 90.00 90.00 90.00 Sym.group:    0
1.0
   11.904899     0.000000     0.000000
    0.000000    11.646604     0.000000
    0.000000     0.000000    11.461860
   W   B
   4   1
Direct
    0.509411     0.387808     0.437483 
    0.635458     0.534834     0.438833 
    0.508700     0.468979     0.621986 
    0.477688     0.626606     0.501110 
    0.368741     0.481773     0.500588 
EA39717 12.701 11.990 12.048 90.00 90.00 90.00 Sym.group:    0
1.0
   12.701009     0.000000     0.000000
    0.000000    11.990328     0.000000
    0.000000     0.000000    12.047817
   W   B
   4   2
Direct
    0.509715     0.469814     0.384883 
    0.351912     0.533341     0.467221 
    0.599477     0.422929     0.552381 
    0.491481     0.581930     0.586752 
    0.609269     0.583160     0.465424 
    0.438146     0.408826     0.543338 
EA15956 12.942 11.393 11.443 90.00 90.00 90.00 Sym.group:    0
1.0
   12.941865     0.000000     0.000000
    0.000000    11.392896     0.000000
    0.000000     0.000000    11.442767
   W   B
   4   3
Direct
    0.616002     0.499970     0.500040 
    0.383837     0.499288     0.499420 
    0.499796     0.665599     0.524931 
    0.499634     0.502252     0.666458 
    0.500145     0.368083     0.537095 
    0.500462     0.409686     0.396723 
    0.500123     0.555122     0.375332 
EA39541 12.841 12.442 12.361 90.00 90.00 90.00 Sym.group:    0
1.0
   12.840705     0.000000     0.000000
    0.000000    12.442285     0.000000
    0.000000     0.000000    12.361138
   W   B
   4   4
Direct
    0.337283     0.465647     0.523310 
    0.473131     0.395948     0.417454 
    0.488887     0.469465     0.631978 
    0.436872     0.613327     0.465060 
    0.549938     0.612207     0.581561 
    0.535821     0.535919     0.361250 
    0.587999     0.388332     0.532165 
    0.590069     0.519154     0.487224 
EA39511 12.566 12.876 11.469 90.00 90.00 90.00 Sym.group:    0
1.0
   12.565944     0.000000     0.000000
    0.000000    12.875501     0.000000
    0.000000     0.000000    11.468785
   W   B
   4   5
Direct
    0.407218     0.503807     0.375981 
    0.470083     0.351104     0.488527 
    0.594910     0.486389     0.380306 
    0.530154     0.647417     0.475153 
    0.390744     0.586157     0.540896 
    0.368712     0.460893     0.555425 
    0.499447     0.502866     0.575314 
    0.630165     0.543899     0.555553 
    0.608569     0.417467     0.552844 
EA39718 12.097 12.567 11.890 90.00 90.00 90.00 Sym.group:    0
1.0
   12.096782     0.000000     0.000000
    0.000000    12.566687     0.000000
    0.000000     0.000000    11.889856
   W   B
   5   1
Direct
    0.530469     0.495051     0.639250 
    0.479110     0.633263     0.499450 
    0.638102     0.528857     0.468589 
    0.531515     0.370512     0.480341 
    0.432239     0.495662     0.372654 
    0.388566     0.476653     0.539716 
EA10234 12.531 12.381 12.204 90.00 90.00 90.00 Sym.group:    0
1.0
   12.530513     0.000000     0.000000
    0.000000    12.380697     0.000000
    0.000000     0.000000    12.203524
   W   B
   5   2
Direct
    0.387921     0.446741     0.565445 
    0.617831     0.598613     0.461756 
    0.499215     0.479965     0.368037 
    0.375810     0.591116     0.466684 
    0.616090     0.454133     0.562059 
    0.499169     0.574842     0.594818 
    0.503964     0.354591     0.481201 
EA39542 11.625 12.018 11.715 90.00 90.00 90.00 Sym.group:    0
1.0
   11.625047     0.000000     0.000000
    0.000000    12.017627     0.000000
    0.000000     0.000000    11.715460
   W   B
   5   3
Direct
    0.572484     0.554496     0.621787 
    0.443417     0.639727     0.491750 
    0.419399     0.416321     0.401666 
    0.578752     0.542208     0.376856 
    0.415435     0.424094     0.600845 
    0.308581     0.527151     0.495402 
    0.687702     0.489306     0.505331 
    0.574230     0.406698     0.506362 
EA39512 12.691 12.058 12.649 90.00 90.00 90.00 Sym.group:    0
1.0
   12.691324     0.000000     0.000000
    0.000000    12.057540     0.000000
    0.000000     0.000000    12.649298
   W   B
   5   4
Direct
    0.396093     0.400713     0.436083 
    0.398484     0.598599     0.438874 
    0.647981     0.486746     0.549666 
    0.545469     0.515538     0.356689 
    0.580883     0.658617     0.493273 
    0.495337     0.560184     0.597466 
    0.555526     0.374703     0.467603 
    0.496092     0.415283     0.583343 
    0.384136     0.489616     0.577004 
EA39500 12.969 13.026 12.158 90.00 90.00 90.00 Sym.group:    0
1.0
   12.969171     0.000000     0.000000
    0.000000    13.026047     0.000000
    0.000000     0.000000    12.157743
   W   B
   5   5
Direct
    0.436831     0.364520     0.486517 
    0.416578     0.498974     0.364204 
    0.557811     0.612684     0.408597 
    0.575637     0.591386     0.596874 
    0.578875     0.410599     0.600984 
    0.421954     0.600116     0.520906 
    0.663423     0.502545     0.478546 
    0.437507     0.491412     0.610558 
    0.575032     0.427277     0.417519 
    0.336351     0.500488     0.515295 
