EA7    13.213 12.323 10.645 90.00 90.00 90.00 Sym.group:    0
1.0
   13.213199     0.000000     0.000000
    0.000000    12.322961     0.000000
    0.000000     0.000000    10.645373
   W   B
   5   5
Direct
    0.320432     0.504297     0.509072 
    0.663057     0.514805     0.528852 
    0.582011     0.639462     0.414526 
    0.560440     0.337089     0.562025 
    0.425147     0.362354     0.420665 
    0.458928     0.585733     0.554701 
    0.425038     0.589266     0.403271 
    0.416415     0.412102     0.621012 
    0.580642     0.417693     0.383112 
    0.567890     0.637199     0.602763 
EA534  11.982 11.686 11.319 90.00 90.00 90.00 Sym.group:    0
1.0
   11.981705     0.000000     0.000000
    0.000000    11.685965     0.000000
    0.000000     0.000000    11.318849
   W   B
   4   2
Direct
    0.607561     0.409947     0.509662 
    0.414525     0.391126     0.477845 
    0.393302     0.587193     0.524983 
    0.585180     0.611640     0.488073 
    0.497045     0.507726     0.374537 
    0.502388     0.492367     0.624899 
EA691  11.812 12.077 12.041 90.00 90.00 90.00 Sym.group:    0
1.0
   11.811810     0.000000     0.000000
    0.000000    12.076890     0.000000
    0.000000     0.000000    12.041076
   W   B
   5   5
Direct
    0.413456     0.366170     0.598033 
    0.582685     0.438590     0.645149 
    0.431347     0.568957     0.660120 
    0.579936     0.653100     0.553172 
    0.409633     0.660295     0.468567 
    0.559337     0.593753     0.386945 
    0.445042     0.512854     0.367655 
    0.575582     0.460024     0.409855 
    0.443548     0.394015     0.419273 
    0.559435     0.352243     0.491230 
EA1095 12.558 11.231 11.873 90.00 90.00 90.00 Sym.group:    0
1.0
   12.558479     0.000000     0.000000
    0.000000    11.230983     0.000000
    0.000000     0.000000    11.873004
   W   B
   3   4
Direct
    0.456651     0.612781     0.455919 
    0.367646     0.459609     0.558143 
    0.549382     0.394840     0.551213 
    0.444724     0.424344     0.407660 
    0.567165     0.485701     0.395977 
    0.608119     0.563587     0.514685 
    0.506313     0.559137     0.616403 
EA1460 12.260 11.688 11.857 90.00 90.00 90.00 Sym.group:    0
1.0
   12.259980     0.000000     0.000000
    0.000000    11.687690     0.000000
    0.000000     0.000000    11.857114
   W   B
   4   3
Direct
    0.499691     0.499695     0.374083 
    0.350389     0.546486     0.500926 
    0.501201     0.500690     0.626091 
    0.432311     0.353236     0.501806 
    0.596463     0.411937     0.499666 
    0.616862     0.553906     0.498490 
    0.503082     0.634050     0.498938 
EA1721 11.516 12.804 12.130 90.00 90.00 90.00 Sym.group:    0
1.0
   11.515882     0.000000     0.000000
    0.000000    12.803689     0.000000
    0.000000     0.000000    12.130363
   W   B
   3   5
Direct
    0.534397     0.461588     0.641310 
    0.412470     0.584819     0.560361 
    0.595124     0.611461     0.482390 
    0.407849     0.408398     0.534229 
    0.389323     0.461314     0.415807 
    0.662462     0.468040     0.523490 
    0.532255     0.444151     0.461742 
    0.466120     0.560228     0.380672 
EA2040 14.679 12.556 12.018 90.00 90.00 90.00 Sym.group:    0
1.0
   14.679279     0.000000     0.000000
    0.000000    12.556434     0.000000
    0.000000     0.000000    12.018278
   W   B
   5   5
Direct
    0.341717     0.591826     0.554292 
    0.545266     0.496564     0.379767 
    0.611735     0.633126     0.488064 
    0.684645     0.458662     0.507173 
    0.551710     0.500243     0.615031 
    0.570055     0.364296     0.496514 
    0.467024     0.611007     0.471292 
    0.460872     0.396534     0.502179 
    0.402820     0.507554     0.430201 
    0.364157     0.440188     0.555489 
EA2540 10.841 11.059 12.232 90.00 90.00 90.00 Sym.group:    0
1.0
   10.840769     0.000000     0.000000
    0.000000    11.058883     0.000000
    0.000000     0.000000    12.231742
   W   B
   1   5
Direct
    0.670924     0.482012     0.512712 
    0.376826     0.456777     0.524666 
    0.512336     0.393533     0.521649 
    0.513380     0.550844     0.561026 
    0.393603     0.577940     0.461442 
    0.532931     0.538894     0.418504 
EA2723 11.818 12.106 12.425 90.00 90.00 90.00 Sym.group:    0
1.0
   11.817503     0.000000     0.000000
    0.000000    12.105740     0.000000
    0.000000     0.000000    12.424868
   W   B
   5   4
Direct
    0.574808     0.382175     0.576520 
    0.404704     0.462826     0.639266 
    0.539052     0.603340     0.619439 
    0.594395     0.425566     0.387270 
    0.350923     0.577122     0.491827 
    0.642753     0.538414     0.501486 
    0.426548     0.412243     0.471413 
    0.441991     0.505751     0.368641 
    0.524827     0.592563     0.444137 
EA3220 11.294 11.892 12.350 90.00 90.00 90.00 Sym.group:    0
1.0
   11.294094     0.000000     0.000000
    0.000000    11.891629     0.000000
    0.000000     0.000000    12.350050
   W   B
   2   4
Direct
    0.515176     0.453360     0.601124 
    0.561679     0.599129     0.494211 
    0.632228     0.439151     0.469972 
    0.504732     0.433928     0.415819 
    0.392199     0.578428     0.560285 
    0.393986     0.496003     0.458587 
EA3479 12.725 12.151 12.488 90.00 90.00 90.00 Sym.group:    0
1.0
   12.725407     0.000000     0.000000
    0.000000    12.151121     0.000000
    0.000000     0.000000    12.487889
   W   B
   4   3
Direct
    0.385809     0.400248     0.496179 
    0.387017     0.601151     0.508165 
    0.499161     0.509069     0.377425 
    0.503048     0.491172     0.621930 
    0.550849     0.383817     0.491404 
    0.552643     0.615481     0.506895 
    0.621473     0.499061     0.498003 
EA3744 12.338 12.227 12.545 90.00 90.00 90.00 Sym.group:    0
1.0
   12.338150     0.000000     0.000000
    0.000000    12.227467     0.000000
    0.000000     0.000000    12.544829
   W   B
   4   5
Direct
    0.457482     0.587633     0.373867 
    0.455806     0.486155     0.643412 
    0.365652     0.439812     0.457840 
    0.631653     0.449634     0.574017 
    0.535639     0.436553     0.423778 
    0.537803     0.593972     0.535504 
    0.614668     0.548282     0.434614 
    0.402067     0.601070     0.529991 
    0.499230     0.356888     0.526980 
EA4106 12.256 12.225 12.043 90.00 90.00 90.00 Sym.group:    0
1.0
   12.256403     0.000000     0.000000
    0.000000    12.224899     0.000000
    0.000000     0.000000    12.043098
   W   B
   3   5
Direct
    0.412690     0.620632     0.486095 
    0.540028     0.557925     0.613944 
    0.419916     0.413670     0.593944 
    0.569140     0.593033     0.428030 
    0.576067     0.392136     0.531268 
    0.350938     0.468552     0.448209 
    0.495159     0.468927     0.438260 
    0.636060     0.485126     0.460250 
EA4503 13.020 12.571 11.342 90.00 90.00 90.00 Sym.group:    0
1.0
   13.019696     0.000000     0.000000
    0.000000    12.571482     0.000000
    0.000000     0.000000    11.341686
   W   B
   5   2
Direct
    0.625084     0.470894     0.544600 
    0.364385     0.567261     0.487236 
    0.489660     0.496946     0.357992 
    0.591951     0.619288     0.465724 
    0.406413     0.418550     0.573826 
    0.497509     0.561807     0.614258 
    0.524999     0.365255     0.456365 
EA4756 12.812 12.496 12.281 90.00 90.00 90.00 Sym.group:    0
1.0
   12.811828     0.000000     0.000000
    0.000000    12.495538     0.000000
    0.000000     0.000000    12.281156
   W   B
   5   4
Direct
    0.372301     0.589848     0.509826 
    0.635453     0.497541     0.573821 
    0.554838     0.359597     0.469958 
    0.363024     0.411700     0.447230 
    0.455818     0.415402     0.621230 
    0.605209     0.515711     0.407996 
    0.476249     0.515829     0.387231 
    0.534774     0.609076     0.474290 
    0.502334     0.585297     0.608418 
EA5095 13.041 12.454 12.217 90.00 90.00 90.00 Sym.group:    0
1.0
   13.041315     0.000000     0.000000
    0.000000    12.454169     0.000000
    0.000000     0.000000    12.216631
   W   B
   5   4
Direct
    0.406827     0.375112     0.481810 
    0.629558     0.527097     0.576153 
    0.510167     0.653326     0.506324 
    0.343249     0.551101     0.465216 
    0.439600     0.538145     0.637890 
    0.599624     0.538153     0.409364 
    0.478108     0.504699     0.386261 
    0.563061     0.414762     0.450426 
    0.529807     0.397606     0.586558 
EA5732 11.860 10.420 11.106 90.00 90.00 90.00 Sym.group:    0
1.0
   11.859555     0.000000     0.000000
    0.000000    10.420275     0.000000
    0.000000     0.000000    11.106338
   W   B
   1   3
Direct
    0.504052     0.618459     0.479337 
    0.495557     0.416114     0.464179 
    0.395126     0.487833     0.532041 
    0.605266     0.477594     0.524443 
EA5917 11.453 11.745 11.928 90.00 90.00 90.00 Sym.group:    0
1.0
   11.452766     0.000000     0.000000
    0.000000    11.745423     0.000000
    0.000000     0.000000    11.927635
   W   B
   2   4
Direct
    0.527652     0.524233     0.609874 
    0.586982     0.438124     0.453384 
    0.453732     0.371089     0.552413 
    0.585350     0.615726     0.464773 
    0.451274     0.582876     0.445325 
    0.395011     0.467953     0.474230 
EA6221 10.998 11.426 11.628 90.00 90.00 90.00 Sym.group:    0
1.0
   10.997557     0.000000     0.000000
    0.000000    11.425806     0.000000
    0.000000     0.000000    11.627975
   W   B
   1   5
Direct
    0.340756     0.553471     0.502056 
    0.586279     0.420264     0.467103 
    0.633118     0.525334     0.538520 
    0.514439     0.583013     0.463050 
    0.484413     0.494337     0.584546 
    0.440995     0.423580     0.444723 
EA6744 11.632 11.671  9.413 90.00 90.00 90.00 Sym.group:    0
1.0
   11.632494     0.000000     0.000000
    0.000000    11.671477     0.000000
    0.000000     0.000000     9.413097
   W   B
   1   3
Direct
    0.403354     0.444919     0.516473 
    0.572180     0.541946     0.529127 
    0.565658     0.413307     0.481043 
    0.458808     0.599827     0.473358 
EA6948 11.831 11.022 11.098 90.00 90.00 90.00 Sym.group:    0
1.0
   11.831367     0.000000     0.000000
    0.000000    11.022159     0.000000
    0.000000     0.000000    11.097802
   W   B
   1   5
Direct
    0.599232     0.598191     0.521240 
    0.473011     0.505385     0.601639 
    0.373006     0.459854     0.512218 
    0.623612     0.439469     0.445098 
    0.492277     0.419299     0.456715 
    0.438862     0.577802     0.463092 
EA7276 12.680 11.554 10.875 90.00 90.00 90.00 Sym.group:    0
1.0
   12.680224     0.000000     0.000000
    0.000000    11.554323     0.000000
    0.000000     0.000000    10.875074
   W   B
   2   4
Direct
    0.521975     0.392395     0.448272 
    0.476063     0.482742     0.622785 
    0.368339     0.474005     0.489445 
    0.560190     0.590066     0.474813 
    0.442185     0.570255     0.431006 
    0.631248     0.490536     0.533679 
EA7441 12.874 13.003 11.527 90.00 90.00 90.00 Sym.group:    0
1.0
   12.874337     0.000000     0.000000
    0.000000    13.003217     0.000000
    0.000000     0.000000    11.526601
   W   B
   4   5
Direct
    0.423931     0.525087     0.368854 
    0.602469     0.483658     0.391838 
    0.542517     0.644369     0.492265 
    0.460279     0.357406     0.468813 
    0.397914     0.590698     0.539936 
    0.492441     0.497189     0.574736 
    0.591490     0.405218     0.557722 
    0.624444     0.527488     0.571410 
    0.364516     0.468888     0.534425 
EA7899 12.490 11.378 10.722 90.00 90.00 90.00 Sym.group:    0
1.0
   12.490265     0.000000     0.000000
    0.000000    11.378063     0.000000
    0.000000     0.000000    10.721993
   W   B
   1   5
Direct
    0.364781     0.566099     0.511231 
    0.436723     0.422158     0.454914 
    0.563824     0.405294     0.472279 
    0.515965     0.584666     0.453601 
    0.622612     0.517679     0.517564 
    0.496096     0.504105     0.590412 
EA8430 11.597 11.048 10.666 90.00 90.00 90.00 Sym.group:    0
1.0
   11.596572     0.000000     0.000000
    0.000000    11.047520     0.000000
    0.000000     0.000000    10.666029
   W   B
   1   3
Direct
    0.461318     0.391851     0.488566 
    0.527169     0.576985     0.459699 
    0.607932     0.474975     0.523977 
    0.403582     0.556189     0.527758 
EA8592 11.699 11.647 11.262 90.00 90.00 90.00 Sym.group:    0
1.0
   11.699489     0.000000     0.000000
    0.000000    11.647170     0.000000
    0.000000     0.000000    11.261973
   W   B
   1   5
Direct
    0.609920     0.391306     0.538377 
    0.471405     0.431583     0.443666 
    0.370134     0.524739     0.487006 
    0.483657     0.493186     0.585609 
    0.594133     0.550646     0.483009 
    0.470751     0.608539     0.462332 
EA9118 11.092 11.260  9.240 90.00 90.00 90.00 Sym.group:    0
1.0
   11.091516     0.000000     0.000000
    0.000000    11.259851     0.000000
    0.000000     0.000000     9.240000
   W   B
   1   2
Direct
    0.498107     0.398730     0.500000 
    0.429580     0.552113     0.500001 
    0.572313     0.549157     0.499999 
EA9247 11.868 11.125 11.467 90.00 90.00 90.00 Sym.group:    0
1.0
   11.867689     0.000000     0.000000
    0.000000    11.124561     0.000000
    0.000000     0.000000    11.466566
   W   B
   1   5
Direct
    0.547874     0.376351     0.457716 
    0.428322     0.501326     0.422272 
    0.436980     0.452095     0.571061 
    0.536435     0.573358     0.524163 
    0.399533     0.585337     0.532645 
    0.650855     0.511533     0.492141 
EA9463 12.836 12.746 12.366 90.00 90.00 90.00 Sym.group:    0
1.0
   12.836451     0.000000     0.000000
    0.000000    12.745872     0.000000
    0.000000     0.000000    12.365663
   W   B
   5   5
Direct
    0.428132     0.450265     0.384062 
    0.426401     0.434027     0.602202 
    0.417471     0.624444     0.509426 
    0.285081     0.497044     0.498294 
    0.637086     0.586018     0.531906 
    0.595823     0.466217     0.416338 
    0.631405     0.428287     0.542176 
    0.531642     0.366869     0.485717 
    0.513840     0.568922     0.635649 
    0.533119     0.577909     0.394230 
EA9803 13.742 12.250 12.454 90.00 90.00 90.00 Sym.group:    0
1.0
   13.742400     0.000000     0.000000
    0.000000    12.249815     0.000000
    0.000000     0.000000    12.453810
   W   B
   5   5
Direct
    0.427943     0.411718     0.413377 
    0.433884     0.475715     0.622253 
    0.423886     0.626777     0.464342 
    0.298869     0.503404     0.506151 
    0.632537     0.589070     0.492818 
    0.585436     0.433937     0.432426 
    0.624441     0.440443     0.562526 
    0.526908     0.366047     0.537124 
    0.517634     0.616402     0.595839 
    0.528463     0.536488     0.373143 
EA10275 11.114 11.437 11.819 90.00 90.00 90.00 Sym.group:    0
1.0
   11.113832     0.000000     0.000000
    0.000000    11.436522     0.000000
    0.000000     0.000000    11.818846
   W   B
   2   4
Direct
    0.482524     0.389393     0.541816 
    0.517386     0.493259     0.383706 
    0.651473     0.473529     0.499861 
    0.567403     0.567104     0.561834 
    0.349588     0.491034     0.476671 
    0.431624     0.585681     0.536113 
EA10666 12.625 11.974 11.143 90.00 90.00 90.00 Sym.group:    0
1.0
   12.625205     0.000000     0.000000
    0.000000    11.973661     0.000000
    0.000000     0.000000    11.142517
   W   B
   1   5
Direct
    0.491349     0.489440     0.381799 
    0.388578     0.573229     0.494395 
    0.416988     0.438112     0.527556 
    0.586809     0.491829     0.562426 
    0.478332     0.553807     0.590761 
    0.637945     0.453583     0.443063 
EA11088 12.276 11.385 11.166 90.00 90.00 90.00 Sym.group:    0
1.0
   12.276298     0.000000     0.000000
    0.000000    11.385170     0.000000
    0.000000     0.000000    11.165829
   W   B
   3   2
Direct
    0.518874     0.620753     0.517562 
    0.373066     0.485057     0.568883 
    0.458565     0.484344     0.385752 
    0.618115     0.478678     0.462128 
    0.531381     0.431170     0.565675 
EA11289 11.255 11.995 11.224 90.00 90.00 90.00 Sym.group:    0
1.0
   11.254555     0.000000     0.000000
    0.000000    11.995211     0.000000
    0.000000     0.000000    11.223812
   W   B
   2   4
Direct
    0.493419     0.510698     0.621897 
    0.541124     0.396477     0.470217 
    0.647036     0.530441     0.518038 
    0.540897     0.582470     0.438871 
    0.367552     0.436702     0.512281 
    0.409972     0.543213     0.438695 
EA11492 12.461 12.353 12.685 90.00 90.00 90.00 Sym.group:    0
1.0
   12.460505     0.000000     0.000000
    0.000000    12.352754     0.000000
    0.000000     0.000000    12.685426
   W   B
   5   4
Direct
    0.516435     0.354856     0.449357 
    0.534123     0.453421     0.645545 
    0.669042     0.461925     0.515758 
    0.555257     0.519576     0.360765 
    0.372764     0.496946     0.409745 
    0.427894     0.563704     0.566553 
    0.397765     0.428366     0.557655 
    0.463962     0.631057     0.457502 
    0.562758     0.590148     0.537121 
EA11992 11.736 11.401 11.937 90.00 90.00 90.00 Sym.group:    0
1.0
   11.735877     0.000000     0.000000
    0.000000    11.400838     0.000000
    0.000000     0.000000    11.937426
   W   B
   1   5
Direct
    0.635170     0.420500     0.484589 
    0.444646     0.600033     0.522517 
    0.580127     0.580052     0.512247 
    0.485379     0.437329     0.563389 
    0.367814     0.490231     0.498483 
    0.486865     0.471854     0.418774 
EA12172 13.049 13.059 12.338 90.00 90.00 90.00 Sym.group:    0
1.0
   13.049160     0.000000     0.000000
    0.000000    13.058639     0.000000
    0.000000     0.000000    12.338262
   W   B
   5   4
Direct
    0.511675     0.589682     0.378749 
    0.585579     0.413116     0.407345 
    0.403378     0.444767     0.399607 
    0.366489     0.600155     0.511163 
    0.525057     0.614413     0.603127 
    0.431387     0.472991     0.587001 
    0.484835     0.368557     0.532563 
    0.566131     0.455111     0.582354 
    0.625467     0.541207     0.498090 
EA12579 12.055 11.938 11.665 90.00 90.00 90.00 Sym.group:    0
1.0
   12.054504     0.000000     0.000000
    0.000000    11.937962     0.000000
    0.000000     0.000000    11.665052
   W   B
   2   5
Direct
    0.600970     0.612953     0.482566 
    0.506864     0.527320     0.622019 
    0.379506     0.466261     0.496630 
    0.419974     0.596431     0.470883 
    0.494609     0.482101     0.422537 
    0.611702     0.435566     0.485184 
    0.486374     0.379370     0.520181 
EA12838 13.779 12.774 12.027 90.00 90.00 90.00 Sym.group:    0
1.0
   13.779279     0.000000     0.000000
    0.000000    12.774416     0.000000
    0.000000     0.000000    12.026644
   W   B
   5   5
Direct
    0.560724     0.368459     0.427686 
    0.402755     0.382505     0.521505 
    0.347593     0.552260     0.510269 
    0.548667     0.611460     0.575469 
    0.669608     0.496412     0.515651 
    0.452464     0.487942     0.390848 
    0.444432     0.502680     0.639370 
    0.565378     0.545765     0.400597 
    0.543315     0.437513     0.593649 
    0.465066     0.615005     0.424955 
EA13496 11.792 11.969  9.296 90.00 90.00 90.00 Sym.group:    0
1.0
   11.791936     0.000000     0.000000
    0.000000    11.969331     0.000000
    0.000000     0.000000     9.296209
   W   B
   2   2
Direct
    0.594334     0.505746     0.540567 
    0.405052     0.494149     0.539951 
    0.506735     0.376844     0.459816 
    0.493879     0.623261     0.459666 
EA13674 11.985 12.622 11.278 90.00 90.00 90.00 Sym.group:    0
1.0
   11.985179     0.000000     0.000000
    0.000000    12.621661     0.000000
    0.000000     0.000000    11.277928
   W   B
   4   2
Direct
    0.659849     0.466975     0.496793 
    0.533204     0.607210     0.475003 
    0.492061     0.413641     0.582310 
    0.369809     0.500976     0.443549 
    0.521505     0.446779     0.389767 
    0.423571     0.564420     0.612578 
EA14012 11.397 11.032 11.492 90.00 90.00 90.00 Sym.group:    0
1.0
   11.396669     0.000000     0.000000
    0.000000    11.031796     0.000000
    0.000000     0.000000    11.492286
   W   B
   1   5
Direct
    0.646048     0.535769     0.562415 
    0.480131     0.490658     0.587861 
    0.565750     0.424451     0.455187 
    0.426443     0.425432     0.429950 
    0.372598     0.536210     0.496396 
    0.509028     0.587480     0.468192 
EA14345 12.045 11.457 12.042 90.00 90.00 90.00 Sym.group:    0
1.0
   12.044749     0.000000     0.000000
    0.000000    11.456523     0.000000
    0.000000     0.000000    12.041623
   W   B
   1   5
Direct
    0.507007     0.599560     0.460151 
    0.519053     0.401533     0.499368 
    0.395381     0.443821     0.521537 
    0.606071     0.524801     0.573777 
    0.626056     0.464838     0.452139 
    0.346433     0.565448     0.493028 
EA14630 12.164 12.298 11.445 90.00 90.00 90.00 Sym.group:    0
1.0
   12.164130     0.000000     0.000000
    0.000000    12.297965     0.000000
    0.000000     0.000000    11.445261
   W   B
   2   5
Direct
    0.503966     0.500750     0.623372 
    0.450408     0.638706     0.517974 
    0.374553     0.486189     0.488183 
    0.502515     0.502339     0.420167 
    0.464575     0.385548     0.481620 
    0.608833     0.560856     0.490009 
    0.595150     0.425615     0.478677 
EA14902 12.841 12.442 12.361 90.00 90.00 90.00 Sym.group:    0
1.0
   12.840705     0.000000     0.000000
    0.000000    12.442285     0.000000
    0.000000     0.000000    12.361138
   W   B
   4   4
Direct
    0.337283     0.465647     0.523310 
    0.473131     0.395948     0.417454 
    0.488887     0.469465     0.631978 
    0.436872     0.613327     0.465060 
    0.549938     0.612207     0.581561 
    0.535821     0.535919     0.361250 
    0.587999     0.388332     0.532165 
    0.590069     0.519154     0.487224 
EA15355 12.275 11.823 11.390 90.00 90.00 90.00 Sym.group:    0
1.0
   12.274781     0.000000     0.000000
    0.000000    11.823363     0.000000
    0.000000     0.000000    11.389858
   W   B
   1   5
Direct
    0.371399     0.581303     0.525637 
    0.476454     0.508582     0.420055 
    0.443982     0.434168     0.553227 
    0.552659     0.394031     0.480707 
    0.531871     0.578687     0.545006 
    0.623636     0.503227     0.475368 
EA15693 12.265 11.054 11.832 90.00 90.00 90.00 Sym.group:    0
1.0
   12.264967     0.000000     0.000000
    0.000000    11.054018     0.000000
    0.000000     0.000000    11.831809
   W   B
   1   5
Direct
    0.403607     0.456916     0.422294 
    0.511439     0.574117     0.544815 
    0.384622     0.589617     0.529976 
    0.620425     0.490749     0.543041 
    0.568384     0.485345     0.421168 
    0.511524     0.403254     0.538705 
EA16206 11.226  9.998  9.240 90.00 90.00 90.00 Sym.group:    0
1.0
   11.226139     0.000000     0.000000
    0.000000     9.997578     0.000000
    0.000000     0.000000     9.240000
   W   B
   2   1
Direct
    0.493852     0.382700     0.499996 
    0.593765     0.556130     0.500003 
    0.412383     0.561171     0.500001 
EA16344 11.987 11.070 11.064 90.00 90.00 90.00 Sym.group:    0
1.0
   11.987023     0.000000     0.000000
    0.000000    11.070136     0.000000
    0.000000     0.000000    11.064355
   W   B
   1   5
Direct
    0.347267     0.519787     0.527882 
    0.458216     0.486431     0.398402 
    0.499917     0.585500     0.530023 
    0.616625     0.498154     0.563894 
    0.488196     0.428636     0.553313 
    0.589779     0.481494     0.426488 
EA16724 12.469 11.243 11.338 90.00 90.00 90.00 Sym.group:    0
1.0
   12.468668     0.000000     0.000000
    0.000000    11.243205     0.000000
    0.000000     0.000000    11.337725
   W   B
   1   5
Direct
    0.508627     0.571927     0.599770 
    0.564539     0.416183     0.496115 
    0.372765     0.537126     0.506954 
    0.430299     0.414807     0.487675 
    0.625783     0.539332     0.488095 
    0.497988     0.520624     0.421392 
EA16912 12.888 12.247 12.062 90.00 90.00 90.00 Sym.group:    0
1.0
   12.887722     0.000000     0.000000
    0.000000    12.246989     0.000000
    0.000000     0.000000    12.062182
   W   B
   5   3
Direct
    0.540450     0.585854     0.611885 
    0.448026     0.415192     0.606256 
    0.592759     0.390076     0.487453 
    0.547536     0.612760     0.421973 
    0.456067     0.448450     0.369853 
    0.338069     0.448893     0.485795 
    0.406185     0.561392     0.505390 
    0.670910     0.537384     0.511395 
EA17513 11.199 11.199  9.605 90.00 90.00 90.00 Sym.group:    0
1.0
   11.199379     0.000000     0.000000
    0.000000    11.199379     0.000000
    0.000000     0.000000     9.604917
   W   B
   1   4
Direct
    0.626067     0.457283     0.501770 
    0.459870     0.415064     0.437457 
    0.397014     0.535518     0.500618 
    0.520503     0.591337     0.437251 
    0.496546     0.500799     0.622902 
EA17854 12.359 12.444 11.855 90.00 90.00 90.00 Sym.group:    0
1.0
   12.358657     0.000000     0.000000
    0.000000    12.443936     0.000000
    0.000000     0.000000    11.855032
   W   B
   1   4
Direct
    0.618438     0.513713     0.516180 
    0.401255     0.493566     0.490845 
    0.480046     0.510116     0.598025 
    0.507135     0.413479     0.465446 
    0.493125     0.569127     0.429504 
EA18056 11.369 11.154 11.113 90.00 90.00 90.00 Sym.group:    0
1.0
   11.369444     0.000000     0.000000
    0.000000    11.153563     0.000000
    0.000000     0.000000    11.113382
   W   B
   1   5
Direct
    0.658361     0.520897     0.540617 
    0.490055     0.515296     0.583216 
    0.384724     0.557303     0.477180 
    0.524930     0.583862     0.443490 
    0.399556     0.418460     0.478098 
    0.542373     0.404183     0.477398 
EA18496 11.989 11.475 11.094 90.00 90.00 90.00 Sym.group:    0
1.0
   11.989306     0.000000     0.000000
    0.000000    11.474639     0.000000
    0.000000     0.000000    11.094364
   W   B
   3   2
Direct
    0.454986     0.391110     0.478451 
    0.534137     0.494629     0.621637 
    0.378091     0.577628     0.519145 
    0.614584     0.468908     0.458007 
    0.518201     0.567725     0.422761 
EA18769 12.660 11.711 11.080 90.00 90.00 90.00 Sym.group:    0
1.0
   12.659757     0.000000     0.000000
    0.000000    11.710649     0.000000
    0.000000     0.000000    11.080129
   W   B
   2   4
Direct
    0.490803     0.443603     0.607973 
    0.534105     0.426651     0.412312 
    0.376125     0.445887     0.475768 
    0.539405     0.602598     0.509789 
    0.426809     0.569613     0.464587 
    0.632753     0.511649     0.529571 
EA19097 12.789 11.227 11.320 90.00 90.00 90.00 Sym.group:    0
1.0
   12.789314     0.000000     0.000000
    0.000000    11.226561     0.000000
    0.000000     0.000000    11.320440
   W   B
   4   2
Direct
    0.650264     0.491983     0.528794 
    0.386355     0.557560     0.449102 
    0.494164     0.541176     0.620537 
    0.513866     0.412114     0.409407 
    0.544248     0.601692     0.440402 
    0.411102     0.395475     0.551757 
EA19403 11.617 11.898 12.087 90.00 90.00 90.00 Sym.group:    0
1.0
   11.616916     0.000000     0.000000
    0.000000    11.898349     0.000000
    0.000000     0.000000    12.086929
   W   B
   1   5
Direct
    0.484674     0.596953     0.531776 
    0.601625     0.547444     0.423042 
    0.636917     0.495821     0.543256 
    0.538732     0.409805     0.512709 
    0.405109     0.420411     0.495226 
    0.332942     0.529566     0.493991 
EA19865 12.724 11.347 10.371 90.00 90.00 90.00 Sym.group:    0
1.0
   12.723516     0.000000     0.000000
    0.000000    11.346846     0.000000
    0.000000     0.000000    10.370795
   W   B
   3   2
Direct
    0.468119     0.591995     0.420036 
    0.375426     0.468876     0.560369 
    0.543438     0.555103     0.608512 
    0.610117     0.479775     0.445413 
    0.502901     0.404251     0.465670 
EA20099 11.164 11.581 11.509 90.00 90.00 90.00 Sym.group:    0
1.0
   11.163509     0.000000     0.000000
    0.000000    11.581367     0.000000
    0.000000     0.000000    11.508933
   W   B
   1   5
Direct
    0.480617     0.396317     0.554915 
    0.519016     0.521392     0.420609 
    0.576862     0.557127     0.552922 
    0.437603     0.588747     0.518621 
    0.630803     0.446820     0.479463 
    0.355098     0.489597     0.473470 
EA20585 12.552 11.919 10.829 90.00 90.00 90.00 Sym.group:    0
1.0
   12.552425     0.000000     0.000000
    0.000000    11.919415     0.000000
    0.000000     0.000000    10.828818
   W   B
   2   2
Direct
    0.471213     0.593960     0.524539 
    0.525009     0.413439     0.545788 
    0.391487     0.460821     0.465169 
    0.612291     0.531781     0.464503 
EA20822 12.764 11.409 11.280 90.00 90.00 90.00 Sym.group:    0
1.0
   12.764120     0.000000     0.000000
    0.000000    11.408595     0.000000
    0.000000     0.000000    11.279536
   W   B
   2   4
Direct
    0.481009     0.418348     0.414556 
    0.520935     0.443059     0.607076 
    0.633416     0.474882     0.479867 
    0.367036     0.484137     0.528400 
    0.556552     0.584719     0.461957 
    0.441052     0.594855     0.508144 
EA21089 11.409 11.639 11.750 90.00 90.00 90.00 Sym.group:    0
1.0
   11.408952     0.000000     0.000000
    0.000000    11.638608     0.000000
    0.000000     0.000000    11.749760
   W   B
   1   5
Direct
    0.578189     0.601674     0.549697 
    0.419945     0.523297     0.568917 
    0.465600     0.557992     0.427375 
    0.379446     0.450450     0.459646 
    0.643877     0.451790     0.505765 
    0.512944     0.414798     0.488601 
EA21478 12.388 11.271 11.186 90.00 90.00 90.00 Sym.group:    0
1.0
   12.388136     0.000000     0.000000
    0.000000    11.271055     0.000000
    0.000000     0.000000    11.185769
   W   B
   1   5
Direct
    0.467970     0.476379     0.617474 
    0.390288     0.434891     0.466570 
    0.517735     0.453051     0.432800 
    0.438543     0.575935     0.465689 
    0.567782     0.585570     0.477906 
    0.617681     0.474176     0.539562 
EA21778 11.101 11.690 11.583 90.00 90.00 90.00 Sym.group:    0
1.0
   11.100688     0.000000     0.000000
    0.000000    11.689503     0.000000
    0.000000     0.000000    11.582660
   W   B
   1   5
Direct
    0.511533     0.589198     0.582298 
    0.642522     0.519005     0.490307 
    0.563173     0.407590     0.506917 
    0.416177     0.424476     0.507169 
    0.500386     0.508647     0.423924 
    0.366208     0.551085     0.489385 
EA22230 11.049 11.576 11.671 90.00 90.00 90.00 Sym.group:    0
1.0
   11.049402     0.000000     0.000000
    0.000000    11.575652     0.000000
    0.000000     0.000000    11.670620
   W   B
   3   2
Direct
    0.349981     0.522167     0.468637 
    0.484940     0.402405     0.573503 
    0.515183     0.592753     0.575500 
    0.632812     0.476232     0.482585 
    0.517084     0.506443     0.399775 
EA22476 12.609 11.977 10.476 90.00 90.00 90.00 Sym.group:    0
1.0
   12.609280     0.000000     0.000000
    0.000000    11.977340     0.000000
    0.000000     0.000000    10.476133
   W   B
   1   5
Direct
    0.382981     0.584913     0.516849 
    0.622141     0.492537     0.515883 
    0.525679     0.564661     0.440115 
    0.540560     0.404017     0.469795 
    0.511723     0.520178     0.598907 
    0.416915     0.433696     0.458451 
EA22773 10.828 11.354 11.665 90.00 90.00 90.00 Sym.group:    0
1.0
   10.828046     0.000000     0.000000
    0.000000    11.354075     0.000000
    0.000000     0.000000    11.664534
   W   B
   1   5
Direct
    0.646688     0.429653     0.449136 
    0.370516     0.472742     0.550004 
    0.469600     0.459967     0.429963 
    0.423346     0.600668     0.522128 
    0.563590     0.582779     0.475624 
    0.526260     0.454192     0.573145 
EA23112 12.461 11.144 10.953 90.00 90.00 90.00 Sym.group:    0
1.0
   12.461494     0.000000     0.000000
    0.000000    11.143776     0.000000
    0.000000     0.000000    10.952828
   W   B
   1   5
Direct
    0.351208     0.501228     0.480864 
    0.476001     0.605947     0.506000 
    0.476525     0.442814     0.576279 
    0.495438     0.461480     0.418864 
    0.600155     0.425055     0.516458 
    0.600673     0.563477     0.501535 
EA23452 11.313 12.003 11.423 90.00 90.00 90.00 Sym.group:    0
1.0
   11.312911     0.000000     0.000000
    0.000000    12.003472     0.000000
    0.000000     0.000000    11.422560
   W   B
   5   1
Direct
    0.615407     0.414185     0.510278 
    0.575499     0.609186     0.554193 
    0.548502     0.539336     0.359084 
    0.411509     0.408595     0.430087 
    0.375024     0.573046     0.532236 
    0.474060     0.455652     0.614121 
EA23853 12.399 11.831 11.885 90.00 90.00 90.00 Sym.group:    0
1.0
   12.399385     0.000000     0.000000
    0.000000    11.831335     0.000000
    0.000000     0.000000    11.884689
   W   B
   4   2
Direct
    0.473714     0.614595     0.550923 
    0.527518     0.381085     0.537573 
    0.588070     0.478974     0.388033 
    0.410830     0.532178     0.393213 
    0.613905     0.529575     0.566501 
    0.385962     0.463592     0.563758 
EA23993 12.282 11.859 12.383 90.00 90.00 90.00 Sym.group:    0
1.0
   12.281959     0.000000     0.000000
    0.000000    11.858510     0.000000
    0.000000     0.000000    12.382959
   W   B
   3   5
Direct
    0.418608     0.376802     0.464041 
    0.562621     0.473821     0.386427 
    0.432364     0.611516     0.423486 
    0.483673     0.513642     0.565000 
    0.344020     0.515949     0.531763 
    0.559669     0.388036     0.552994 
    0.573562     0.616067     0.512950 
    0.625482     0.504165     0.563338 
EA24482 12.156 11.278 11.641 90.00 90.00 90.00 Sym.group:    0
1.0
   12.156260     0.000000     0.000000
    0.000000    11.278177     0.000000
    0.000000     0.000000    11.640642
   W   B
   2   4
Direct
    0.540112     0.497352     0.608584 
    0.467885     0.612062     0.469016 
    0.637669     0.539185     0.470299 
    0.552934     0.440576     0.426536 
    0.366159     0.497718     0.554094 
    0.435240     0.413105     0.471471 
EA24860 12.634 11.633 11.115 90.00 90.00 90.00 Sym.group:    0
1.0
   12.633797     0.000000     0.000000
    0.000000    11.633269     0.000000
    0.000000     0.000000    11.115244
   W   B
   1   5
Direct
    0.645944     0.516978     0.526337 
    0.501269     0.573810     0.560145 
    0.388153     0.560701     0.491311 
    0.413507     0.431916     0.468418 
    0.526369     0.405595     0.536691 
    0.524758     0.510998     0.417098 
EA25193 12.725 11.478 10.747 90.00 90.00 90.00 Sym.group:    0
1.0
   12.724788     0.000000     0.000000
    0.000000    11.477579     0.000000
    0.000000     0.000000    10.747469
   W   B
   1   5
Direct
    0.636579     0.561989     0.492987 
    0.517145     0.499003     0.587400 
    0.432534     0.405207     0.504963 
    0.378086     0.525916     0.512091 
    0.484927     0.586550     0.454645 
    0.550730     0.421335     0.447914 
EA25485 11.484 13.006 11.723 90.00 90.00 90.00 Sym.group:    0
1.0
   11.484042     0.000000     0.000000
    0.000000    13.005533     0.000000
    0.000000     0.000000    11.723289
   W   B
   4   2
Direct
    0.531277     0.495217     0.618296 
    0.403014     0.401465     0.495058 
    0.651106     0.564588     0.475720 
    0.461483     0.554671     0.401277 
    0.574609     0.420159     0.451127 
    0.378511     0.563900     0.558520 
EA25815 10.880 11.608 12.025 90.00 90.00 90.00 Sym.group:    0
1.0
   10.880369     0.000000     0.000000
    0.000000    11.607510     0.000000
    0.000000     0.000000    12.025034
   W   B
   1   5
Direct
    0.665138     0.542556     0.495662 
    0.552380     0.416569     0.454219 
    0.409399     0.417666     0.495354 
    0.362842     0.542931     0.517304 
    0.492610     0.579918     0.458249 
    0.517630     0.500359     0.579213 
EA26134 11.133 11.559 12.171 90.00 90.00 90.00 Sym.group:    0
1.0
   11.132618     0.000000     0.000000
    0.000000    11.558836     0.000000
    0.000000     0.000000    12.171084
   W   B
   1   5
Direct
    0.344111     0.556482     0.488079 
    0.433741     0.418349     0.536451 
    0.496450     0.509832     0.420213 
    0.635516     0.526121     0.487635 
    0.511722     0.580490     0.546872 
    0.578458     0.408724     0.520750 
EA26400 12.798 12.237 11.881 90.00 90.00 90.00 Sym.group:    0
1.0
   12.797813     0.000000     0.000000
    0.000000    12.237067     0.000000
    0.000000     0.000000    11.881182
   W   B
   2   5
Direct
    0.421888     0.628116     0.508802 
    0.502964     0.525329     0.380238 
    0.598214     0.432722     0.516533 
    0.606485     0.566584     0.504658 
    0.383204     0.462992     0.497753 
    0.482668     0.382150     0.513288 
    0.504576     0.502109     0.578727 
EA26829 11.809 11.529 10.990 90.00 90.00 90.00 Sym.group:    0
1.0
   11.809311     0.000000     0.000000
    0.000000    11.529115     0.000000
    0.000000     0.000000    10.990103
   W   B
   1   5
Direct
    0.580027     0.403541     0.460778 
    0.412267     0.390992     0.494508 
    0.495617     0.498397     0.578278 
    0.497678     0.613857     0.480452 
    0.393745     0.525301     0.473270 
    0.620665     0.567912     0.512714 
EA27067 11.420 12.010 11.250 90.00 90.00 90.00 Sym.group:    0
1.0
   11.419517     0.000000     0.000000
    0.000000    12.009756     0.000000
    0.000000     0.000000    11.249604
   W   B
   3   4
Direct
    0.473297     0.494733     0.377704 
    0.623762     0.600151     0.473398 
    0.456653     0.347401     0.510193 
    0.616912     0.427240     0.493201 
    0.510978     0.503081     0.580367 
    0.449048     0.620668     0.523993 
    0.369350     0.506727     0.541144 
EA27518 12.131 11.906 10.926 90.00 90.00 90.00 Sym.group:    0
1.0
   12.131326     0.000000     0.000000
    0.000000    11.906090     0.000000
    0.000000     0.000000    10.925956
   W   B
   1   5
Direct
    0.595546     0.572882     0.439222 
    0.440559     0.580256     0.494575 
    0.490283     0.456488     0.579116 
    0.619741     0.467292     0.578126 
    0.377421     0.463048     0.505660 
    0.476452     0.460034     0.403302 
EA27808 10.720 11.757 11.585 90.00 90.00 90.00 Sym.group:    0
1.0
   10.720078     0.000000     0.000000
    0.000000    11.756636     0.000000
    0.000000     0.000000    11.584934
   W   B
   1   5
Direct
    0.669488     0.531899     0.479209 
    0.380529     0.527138     0.544071 
    0.538775     0.415037     0.512722 
    0.393154     0.421419     0.463094 
    0.495600     0.533828     0.425375 
    0.522454     0.570679     0.575529 
EA28161 12.219 11.149 11.141 90.00 90.00 90.00 Sym.group:    0
1.0
   12.218662     0.000000     0.000000
    0.000000    11.149154     0.000000
    0.000000     0.000000    11.141195
   W   B
   1   5
Direct
    0.464914     0.478919     0.382620 
    0.602651     0.560999     0.437213 
    0.593232     0.461037     0.535219 
    0.375364     0.526409     0.523703 
    0.464644     0.412373     0.557021 
    0.499195     0.560264     0.564223 
EA28556 12.693 11.689 11.225 90.00 90.00 90.00 Sym.group:    0
1.0
   12.692849     0.000000     0.000000
    0.000000    11.689345     0.000000
    0.000000     0.000000    11.225381
   W   B
   2   4
Direct
    0.489240     0.548207     0.613248 
    0.520073     0.585557     0.419620 
    0.631502     0.508857     0.524991 
    0.553458     0.406141     0.488561 
    0.435092     0.418540     0.464997 
    0.370634     0.532699     0.488582 
EA28848 11.003 12.174 11.830 90.00 90.00 90.00 Sym.group:    0
1.0
   11.002856     0.000000     0.000000
    0.000000    12.173586     0.000000
    0.000000     0.000000    11.829705
   W   B
   1   5
Direct
    0.382111     0.547257     0.450565 
    0.411268     0.390671     0.507063 
    0.557081     0.401290     0.501116 
    0.494123     0.508790     0.572211 
    0.617613     0.521710     0.485481 
    0.537803     0.630283     0.483564 
EA29214 11.335 11.288 11.689 90.00 90.00 90.00 Sym.group:    0
1.0
   11.335035     0.000000     0.000000
    0.000000    11.287769     0.000000
    0.000000     0.000000    11.689276
   W   B
   1   5
Direct
    0.555403     0.623656     0.474477 
    0.535803     0.424538     0.515326 
    0.658631     0.484753     0.498852 
    0.391875     0.414933     0.517341 
    0.433434     0.540061     0.570696 
    0.424855     0.512058     0.423307 
EA29698 11.731 12.489 11.591 90.00 90.00 90.00 Sym.group:    0
1.0
   11.730904     0.000000     0.000000
    0.000000    12.489446     0.000000
    0.000000     0.000000    11.591184
   W   B
   2   2
Direct
    0.523812     0.412140     0.523610 
    0.477977     0.584607     0.530488 
    0.370214     0.472328     0.474724 
    0.627997     0.530924     0.471177 
EA29869 11.110 11.432 11.607 90.00 90.00 90.00 Sym.group:    0
1.0
   11.110488     0.000000     0.000000
    0.000000    11.432388     0.000000
    0.000000     0.000000    11.606826
   W   B
   2   4
Direct
    0.571025     0.537772     0.592846 
    0.507788     0.588471     0.417248 
    0.637036     0.443047     0.462215 
    0.505053     0.392274     0.461877 
    0.400241     0.450093     0.527799 
    0.378858     0.588343     0.538014 
EA30261 12.848 11.727 11.072 90.00 90.00 90.00 Sym.group:    0
1.0
   12.847510     0.000000     0.000000
    0.000000    11.727095     0.000000
    0.000000     0.000000    11.071809
   W   B
   2   4
Direct
    0.469570     0.551879     0.606414 
    0.528335     0.582530     0.419442 
    0.556759     0.405879     0.510162 
    0.446800     0.418458     0.453548 
    0.627312     0.515043     0.542727 
    0.371224     0.526210     0.467705 
EA30550 11.337 11.026 12.181 90.00 90.00 90.00 Sym.group:    0
1.0
   11.336915     0.000000     0.000000
    0.000000    11.025995     0.000000
    0.000000     0.000000    12.181087
   W   B
   1   5
Direct
    0.506633     0.630292     0.517155 
    0.355398     0.533013     0.524547 
    0.484545     0.482118     0.427867 
    0.640528     0.524739     0.464062 
    0.576045     0.412322     0.519406 
    0.436851     0.417516     0.546963 
EA30728 13.903 12.972 11.955 90.00 90.00 90.00 Sym.group:    0
1.0
   13.903139     0.000000     0.000000
    0.000000    12.972245     0.000000
    0.000000     0.000000    11.954600
   W   B
   5   5
Direct
    0.438475     0.366103     0.460188 
    0.418419     0.549524     0.394034 
    0.468472     0.654082     0.548795 
    0.580483     0.370352     0.555834 
    0.426694     0.487202     0.622978 
    0.315440     0.492256     0.504796 
    0.572698     0.585018     0.441559 
    0.648782     0.495084     0.485389 
    0.554919     0.460058     0.400916 
    0.575618     0.540319     0.585510 
EA31074 13.691 12.314 11.964 90.00 90.00 90.00 Sym.group:    0
1.0
   13.691064     0.000000     0.000000
    0.000000    12.313641     0.000000
    0.000000     0.000000    11.964307
   W   B
   4   5
Direct
    0.444376     0.519643     0.624077 
    0.445223     0.597260     0.396950 
    0.568379     0.628095     0.534167 
    0.553542     0.441447     0.387657 
    0.406325     0.434469     0.467028 
    0.492548     0.378166     0.538379 
    0.337379     0.539767     0.501331 
    0.665271     0.510075     0.482241 
    0.586958     0.451079     0.568169 
EA31569 11.928 10.990 11.652 90.00 90.00 90.00 Sym.group:    0
1.0
   11.928170     0.000000     0.000000
    0.000000    10.989653     0.000000
    0.000000     0.000000    11.651813
   W   B
   1   5
Direct
    0.648260     0.546014     0.529537 
    0.555982     0.413034     0.466118 
    0.420233     0.411825     0.472458 
    0.375689     0.542002     0.496901 
    0.496518     0.502609     0.582751 
    0.503318     0.584517     0.452233 
EA32042 12.213 11.225 11.160 90.00 90.00 90.00 Sym.group:    0
1.0
   12.213089     0.000000     0.000000
    0.000000    11.225034     0.000000
    0.000000     0.000000    11.159556
   W   B
   1   4
Direct
    0.466430     0.487374     0.391271 
    0.590974     0.450862     0.497453 
    0.423037     0.549250     0.555001 
    0.548073     0.603698     0.497523 
    0.471486     0.408816     0.558752 
EA32303 12.506 11.749 10.514 90.00 90.00 90.00 Sym.group:    0
1.0
   12.505853     0.000000     0.000000
    0.000000    11.749049     0.000000
    0.000000     0.000000    10.513732
   W   B
   1   5
Direct
    0.355662     0.540205     0.508041 
    0.615142     0.540284     0.512720 
    0.501216     0.579628     0.444162 
    0.492938     0.506873     0.591035 
    0.453798     0.417354     0.457373 
    0.581243     0.415656     0.486671 
EA32755 12.312 10.970  9.240 90.00 90.00 90.00 Sym.group:    0
1.0
   12.311790     0.000000     0.000000
    0.000000    10.969518     0.000000
    0.000000     0.000000     9.240000
   W   B
   2   1
Direct
    0.501488     0.394412     0.499996 
    0.412760     0.552062     0.500004 
    0.585751     0.553525     0.500001 
EA33025 12.415 11.033 11.185 90.00 90.00 90.00 Sym.group:    0
1.0
   12.415311     0.000000     0.000000
    0.000000    11.033476     0.000000
    0.000000     0.000000    11.184906
   W   B
   3   2
Direct
    0.432644     0.423892     0.564660 
    0.403272     0.565799     0.410934 
    0.516403     0.601986     0.572954 
    0.604839     0.438814     0.538042 
    0.542843     0.469509     0.413409 
EA33095 12.969 13.026 12.158 90.00 90.00 90.00 Sym.group:    0
1.0
   12.969171     0.000000     0.000000
    0.000000    13.026047     0.000000
    0.000000     0.000000    12.157743
   W   B
   5   5
Direct
    0.436831     0.364520     0.486517 
    0.416578     0.498974     0.364204 
    0.557811     0.612684     0.408597 
    0.575637     0.591386     0.596874 
    0.578875     0.410599     0.600984 
    0.421954     0.600116     0.520906 
    0.663423     0.502545     0.478546 
    0.437507     0.491412     0.610558 
    0.575032     0.427277     0.417519 
    0.336351     0.500488     0.515295 
EA33431 13.482 12.473 12.235 90.00 90.00 90.00 Sym.group:    0
1.0
   13.481860     0.000000     0.000000
    0.000000    12.472596     0.000000
    0.000000     0.000000    12.235108
   W   B
   5   5
Direct
    0.421418     0.364170     0.458989 
    0.423352     0.542818     0.363792 
    0.575229     0.631874     0.446247 
    0.585308     0.560307     0.621796 
    0.323195     0.491681     0.530832 
    0.447536     0.597267     0.542096 
    0.652746     0.485122     0.485435 
    0.459469     0.456389     0.611417 
    0.553162     0.460832     0.402773 
    0.558585     0.409540     0.536622 
EA33947 12.070 12.017 12.270 90.00 90.00 90.00 Sym.group:    0
1.0
   12.070254     0.000000     0.000000
    0.000000    12.017159     0.000000
    0.000000     0.000000    12.270305
   W   B
   5   1
Direct
    0.534295     0.364956     0.522351 
    0.364557     0.464484     0.495319 
    0.465562     0.635558     0.512631 
    0.636504     0.531112     0.491343 
    0.499107     0.501265     0.357484 
    0.499975     0.502624     0.620872 
EA34221 10.803 12.769 11.513 90.00 90.00 90.00 Sym.group:    0
1.0
   10.803156     0.000000     0.000000
    0.000000    12.769284     0.000000
    0.000000     0.000000    11.513090
   W   B
   1   5
Direct
    0.560185     0.393894     0.481752 
    0.416671     0.457281     0.571490 
    0.666341     0.519269     0.496601 
    0.429643     0.487174     0.415920 
    0.537624     0.572957     0.518658 
    0.389535     0.569423     0.515579 
EA34628 12.516 11.312 10.792 90.00 90.00 90.00 Sym.group:    0
1.0
   12.516033     0.000000     0.000000
    0.000000    11.311620     0.000000
    0.000000     0.000000    10.791926
   W   B
   1   5
Direct
    0.351696     0.480283     0.493762 
    0.592685     0.574635     0.513971 
    0.490310     0.421966     0.559742 
    0.607706     0.439796     0.489175 
    0.465334     0.596173     0.532423 
    0.492269     0.487147     0.410926 
EA34912 11.167 10.743 12.124 90.00 90.00 90.00 Sym.group:    0
1.0
   11.167457     0.000000     0.000000
    0.000000    10.742830     0.000000
    0.000000     0.000000    12.123553
   W   B
   1   5
Direct
    0.435826     0.622798     0.531823 
    0.341027     0.477958     0.479492 
    0.576441     0.556375     0.445598 
    0.612938     0.419215     0.487452 
    0.563713     0.504343     0.586516 
    0.470056     0.419311     0.469119 
EA35260 12.243 11.479 11.333 90.00 90.00 90.00 Sym.group:    0
1.0
   12.243291     0.000000     0.000000
    0.000000    11.479038     0.000000
    0.000000     0.000000    11.333348
   W   B
   1   5
Direct
    0.505265     0.565815     0.605704 
    0.568208     0.421302     0.484228 
    0.630635     0.539672     0.495451 
    0.432012     0.411849     0.480374 
    0.371383     0.528618     0.505905 
    0.492497     0.532743     0.428336 
EA35775 11.728 11.185  9.567 90.00 90.00 90.00 Sym.group:    0
1.0
   11.728285     0.000000     0.000000
    0.000000    11.184861     0.000000
    0.000000     0.000000     9.566527
   W   B
   1   3
Direct
    0.395565     0.499819     0.524001 
    0.517411     0.615237     0.470317 
    0.513434     0.386186     0.466263 
    0.573591     0.498758     0.539419 
EA35915 11.898 11.172 11.136 90.00 90.00 90.00 Sym.group:    0
1.0
   11.897967     0.000000     0.000000
    0.000000    11.172489     0.000000
    0.000000     0.000000    11.135763
   W   B
   1   5
Direct
    0.480007     0.393426     0.559947 
    0.392097     0.545698     0.569427 
    0.627933     0.466311     0.517182 
    0.529002     0.577822     0.521625 
    0.422265     0.531529     0.430198 
    0.548696     0.485214     0.401621 
EA36308 12.497 11.786 10.618 90.00 90.00 90.00 Sym.group:    0
1.0
   12.497214     0.000000     0.000000
    0.000000    11.786441     0.000000
    0.000000     0.000000    10.617702
   W   B
   1   5
Direct
    0.470109     0.612847     0.506285 
    0.624672     0.545844     0.522209 
    0.569287     0.426006     0.538154 
    0.445162     0.414272     0.511857 
    0.348830     0.498314     0.521892 
    0.541940     0.502716     0.399601 
EA36597 11.618 11.755 11.472 90.00 90.00 90.00 Sym.group:    0
1.0
   11.617604     0.000000     0.000000
    0.000000    11.754540     0.000000
    0.000000     0.000000    11.471804
   W   B
   4   2
Direct
    0.443667     0.530441     0.394063 
    0.639013     0.514105     0.460747 
    0.358310     0.549520     0.576333 
    0.512444     0.422608     0.597456 
    0.525021     0.371494     0.418957 
    0.521544     0.611832     0.552444 
EA36977 12.764 12.016 12.432 90.00 90.00 90.00 Sym.group:    0
1.0
   12.764179     0.000000     0.000000
    0.000000    12.016037     0.000000
    0.000000     0.000000    12.432283
   W   B
   5   1
Direct
    0.499763     0.496084     0.362691 
    0.632372     0.513352     0.506389 
    0.495219     0.496046     0.637033 
    0.368157     0.516470     0.494059 
    0.504272     0.355817     0.500137 
    0.500218     0.622230     0.499691 
EA37330 12.668 11.260 10.822 90.00 90.00 90.00 Sym.group:    0
1.0
   12.668024     0.000000     0.000000
    0.000000    11.259778     0.000000
    0.000000     0.000000    10.822302
   W   B
   1   5
Direct
    0.645127     0.470120     0.500108 
    0.508041     0.486515     0.584977 
    0.389740     0.448012     0.500296 
    0.505188     0.417272     0.438240 
    0.538087     0.595036     0.469190 
    0.413816     0.583045     0.507188 
EA37686 12.737 11.966 10.860 90.00 90.00 90.00 Sym.group:    0
1.0
   12.737326     0.000000     0.000000
    0.000000    11.965739     0.000000
    0.000000     0.000000    10.860165
   W   B
   2   4
Direct
    0.563563     0.476481     0.400119 
    0.519772     0.421006     0.589758 
    0.486623     0.600621     0.547218 
    0.405500     0.526312     0.476694 
    0.416677     0.399428     0.444442 
    0.607866     0.576152     0.541769 
EA37977 12.290 11.267 11.205 90.00 90.00 90.00 Sym.group:    0
1.0
   12.290209     0.000000     0.000000
    0.000000    11.267374     0.000000
    0.000000     0.000000    11.204766
   W   B
   1   5
Direct
    0.440405     0.602186     0.446496 
    0.491523     0.494561     0.575857 
    0.494750     0.387965     0.473219 
    0.376790     0.446084     0.494017 
    0.593511     0.604216     0.512152 
    0.603022     0.464987     0.498259 
EA38343 12.649 11.578 10.351 90.00 90.00 90.00 Sym.group:    0
1.0
   12.649427     0.000000     0.000000
    0.000000    11.577877     0.000000
    0.000000     0.000000    10.350879
   W   B
   1   5
Direct
    0.491611     0.596935     0.441968 
    0.348581     0.550149     0.500203 
    0.409919     0.435311     0.537950 
    0.620808     0.475652     0.437206 
    0.529442     0.405259     0.508321 
    0.599639     0.536695     0.574353 
EA38694 12.067 12.032 11.689 90.00 90.00 90.00 Sym.group:    0
1.0
   12.067420     0.000000     0.000000
    0.000000    12.032107     0.000000
    0.000000     0.000000    11.688855
   W   B
   1   5
Direct
    0.428473     0.391339     0.520294 
    0.359011     0.536208     0.496586 
    0.615047     0.562823     0.489873 
    0.552140     0.486003     0.582936 
    0.563957     0.450785     0.434549 
    0.481373     0.572842     0.475760 
EA38975 10.832 10.945 11.784 90.00 90.00 90.00 Sym.group:    0
1.0
   10.832174     0.000000     0.000000
    0.000000    10.945450     0.000000
    0.000000     0.000000    11.783639
   W   B
   1   5
Direct
    0.423460     0.597534     0.474394 
    0.477371     0.421686     0.426058 
    0.520715     0.455790     0.567439 
    0.375147     0.437598     0.535825 
    0.606814     0.491734     0.452855 
    0.596493     0.595658     0.543428 
EA39425 11.919 11.891 11.078 90.00 90.00 90.00 Sym.group:    0
1.0
   11.918760     0.000000     0.000000
    0.000000    11.890558     0.000000
    0.000000     0.000000    11.077874
   W   B
   3   2
Direct
    0.507693     0.444455     0.609306 
    0.572613     0.444758     0.423080 
    0.585046     0.612258     0.533367 
    0.401248     0.432415     0.463315 
    0.433401     0.566113     0.470932 
EA39647 11.745 11.419 11.179 90.00 90.00 90.00 Sym.group:    0
1.0
   11.744763     0.000000     0.000000
    0.000000    11.418914     0.000000
    0.000000     0.000000    11.179084
   W   B
   4   2
Direct
    0.440585     0.437372     0.650587 
    0.437244     0.604618     0.526626 
    0.508357     0.380101     0.460651 
    0.601336     0.559150     0.409293 
    0.590473     0.507041     0.584942 
    0.422005     0.511716     0.367901 
