EA46882 16.150 14.607 14.407 90.00 90.00 90.00 Sym.group:    0
1.0
   16.150469     0.000000     0.000000
    0.000000    14.607205     0.000000
    0.000000     0.000000    14.406903
   W   B
  16  11
Direct
    0.291736     0.564430     0.596794 
    0.469984     0.650882     0.413194 
    0.588288     0.571332     0.319049 
    0.381882     0.530455     0.328488 
    0.423289     0.509468     0.506619 
    0.525757     0.651144     0.587911 
    0.673308     0.375444     0.613966 
    0.506350     0.388169     0.616469 
    0.600458     0.329804     0.468475 
    0.502672     0.416416     0.353733 
    0.580205     0.501657     0.494554 
    0.717387     0.565813     0.412473 
    0.348597     0.376956     0.393495 
    0.375205     0.695220     0.561704 
    0.613479     0.519805     0.670108 
    0.435063     0.549228     0.683564 
    0.300279     0.424135     0.530672 
    0.325825     0.614411     0.446662 
    0.365583     0.430067     0.632068 
    0.609296     0.651541     0.453430 
    0.460582     0.330954     0.475325 
    0.649780     0.438778     0.369763 
    0.708786     0.426482     0.472060 
    0.664643     0.617272     0.548658 
    0.712468     0.512484     0.560532 
    0.288534     0.505011     0.445252 
    0.380565     0.352643     0.544985 
EA46842 17.035 14.178 14.018 90.00 90.00 90.00 Sym.group:    0
1.0
   17.034517     0.000000     0.000000
    0.000000    14.177618     0.000000
    0.000000     0.000000    14.017971
   W   B
  16  12
Direct
    0.495539     0.567790     0.648541 
    0.417934     0.507556     0.496415 
    0.573763     0.402787     0.670802 
    0.476278     0.397635     0.372491 
    0.518946     0.310872     0.535814 
    0.486034     0.575819     0.324283 
    0.574520     0.498427     0.498341 
    0.719246     0.434673     0.443479 
    0.293450     0.420973     0.562247 
    0.488142     0.676833     0.476862 
    0.620714     0.668833     0.551494 
    0.378830     0.682294     0.604266 
    0.618472     0.491206     0.323224 
    0.419540     0.395333     0.652046 
    0.349138     0.639678     0.405312 
    0.266410     0.598536     0.548146 
    0.293903     0.501173     0.422735 
    0.597384     0.633184     0.392636 
    0.682158     0.444218     0.598717 
    0.681290     0.582408     0.434721 
    0.395258     0.340163     0.493050 
    0.342442     0.397842     0.410385 
    0.632610     0.542038     0.643652 
    0.702363     0.549025     0.547470 
    0.643881     0.351580     0.536176 
    0.603823     0.359841     0.419323 
    0.369859     0.494719     0.339669 
    0.358070     0.534562     0.647703 
EA43050 16.735 14.477 14.849 90.00 90.00 90.00 Sym.group:    0
1.0
   16.735088     0.000000     0.000000
    0.000000    14.477395     0.000000
    0.000000     0.000000    14.848664
   W   B
  16  13
Direct
    0.331456     0.624283     0.616130 
    0.468173     0.683684     0.555620 
    0.473203     0.625520     0.391966 
    0.349559     0.397734     0.385188 
    0.416736     0.498976     0.497146 
    0.258404     0.547291     0.501218 
    0.408290     0.372395     0.647491 
    0.481801     0.526877     0.655863 
    0.506191     0.447309     0.337854 
    0.493969     0.339251     0.487035 
    0.565238     0.375552     0.640812 
    0.707958     0.610043     0.587940 
    0.579554     0.498573     0.506392 
    0.709795     0.438078     0.590813 
    0.603057     0.682920     0.473192 
    0.718669     0.563899     0.434118 
    0.357991     0.652393     0.475871 
    0.294084     0.406135     0.525259 
    0.336277     0.579109     0.389206 
    0.395268     0.519788     0.322664 
    0.326898     0.479305     0.614482 
    0.368768     0.331704     0.515173 
    0.601514     0.363794     0.401926 
    0.630217     0.341496     0.509570 
    0.615614     0.521247     0.659801 
    0.690323     0.412939     0.444478 
    0.638534     0.465924     0.360916 
    0.594454     0.569652     0.359519 
    0.578007     0.624129     0.612358 
EA46732 17.359 14.761 14.287 90.00 90.00 90.00 Sym.group:    0
1.0
   17.358532     0.000000     0.000000
    0.000000    14.761290     0.000000
    0.000000     0.000000    14.286632
   W   B
  16  14
Direct
    0.474919     0.452256     0.664344 
    0.579257     0.497294     0.499766 
    0.664530     0.627757     0.580401 
    0.380867     0.305715     0.442433 
    0.714984     0.434845     0.428760 
    0.364362     0.668781     0.535964 
    0.509587     0.623424     0.610954 
    0.421844     0.505197     0.497632 
    0.292113     0.560070     0.419809 
    0.284410     0.406015     0.503982 
    0.482545     0.407648     0.356293 
    0.672370     0.595397     0.389114 
    0.709553     0.468868     0.605915 
    0.523614     0.577947     0.349971 
    0.508431     0.339470     0.526643 
    0.379412     0.589656     0.686756 
    0.345132     0.452026     0.633393 
    0.593624     0.518063     0.661414 
    0.751886     0.561853     0.497894 
    0.638450     0.360890     0.528774 
    0.391460     0.361878     0.586526 
    0.603095     0.365701     0.414670 
    0.405184     0.628974     0.390932 
    0.575417     0.656958     0.470991 
    0.397924     0.527131     0.334835 
    0.607594     0.461621     0.343767 
    0.351314     0.431425     0.367520 
    0.301520     0.540887     0.574915 
    0.598685     0.403239     0.632282 
    0.475918     0.669011     0.463351 
EA46687 16.832 15.364 14.351 90.00 90.00 90.00 Sym.group:    0
1.0
   16.832065     0.000000     0.000000
    0.000000    15.364075     0.000000
    0.000000     0.000000    14.350854
   W   B
  16  15
Direct
    0.556112     0.383403     0.615532 
    0.449146     0.325512     0.489017 
    0.347174     0.543796     0.340707 
    0.293323     0.626620     0.488189 
    0.304590     0.373003     0.542646 
    0.413424     0.495602     0.495548 
    0.474728     0.528674     0.664008 
    0.318593     0.385940     0.378151 
    0.578755     0.511640     0.506659 
    0.599761     0.649383     0.626350 
    0.715610     0.504466     0.437045 
    0.496734     0.608344     0.368562 
    0.456833     0.655600     0.533807 
    0.624335     0.509443     0.700024 
    0.680214     0.347781     0.485252 
    0.490210     0.439587     0.351869 
    0.265415     0.491016     0.457424 
    0.283248     0.513072     0.573969 
    0.354642     0.584610     0.615689 
    0.422744     0.395613     0.624388 
    0.353911     0.473102     0.644917 
    0.566148     0.338144     0.415109 
    0.571019     0.277078     0.510637 
    0.578478     0.672278     0.472109 
    0.630499     0.615774     0.389465 
    0.606389     0.520407     0.340433 
    0.691911     0.448171     0.585557 
    0.698549     0.560165     0.580044 
    0.382726     0.672336     0.400067 
    0.671031     0.632837     0.497203 
    0.623749     0.416604     0.369623 
EA46847 17.508 14.587 13.928 90.00 90.00 90.00 Sym.group:    0
1.0
   17.508106     0.000000     0.000000
    0.000000    14.586683     0.000000
    0.000000     0.000000    13.927984
   W   B
  17  11
Direct
    0.379030     0.632274     0.607651 
    0.369092     0.410201     0.347381 
    0.504013     0.674711     0.507029 
    0.429702     0.495957     0.499149 
    0.514242     0.582280     0.662515 
    0.455237     0.311309     0.499704 
    0.509964     0.394245     0.638614 
    0.519064     0.404657     0.364148 
    0.583591     0.500900     0.503920 
    0.721826     0.419553     0.507839 
    0.290793     0.491013     0.597085 
    0.601191     0.311739     0.492782 
    0.485118     0.580170     0.349899 
    0.725249     0.592511     0.530010 
    0.625372     0.651894     0.409450 
    0.654290     0.532306     0.668621 
    0.256665     0.468724     0.429877 
    0.308998     0.592856     0.480814 
    0.605139     0.516008     0.335860 
    0.411409     0.488815     0.667702 
    0.636511     0.395641     0.615067 
    0.389542     0.645326     0.444327 
    0.646523     0.414932     0.380753 
    0.689532     0.519290     0.395533 
    0.381544     0.388371     0.612315 
    0.354358     0.558994     0.372794 
    0.337443     0.375249     0.501532 
    0.614562     0.650075     0.577630 
EA46794 17.464 14.394 14.807 90.00 90.00 90.00 Sym.group:    0
1.0
   17.463891     0.000000     0.000000
    0.000000    14.394219     0.000000
    0.000000     0.000000    14.807386
   W   B
  17  12
Direct
    0.503149     0.550274     0.347322 
    0.623704     0.311270     0.410446 
    0.672019     0.591312     0.382834 
    0.576452     0.511265     0.493923 
    0.585769     0.431532     0.664600 
    0.620020     0.685089     0.541931 
    0.463243     0.669315     0.490623 
    0.713190     0.433404     0.442034 
    0.504938     0.590099     0.635470 
    0.509971     0.343794     0.539648 
    0.498732     0.375720     0.367197 
    0.268583     0.534059     0.413496 
    0.416791     0.497412     0.497752 
    0.367921     0.441285     0.336364 
    0.280863     0.513831     0.576258 
    0.735801     0.597256     0.529366 
    0.366369     0.365129     0.603592 
    0.567937     0.662743     0.412391 
    0.638879     0.563342     0.630196 
    0.687316     0.466009     0.586461 
    0.638728     0.368230     0.547409 
    0.388911     0.513644     0.655103 
    0.462642     0.441576     0.650769 
    0.393466     0.343446     0.454428 
    0.309397     0.401581     0.470296 
    0.338910     0.630207     0.492949 
    0.378147     0.599678     0.386280 
    0.611419     0.453143     0.344066 
    0.376726     0.614355     0.596797 
EA46733 16.491 15.946 15.075 90.00 90.00 90.00 Sym.group:    0
1.0
   16.491107     0.000000     0.000000
    0.000000    15.946379     0.000000
    0.000000     0.000000    15.075357
   W   B
  17  13
Direct
    0.413551     0.356565     0.600703 
    0.415068     0.502170     0.496726 
    0.285546     0.421594     0.532355 
    0.369353     0.666412     0.507580 
    0.509525     0.640363     0.567255 
    0.494992     0.644976     0.399193 
    0.494175     0.491275     0.654470 
    0.356899     0.587686     0.354778 
    0.572725     0.350978     0.594362 
    0.720028     0.440158     0.386864 
    0.585793     0.498728     0.499803 
    0.715486     0.407622     0.548532 
    0.352872     0.394786     0.354050 
    0.476397     0.487917     0.327667 
    0.621805     0.559079     0.338709 
    0.488245     0.357962     0.446943 
    0.737049     0.571209     0.458683 
    0.395368     0.584490     0.627772 
    0.276758     0.488242     0.401502 
    0.359510     0.483663     0.640691 
    0.305525     0.556641     0.583170 
    0.606383     0.569979     0.642998 
    0.277832     0.559648     0.478707 
    0.360563     0.322873     0.471609 
    0.631263     0.467328     0.648443 
    0.624110     0.360173     0.454187 
    0.696664     0.535132     0.596303 
    0.650903     0.624122     0.561407 
    0.617092     0.647745     0.459581 
    0.588521     0.420485     0.364960 
EA46665 17.481 15.039 14.922 90.00 90.00 90.00 Sym.group:    0
1.0
   17.480538     0.000000     0.000000
    0.000000    15.038586     0.000000
    0.000000     0.000000    14.922375
   W   B
  17  14
Direct
    0.411872     0.495332     0.494849 
    0.445394     0.668796     0.483462 
    0.369039     0.487999     0.669795 
    0.495642     0.405132     0.635134 
    0.490519     0.580973     0.632871 
    0.613144     0.482880     0.700055 
    0.580062     0.501726     0.505091 
    0.715543     0.498864     0.409386 
    0.489972     0.563992     0.354778 
    0.682547     0.644506     0.485721 
    0.644618     0.358379     0.594707 
    0.497219     0.388334     0.377841 
    0.339445     0.353877     0.429520 
    0.370663     0.460409     0.312751 
    0.642900     0.351243     0.417091 
    0.718268     0.511243     0.581005 
    0.270698     0.504478     0.423535 
    0.363860     0.601132     0.386910 
    0.325070     0.622070     0.489395 
    0.369302     0.615439     0.593495 
    0.622056     0.605821     0.614712 
    0.374924     0.369469     0.578772 
    0.296678     0.433145     0.553276 
    0.565251     0.658367     0.429074 
    0.618832     0.585010     0.368875 
    0.447946     0.341653     0.509569 
    0.736744     0.383896     0.502760 
    0.598383     0.476755     0.347750 
    0.543898     0.341676     0.508407 
    0.564912     0.663053     0.543201 
    0.294599     0.544352     0.566214 
EA46591 16.641 16.156 14.305 90.00 90.00 90.00 Sym.group:    0
1.0
   16.641136     0.000000     0.000000
    0.000000    16.156341     0.000000
    0.000000     0.000000    14.304543
   W   B
  17  15
Direct
    0.490174     0.593360     0.377639 
    0.397802     0.455887     0.321077 
    0.491497     0.352743     0.426857 
    0.574289     0.486366     0.496518 
    0.657540     0.626911     0.440059 
    0.637943     0.383549     0.349037 
    0.708924     0.523371     0.575568 
    0.662692     0.674202     0.597938 
    0.627367     0.294854     0.477809 
    0.267896     0.554161     0.540489 
    0.408418     0.494638     0.501879 
    0.275270     0.403379     0.557233 
    0.265250     0.460055     0.393706 
    0.478911     0.507864     0.669628 
    0.514941     0.635851     0.560864 
    0.361317     0.668201     0.485544 
    0.520098     0.364463     0.603323 
    0.467645     0.720146     0.441662 
    0.612499     0.524358     0.349615 
    0.701364     0.407043     0.483005 
    0.653985     0.389989     0.588401 
    0.563064     0.709957     0.437974 
    0.696721     0.493421     0.414570 
    0.530125     0.462522     0.336996 
    0.391720     0.404377     0.639640 
    0.344752     0.500240     0.649378 
    0.384234     0.599003     0.614222 
    0.349089     0.573277     0.383483 
    0.397858     0.346319     0.538935 
    0.353575     0.365372     0.434167 
    0.603581     0.564042     0.654001 
    0.609458     0.460079     0.658781 
EA46793 17.147 14.645 14.354 90.00 90.00 90.00 Sym.group:    0
1.0
   17.146970     0.000000     0.000000
    0.000000    14.645225     0.000000
    0.000000     0.000000    14.354106
   W   B
  18  11
Direct
    0.537992     0.593505     0.330217 
    0.490817     0.429249     0.356492 
    0.398103     0.295771     0.414390 
    0.516220     0.312073     0.510570 
    0.516994     0.403411     0.668348 
    0.727083     0.464958     0.437993 
    0.579216     0.495076     0.502813 
    0.627674     0.501116     0.700399 
    0.665736     0.372780     0.580857 
    0.636949     0.338359     0.415239 
    0.505787     0.585474     0.633634 
    0.568450     0.676073     0.482671 
    0.386719     0.570624     0.334781 
    0.423282     0.471969     0.509911 
    0.345954     0.598484     0.610129 
    0.279767     0.527757     0.457444 
    0.383360     0.329440     0.596099 
    0.278492     0.447856     0.612714 
    0.624801     0.479502     0.345440 
    0.653548     0.587097     0.389106 
    0.702981     0.522552     0.578952 
    0.686104     0.603846     0.497529 
    0.635797     0.612823     0.598361 
    0.367840     0.639635     0.466366 
    0.451815     0.672198     0.413476 
    0.445477     0.680005     0.532358 
    0.353291     0.430137     0.377439 
    0.403575     0.476833     0.671715 
    0.306178     0.381398     0.474555 
EA46734 17.397 14.213 14.622 90.00 90.00 90.00 Sym.group:    0
1.0
   17.397274     0.000000     0.000000
    0.000000    14.213343     0.000000
    0.000000     0.000000    14.622098
   W   B
  18  12
Direct
    0.533202     0.606515     0.622970 
    0.419702     0.508858     0.510432 
    0.334627     0.652132     0.442337 
    0.621723     0.337614     0.630148 
    0.283106     0.407474     0.526734 
    0.631439     0.622847     0.373514 
    0.494618     0.671286     0.455711 
    0.576487     0.492327     0.492712 
    0.700047     0.451166     0.389740 
    0.719242     0.445828     0.563083 
    0.517922     0.326584     0.498928 
    0.321814     0.463121     0.373037 
    0.292496     0.569971     0.605931 
    0.468683     0.419763     0.354333 
    0.495936     0.424906     0.653469 
    0.625488     0.706671     0.519885 
    0.397283     0.692479     0.584244 
    0.602336     0.333818     0.345720 
    0.662247     0.579957     0.600317 
    0.253071     0.544644     0.469482 
    0.366485     0.444890     0.642531 
    0.616465     0.488908     0.653133 
    0.397739     0.357622     0.571204 
    0.584925     0.484785     0.323220 
    0.419117     0.568429     0.362019 
    0.390375     0.354180     0.455642 
    0.647693     0.343409     0.483752 
    0.700718     0.582025     0.490749 
    0.409334     0.551486     0.665685 
    0.515676     0.566309     0.339339 
EA22247 16.950 15.899 14.645 90.00 90.00 90.00 Sym.group:    0
1.0
   16.949925     0.000000     0.000000
    0.000000    15.899326     0.000000
    0.000000     0.000000    14.645055
   W   B
  18  13
Direct
    0.414763     0.486727     0.517291 
    0.371927     0.421885     0.667488 
    0.494778     0.334990     0.588946 
    0.487481     0.362029     0.413940 
    0.709733     0.417779     0.494806 
    0.275769     0.418493     0.530338 
    0.581513     0.487851     0.503695 
    0.383683     0.658905     0.519483 
    0.434969     0.591739     0.672840 
    0.299802     0.560426     0.637029 
    0.525679     0.467637     0.684484 
    0.569194     0.590540     0.357933 
    0.625212     0.648857     0.509804 
    0.671037     0.515790     0.652655 
    0.437268     0.491620     0.334293 
    0.510146     0.725935     0.446236 
    0.367640     0.302532     0.514435 
    0.648782     0.365064     0.639963 
    0.313143     0.487181     0.400984 
    0.602724     0.333981     0.498387 
    0.617963     0.381106     0.394799 
    0.357977     0.393630     0.402103 
    0.655816     0.475578     0.360616 
    0.723712     0.555285     0.525446 
    0.565153     0.592425     0.628091 
    0.691651     0.554647     0.419863 
    0.507233     0.668291     0.575675 
    0.356655     0.579867     0.403789 
    0.290122     0.557853     0.487102 
    0.562299     0.449585     0.329813 
    0.446177     0.621775     0.387673 
EA21812 17.474 14.422 14.373 90.00 90.00 90.00 Sym.group:    0
1.0
   17.473567     0.000000     0.000000
    0.000000    14.422032     0.000000
    0.000000     0.000000    14.373042
   W   B
  18  14
Direct
    0.513822     0.367594     0.426531 
    0.550272     0.375150     0.616765 
    0.590818     0.509305     0.499259 
    0.739318     0.527384     0.555713 
    0.636075     0.642662     0.624601 
    0.705242     0.525076     0.373955 
    0.427087     0.470544     0.311879 
    0.488801     0.624859     0.402604 
    0.570687     0.500376     0.307542 
    0.432807     0.481997     0.665199 
    0.421156     0.316322     0.559870 
    0.488750     0.637262     0.586985 
    0.289298     0.458899     0.369220 
    0.401084     0.500575     0.493913 
    0.339043     0.617404     0.348989 
    0.270487     0.610637     0.493187 
    0.747414     0.382714     0.463639 
    0.632775     0.293582     0.501502 
    0.644964     0.489960     0.650448 
    0.638720     0.393692     0.382774 
    0.681232     0.395593     0.596775 
    0.586506     0.676943     0.489921 
    0.614996     0.631840     0.385657 
    0.315199     0.367255     0.493688 
    0.384027     0.355192     0.410487 
    0.555108     0.529829     0.666602 
    0.267085     0.464375     0.523249 
    0.308479     0.520883     0.615312 
    0.384161     0.666744     0.496814 
    0.330609     0.408514     0.603811 
    0.679655     0.640746     0.477089 
    0.364323     0.616091     0.606017 
EA46556 17.105 15.989 14.586 90.00 90.00 90.00 Sym.group:    0
1.0
   17.105152     0.000000     0.000000
    0.000000    15.989469     0.000000
    0.000000     0.000000    14.586117
   W   B
  18  15
Direct
    0.602373     0.330741     0.525849 
    0.466612     0.381076     0.601953 
    0.502089     0.521915     0.682716 
    0.579290     0.506571     0.505986 
    0.485674     0.376671     0.411001 
    0.477486     0.241108     0.520938 
    0.720037     0.413556     0.460465 
    0.358649     0.317084     0.495896 
    0.645480     0.539213     0.683351 
    0.544615     0.648429     0.582229 
    0.328353     0.430798     0.635312 
    0.689925     0.645759     0.561617 
    0.488700     0.642070     0.418586 
    0.635606     0.650456     0.404313 
    0.369318     0.666477     0.534355 
    0.412062     0.511688     0.503032 
    0.261888     0.444687     0.489205 
    0.441405     0.514958     0.323297 
    0.677219     0.424952     0.602678 
    0.707568     0.548129     0.451644 
    0.717137     0.512338     0.561040 
    0.586744     0.415294     0.646955 
    0.613438     0.398582     0.391478 
    0.361453     0.566704     0.653156 
    0.647783     0.506861     0.365623 
    0.558979     0.458810     0.325037 
    0.565365     0.563383     0.322492 
    0.319259     0.517058     0.374782 
    0.358377     0.418503     0.388815 
    0.291882     0.556738     0.571921 
    0.362880     0.613522     0.389798 
    0.433933     0.635480     0.654895 
    0.288423     0.580388     0.459582 
EA36575 17.380 15.337 14.723 90.00 90.00 90.00 Sym.group:    0
1.0
   17.380437     0.000000     0.000000
    0.000000    15.336637     0.000000
    0.000000     0.000000    14.723217
   W   B
  19  11
Direct
    0.410741     0.501574     0.500878 
    0.372359     0.682208     0.479569 
    0.452374     0.610191     0.620470 
    0.481662     0.440423     0.650313 
    0.354808     0.368805     0.581383 
    0.506732     0.641484     0.431576 
    0.590286     0.673476     0.572833 
    0.557802     0.335009     0.415250 
    0.699349     0.613726     0.480547 
    0.577891     0.500867     0.503204 
    0.696357     0.431702     0.394407 
    0.624906     0.564028     0.344039 
    0.637544     0.427541     0.660598 
    0.488208     0.473008     0.347125 
    0.405543     0.343977     0.411457 
    0.351166     0.505627     0.690324 
    0.738553     0.466588     0.557181 
    0.274070     0.408118     0.442115 
    0.279998     0.569677     0.435396 
    0.322075     0.594775     0.578858 
    0.619555     0.698547     0.415430 
    0.565095     0.355170     0.566836 
    0.651164     0.368857     0.517519 
    0.600867     0.421257     0.308958 
    0.474796     0.335361     0.535004 
    0.395147     0.580617     0.365746 
    0.283011     0.492351     0.564087 
    0.356775     0.477847     0.354168 
    0.569734     0.552750     0.656444 
    0.661429     0.564439     0.618286 
EA46669 16.848 15.866 14.520 90.00 90.00 90.00 Sym.group:    0
1.0
   16.848026     0.000000     0.000000
    0.000000    15.866298     0.000000
    0.000000     0.000000    14.519544
   W   B
  19  12
Direct
    0.597225     0.507852     0.703564 
    0.531263     0.334401     0.488480 
    0.703569     0.362709     0.503774 
    0.498851     0.453164     0.342270 
    0.529212     0.609122     0.402199 
    0.685790     0.608546     0.428041 
    0.591813     0.485845     0.508892 
    0.681114     0.603005     0.596001 
    0.623804     0.366181     0.357976 
    0.407294     0.331491     0.382330 
    0.480571     0.426863     0.657827 
    0.416847     0.484993     0.497145 
    0.296075     0.555309     0.440286 
    0.375528     0.332463     0.543914 
    0.456466     0.748443     0.497755 
    0.508246     0.602900     0.596440 
    0.360194     0.650977     0.565973 
    0.611581     0.351525     0.637896 
    0.590783     0.718656     0.511591 
    0.703218     0.470856     0.403656 
    0.734094     0.498761     0.511261 
    0.620931     0.509186     0.348795 
    0.391657     0.537501     0.650768 
    0.307183     0.407841     0.430043 
    0.286905     0.439766     0.538184 
    0.397285     0.646266     0.419191 
    0.360819     0.460822     0.346200 
    0.405952     0.558669     0.351277 
    0.301890     0.532167     0.591641 
    0.697095     0.462565     0.613116 
    0.346750     0.441155     0.633516 
EA41184 16.727 15.790 14.639 90.00 90.00 90.00 Sym.group:    0
1.0
   16.726972     0.000000     0.000000
    0.000000    15.790107     0.000000
    0.000000     0.000000    14.639339
   W   B
  19  13
Direct
    0.449068     0.570427     0.303797 
    0.415572     0.505778     0.491523 
    0.285221     0.417443     0.558925 
    0.366885     0.664352     0.595474 
    0.417862     0.415845     0.658284 
    0.523562     0.629588     0.585208 
    0.268705     0.584749     0.509711 
    0.403984     0.670931     0.436505 
    0.600045     0.685793     0.442217 
    0.493084     0.418480     0.354287 
    0.580184     0.396223     0.662843 
    0.722577     0.606110     0.421147 
    0.583609     0.493935     0.507890 
    0.710992     0.444206     0.428478 
    0.642833     0.540742     0.673770 
    0.602967     0.545324     0.330455 
    0.498069     0.349055     0.524159 
    0.360105     0.350222     0.422023 
    0.363291     0.286321     0.578130 
    0.364281     0.469670     0.340006 
    0.329987     0.567623     0.376889 
    0.290063     0.473197     0.419263 
    0.661277     0.626315     0.556497 
    0.517013     0.519338     0.687449 
    0.426530     0.557155     0.660057 
    0.511580     0.589988     0.430442 
    0.332762     0.529991     0.630052 
    0.692293     0.434468     0.584873 
    0.719597     0.533747     0.549864 
    0.623027     0.409500     0.326688 
    0.639640     0.356591     0.530523 
    0.603332     0.356893     0.422575 
EA42499 17.198 15.940 14.463 90.00 90.00 90.00 Sym.group:    0
1.0
   17.197652     0.000000     0.000000
    0.000000    15.939753     0.000000
    0.000000     0.000000    14.462715
   W   B
  19  14
Direct
    0.402771     0.679989     0.462462 
    0.481515     0.446420     0.340559 
    0.519960     0.598847     0.400710 
    0.309765     0.459489     0.350443 
    0.508786     0.334935     0.472060 
    0.402112     0.488986     0.494519 
    0.349397     0.643367     0.607404 
    0.316560     0.395433     0.621815 
    0.278609     0.583213     0.441020 
    0.559995     0.750108     0.437522 
    0.494606     0.743844     0.578519 
    0.627217     0.512671     0.321077 
    0.582566     0.477763     0.500713 
    0.728701     0.535636     0.472172 
    0.619625     0.365767     0.631493 
    0.475488     0.409727     0.630039 
    0.611827     0.511787     0.691751 
    0.489757     0.580353     0.609847 
    0.624196     0.648071     0.548870 
    0.393670     0.562887     0.357056 
    0.597780     0.385048     0.369140 
    0.392630     0.332740     0.527946 
    0.394208     0.357950     0.406268 
    0.375524     0.513816     0.653081 
    0.263537     0.457854     0.499590 
    0.313230     0.371895     0.470677 
    0.290099     0.525083     0.586320 
    0.648397     0.626875     0.404370 
    0.636886     0.341838     0.470535 
    0.707209     0.568013     0.617292 
    0.686238     0.420275     0.403860 
    0.707478     0.403251     0.515610 
    0.709658     0.466069     0.605262 
EA22095 17.110 14.896 14.445 90.00 90.00 90.00 Sym.group:    0
1.0
   17.109942     0.000000     0.000000
    0.000000    14.895878     0.000000
    0.000000     0.000000    14.444675
   W   B
  19  15
Direct
    0.305373     0.356137     0.581249 
    0.516057     0.652905     0.617272 
    0.425643     0.532594     0.494662 
    0.378412     0.603063     0.664295 
    0.385003     0.452436     0.342533 
    0.421711     0.619401     0.302987 
    0.505915     0.673594     0.437713 
    0.287177     0.627399     0.528958 
    0.268198     0.461276     0.458767 
    0.596714     0.512228     0.505545 
    0.599228     0.362127     0.389158 
    0.740168     0.576783     0.452465 
    0.637320     0.641947     0.359341 
    0.531936     0.512558     0.333356 
    0.541461     0.348384     0.551924 
    0.508472     0.480632     0.662398 
    0.654433     0.429204     0.665968 
    0.652673     0.675092     0.543532 
    0.687273     0.322897     0.542817 
    0.377198     0.455512     0.664739 
    0.425696     0.366762     0.624627 
    0.416011     0.311720     0.525408 
    0.405265     0.689468     0.541916 
    0.320129     0.583784     0.388657 
    0.374422     0.674630     0.431498 
    0.351215     0.347520     0.443815 
    0.303551     0.500478     0.600301 
    0.710023     0.429941     0.437204 
    0.661288     0.491974     0.358411 
    0.707672     0.554085     0.604717 
    0.458139     0.345012     0.420789 
    0.732206     0.458212     0.548460 
    0.621525     0.576950     0.659106 
    0.492492     0.373294     0.315413 
EA46670 16.881 15.871 14.587 90.00 90.00 90.00 Sym.group:    0
1.0
   16.881022     0.000000     0.000000
    0.000000    15.871395     0.000000
    0.000000     0.000000    14.587131
   W   B
  20  11
Direct
    0.600603     0.504186     0.704718 
    0.530774     0.337491     0.485783 
    0.704370     0.364150     0.502062 
    0.499786     0.456571     0.342787 
    0.529163     0.613836     0.406355 
    0.683825     0.612953     0.425357 
    0.592785     0.488081     0.507337 
    0.675146     0.602382     0.596641 
    0.623109     0.370813     0.355701 
    0.413234     0.332771     0.372467 
    0.480683     0.418587     0.652039 
    0.417349     0.482777     0.498954 
    0.295496     0.553190     0.438943 
    0.369766     0.330769     0.538396 
    0.456820     0.748268     0.504288 
    0.508664     0.601709     0.598200 
    0.360353     0.648189     0.565835 
    0.618217     0.351018     0.635843 
    0.333043     0.418472     0.671977 
    0.592943     0.723229     0.509286 
    0.704010     0.474928     0.402257 
    0.733795     0.502711     0.508949 
    0.621571     0.513589     0.347747 
    0.392391     0.537632     0.650600 
    0.310982     0.408195     0.425276 
    0.283110     0.437617     0.531930 
    0.396365     0.648917     0.421208 
    0.364758     0.462318     0.345821 
    0.407671     0.560701     0.355829 
    0.300699     0.529192     0.587245 
    0.698514     0.464756     0.610166 
EA46593 16.191 16.294 15.902 90.00 90.00 90.00 Sym.group:    0
1.0
   16.191078     0.000000     0.000000
    0.000000    16.294439     0.000000
    0.000000     0.000000    15.901803
   W   B
  20  12
Direct
    0.626010     0.478639     0.693592 
    0.743641     0.408224     0.467960 
    0.506800     0.627699     0.446217 
    0.662484     0.648115     0.447747 
    0.587327     0.484598     0.495841 
    0.655063     0.602116     0.603108 
    0.492983     0.414656     0.650852 
    0.429070     0.709816     0.576614 
    0.494655     0.578364     0.619132 
    0.641797     0.359463     0.593389 
    0.577317     0.728981     0.553658 
    0.479572     0.498322     0.343660 
    0.413938     0.488887     0.499893 
    0.305052     0.366395     0.477772 
    0.323308     0.590734     0.589219 
    0.476389     0.336428     0.509179 
    0.628889     0.429508     0.336265 
    0.310973     0.472863     0.364474 
    0.630187     0.316178     0.443351 
    0.360640     0.346086     0.625566 
    0.695972     0.523560     0.402324 
    0.728770     0.540786     0.504483 
    0.375179     0.483101     0.651983 
    0.711660     0.475934     0.585707 
    0.301338     0.579613     0.450429 
    0.411963     0.384298     0.390913 
    0.370524     0.653400     0.470807 
    0.384705     0.590052     0.385074 
    0.292649     0.454345     0.587509 
    0.602564     0.561282     0.359399 
    0.264508     0.495127     0.495947 
    0.514072     0.372427     0.377938 
EA24817 17.148 15.868 14.589 90.00 90.00 90.00 Sym.group:    0
1.0
   17.148304     0.000000     0.000000
    0.000000    15.867765     0.000000
    0.000000     0.000000    14.589227
   W   B
  20  13
Direct
    0.601710     0.329356     0.509191 
    0.464114     0.365719     0.597850 
    0.490314     0.503155     0.685613 
    0.581623     0.509064     0.492125 
    0.486159     0.384915     0.409731 
    0.475087     0.238803     0.497946 
    0.722667     0.416500     0.457571 
    0.352348     0.316481     0.486627 
    0.633977     0.530218     0.682955 
    0.545671     0.637321     0.592688 
    0.329259     0.418753     0.636665 
    0.483245     0.655045     0.427574 
    0.637020     0.662844     0.437046 
    0.365798     0.665916     0.550493 
    0.412408     0.511782     0.514131 
    0.259810     0.444332     0.491255 
    0.437087     0.527218     0.330550 
    0.753262     0.574327     0.449629 
    0.677034     0.510703     0.320454 
    0.568580     0.607455     0.293292 
    0.671916     0.422010     0.597452 
    0.719880     0.509837     0.571721 
    0.582032     0.410049     0.637573 
    0.613364     0.398650     0.376052 
    0.361262     0.554184     0.665742 
    0.555338     0.468662     0.318327 
    0.315861     0.522813     0.384124 
    0.355528     0.424105     0.388811 
    0.290302     0.550084     0.585583 
    0.361300     0.617114     0.407104 
    0.433769     0.622334     0.659463 
    0.287174     0.580438     0.475481 
    0.675100     0.609812     0.569184 
EA46554 17.429 16.096 15.101 90.00 90.00 90.00 Sym.group:    0
1.0
   17.428954     0.000000     0.000000
    0.000000    16.095930     0.000000
    0.000000     0.000000    15.100755
   W   B
  20  14
Direct
    0.402890     0.380909     0.577509 
    0.422139     0.384425     0.408496 
    0.301797     0.504784     0.616267 
    0.527525     0.546944     0.362694 
    0.292510     0.476851     0.442240 
    0.583486     0.308485     0.396908 
    0.551568     0.442055     0.493246 
    0.389992     0.631198     0.628038 
    0.423969     0.532786     0.495852 
    0.703614     0.379680     0.496756 
    0.533329     0.569458     0.625375 
    0.628941     0.432606     0.635635 
    0.506515     0.684427     0.506256 
    0.650881     0.586067     0.468303 
    0.658551     0.433251     0.357811 
    0.565407     0.697531     0.357005 
    0.292900     0.319515     0.441698 
    0.646149     0.740643     0.471093 
    0.390872     0.520510     0.316815 
    0.252326     0.363889     0.576017 
    0.305563     0.603564     0.514552 
    0.523790     0.343850     0.614647 
    0.598098     0.313676     0.546182 
    0.722477     0.500790     0.562224 
    0.617302     0.661629     0.585188 
    0.423428     0.499921     0.655336 
    0.502483     0.307938     0.509245 
    0.428166     0.641102     0.389944 
    0.379380     0.672308     0.487074 
    0.334158     0.609572     0.407170 
    0.745168     0.496180     0.453385 
    0.660875     0.565474     0.616175 
    0.501199     0.436129     0.658209 
    0.532552     0.411851     0.326657 
EA46553 17.282 16.303 15.461 90.00 90.00 90.00 Sym.group:    0
1.0
   17.281649     0.000000     0.000000
    0.000000    16.303163     0.000000
    0.000000     0.000000    15.460691
   W   B
  20  15
Direct
    0.611961     0.688187     0.524393 
    0.614228     0.569016     0.634583 
    0.505532     0.724079     0.623339 
    0.483791     0.594630     0.710491 
    0.542436     0.623279     0.385504 
    0.489065     0.584592     0.533618 
    0.361988     0.541254     0.626517 
    0.367844     0.679398     0.543964 
    0.324555     0.489802     0.377997 
    0.420524     0.446129     0.492666 
    0.490023     0.319090     0.446959 
    0.490660     0.465066     0.344226 
    0.274305     0.439821     0.536517 
    0.580472     0.460344     0.490687 
    0.639014     0.396717     0.633612 
    0.738072     0.493775     0.423904 
    0.630380     0.288583     0.511704 
    0.636551     0.370746     0.376426 
    0.492203     0.448392     0.655643 
    0.639064     0.511826     0.314249 
    0.698711     0.585243     0.523303 
    0.703836     0.490082     0.564960 
    0.421067     0.579575     0.358223 
    0.425811     0.670260     0.418444 
    0.489548     0.720258     0.479174 
    0.341614     0.618953     0.416814 
    0.302747     0.564940     0.497723 
    0.664760     0.601345     0.420876 
    0.326908     0.359158     0.434044 
    0.394793     0.377572     0.359246 
    0.369377     0.399332     0.623913 
    0.704482     0.396924     0.508434 
    0.438492     0.333791     0.585769 
    0.533808     0.335921     0.583954 
    0.351382     0.331921     0.538123 
