EA17   15.494 14.932 14.896 90.00 90.00 90.00 Sym.group:    0
1.0
   15.494284     0.000000     0.000000
    0.000000    14.931669     0.000000
    0.000000     0.000000    14.896422
   W   B
  20  15
Direct
    0.586811     0.601070     0.287618 
    0.586997     0.329420     0.338407 
    0.587732     0.293186     0.611794 
    0.588735     0.542819     0.730186 
    0.585542     0.733136     0.531243 
    0.671317     0.293491     0.471442 
    0.671135     0.408933     0.687978 
    0.670288     0.652903     0.644698 
    0.669238     0.683163     0.400736 
    0.670121     0.463733     0.293899 
    0.366361     0.625273     0.429587 
    0.364009     0.470610     0.355482 
    0.367294     0.362565     0.483026 
    0.363762     0.437708     0.635039 
    0.366392     0.602944     0.596738 
    0.217178     0.542699     0.368430 
    0.211963     0.388611     0.426285 
    0.213862     0.389455     0.579031 
    0.215541     0.546759     0.630725 
    0.211154     0.632225     0.498081 
    0.520155     0.629161     0.622733 
    0.518970     0.656294     0.414428 
    0.520753     0.467237     0.323981 
    0.519870     0.323571     0.476908 
    0.520532     0.422837     0.661971 
    0.472092     0.533045     0.666182 
    0.470915     0.666708     0.518787 
    0.471014     0.569248     0.345393 
    0.472212     0.376072     0.385371 
    0.471757     0.353088     0.584622 
    0.671339     0.543100     0.411244 
    0.671550     0.429273     0.430432 
    0.671453     0.413395     0.545952 
    0.671070     0.517928     0.597901 
    0.670889     0.598338     0.513671 
EA450  17.456 16.952 16.477 90.00 90.00 90.00 Sym.group:    0
1.0
   17.456344     0.000000     0.000000
    0.000000    16.951801     0.000000
    0.000000     0.000000    16.476933
   W   B
  20  13
Direct
    0.509933     0.639151     0.517393 
    0.532624     0.564757     0.376403 
    0.532817     0.409269     0.398345 
    0.510271     0.388130     0.561293 
    0.501062     0.530167     0.629122 
    0.375333     0.500698     0.482395 
    0.627441     0.604446     0.629239 
    0.644862     0.643539     0.452352 
    0.660293     0.488957     0.356478 
    0.645980     0.355785     0.477405 
    0.625843     0.424551     0.644638 
    0.310235     0.471767     0.351112 
    0.318163     0.345732     0.455351 
    0.302936     0.437157     0.596391 
    0.291437     0.602885     0.583209 
    0.297484     0.611491     0.418404 
    0.621991     0.504271     0.508899 
    0.446301     0.295592     0.454276 
    0.414599     0.409110     0.677781 
    0.410877     0.651880     0.633281 
    0.420890     0.633663     0.415733 
    0.434346     0.476797     0.333732 
    0.731803     0.549013     0.445086 
    0.732963     0.446071     0.456787 
    0.720907     0.423197     0.558799 
    0.713510     0.511807     0.611707 
    0.721158     0.588084     0.541360 
    0.395871     0.567829     0.344622 
    0.405323     0.390022     0.371757 
    0.388067     0.345452     0.564885 
    0.373719     0.529442     0.652855 
    0.381169     0.654130     0.506204 
    0.499796     0.505156     0.492701 
EA853  17.769 17.434 17.187 90.00 90.00 90.00 Sym.group:    0
1.0
   17.769430     0.000000     0.000000
    0.000000    17.433820     0.000000
    0.000000     0.000000    17.186558
   W   B
  18  13
Direct
    0.499299     0.500152     0.499796 
    0.630561     0.490224     0.584912 
    0.629211     0.495490     0.420277 
    0.372870     0.505214     0.577950 
    0.415242     0.369882     0.498587 
    0.518453     0.591900     0.365599 
    0.584000     0.631668     0.519674 
    0.505877     0.584796     0.638446 
    0.424136     0.638394     0.509851 
    0.497594     0.421713     0.360470 
    0.574561     0.353235     0.484713 
    0.500491     0.416448     0.626830 
    0.702389     0.379696     0.537453 
    0.710008     0.597167     0.469666 
    0.597142     0.489244     0.280883 
    0.495508     0.232803     0.488966 
    0.469737     0.524046     0.252502 
    0.476686     0.722085     0.611663 
    0.311927     0.429259     0.484916 
    0.421475     0.496276     0.690842 
    0.497166     0.695623     0.421374 
    0.478477     0.308585     0.402624 
    0.407412     0.519603     0.355104 
    0.580931     0.492432     0.698148 
    0.494680     0.305225     0.580627 
    0.282619     0.513806     0.478437 
    0.733215     0.486637     0.500742 
    0.498602     0.491161     0.735237 
    0.510026     0.738816     0.502064 
    0.315356     0.596024     0.492294 
    0.364350     0.482398     0.429352 
EA1233 17.335 17.628 16.959 90.00 90.00 90.00 Sym.group:    0
1.0
   17.334503     0.000000     0.000000
    0.000000    17.628008     0.000000
    0.000000     0.000000    16.958509
   W   B
  19  12
Direct
    0.506787     0.503391     0.503598 
    0.560427     0.375519     0.578187 
    0.535649     0.367730     0.412097 
    0.436144     0.623601     0.425139 
    0.472039     0.637922     0.583950 
    0.599279     0.627329     0.470050 
    0.411223     0.461234     0.392681 
    0.402695     0.377402     0.525732 
    0.449757     0.478665     0.650292 
    0.347478     0.531308     0.538888 
    0.556339     0.528328     0.356206 
    0.651972     0.466029     0.465804 
    0.603115     0.535929     0.610672 
    0.676592     0.333629     0.516914 
    0.465194     0.263331     0.470145 
    0.316863     0.657931     0.493658 
    0.263526     0.378094     0.556871 
    0.527047     0.742915     0.507141 
    0.272948     0.453844     0.446127 
    0.511985     0.588244     0.690778 
    0.499981     0.417697     0.304212 
    0.670588     0.564259     0.375534 
    0.434061     0.567515     0.314713 
    0.337863     0.435437     0.632779 
    0.569202     0.435699     0.686393 
    0.699923     0.566241     0.539189 
    0.410472     0.728069     0.508110 
    0.582090     0.270735     0.493480 
    0.550307     0.514672     0.728244 
    0.456337     0.490545     0.271915 
    0.722120     0.576755     0.450500 
EA1640 17.259 15.546 14.323 90.00 90.00 90.00 Sym.group:    0
1.0
   17.258805     0.000000     0.000000
    0.000000    15.545707     0.000000
    0.000000     0.000000    14.323370
   W   B
  16  13
Direct
    0.273946     0.496542     0.607443 
    0.362059     0.392006     0.381178 
    0.664137     0.490556     0.622387 
    0.617163     0.653215     0.634958 
    0.650363     0.671133     0.457579 
    0.696194     0.510396     0.446627 
    0.479241     0.343469     0.561307 
    0.427491     0.497861     0.622717 
    0.418547     0.622311     0.483666 
    0.476898     0.533032     0.338688 
    0.508395     0.373649     0.386817 
    0.477538     0.658522     0.650435 
    0.528709     0.683337     0.367701 
    0.555519     0.540919     0.504315 
    0.611907     0.326871     0.634068 
    0.319731     0.361823     0.547649 
    0.600834     0.469212     0.347325 
    0.544047     0.437774     0.650006 
    0.606402     0.574060     0.352060 
    0.636059     0.388751     0.409610 
    0.545844     0.543251     0.673821 
    0.531251     0.692133     0.520172 
    0.267589     0.471059     0.449574 
    0.448387     0.462303     0.472058 
    0.356190     0.489228     0.497503 
    0.672576     0.385221     0.519375 
    0.289065     0.574175     0.483597 
    0.594806     0.322879     0.488899 
    0.339109     0.534315     0.388466 
EA1771 15.306 16.529 16.626 90.00 90.00 90.00 Sym.group:    0
1.0
   15.305687     0.000000     0.000000
    0.000000    16.528871     0.000000
    0.000000     0.000000    16.626377
   W   B
  17  15
Direct
    0.557717     0.465367     0.517563 
    0.664567     0.530663     0.620967 
    0.622805     0.613748     0.466049 
    0.558465     0.485315     0.358910 
    0.673967     0.679162     0.615600 
    0.725884     0.493923     0.470646 
    0.477001     0.337465     0.618883 
    0.645346     0.353194     0.432915 
    0.346323     0.500495     0.352023 
    0.329078     0.657357     0.409309 
    0.261283     0.604302     0.548828 
    0.274461     0.452745     0.498401 
    0.522788     0.633067     0.581129 
    0.471907     0.487896     0.651230 
    0.473718     0.699649     0.433977 
    0.370229     0.623430     0.650661 
    0.409426     0.537183     0.482654 
    0.691594     0.443985     0.352415 
    0.603160     0.403823     0.635524 
    0.747288     0.607619     0.539135 
    0.545985     0.620731     0.358467 
    0.685360     0.402341     0.558896 
    0.440926     0.410202     0.346698 
    0.508228     0.321609     0.498873 
    0.508847     0.369305     0.407844 
    0.604230     0.332044     0.558848 
    0.361732     0.411610     0.600605 
    0.332091     0.506941     0.609781 
    0.383022     0.353600     0.518496 
    0.442398     0.595793     0.345909 
    0.387098     0.676489     0.534536 
    0.373078     0.388945     0.424227 
EA2144 17.165 16.531 14.770 90.00 90.00 90.00 Sym.group:    0
1.0
   17.165269     0.000000     0.000000
    0.000000    16.531270     0.000000
    0.000000     0.000000    14.769797
   W   B
  19  13
Direct
    0.492390     0.351675     0.444788 
    0.474379     0.246616     0.562088 
    0.700271     0.442387     0.612064 
    0.607552     0.339534     0.560684 
    0.474297     0.377573     0.638929 
    0.345875     0.392701     0.402431 
    0.387257     0.473220     0.538622 
    0.638785     0.569233     0.659696 
    0.494449     0.540658     0.693789 
    0.540643     0.503247     0.520304 
    0.341629     0.578575     0.676028 
    0.500799     0.641606     0.392753 
    0.457282     0.496908     0.349078 
    0.446673     0.637033     0.566383 
    0.283963     0.594141     0.526434 
    0.606702     0.655113     0.512851 
    0.641055     0.682389     0.346758 
    0.613565     0.528344     0.366212 
    0.551085     0.684691     0.674931 
    0.611151     0.389521     0.407722 
    0.667920     0.442165     0.473643 
    0.585084     0.441585     0.668019 
    0.384213     0.331111     0.528912 
    0.271879     0.483702     0.458957 
    0.386868     0.463421     0.693431 
    0.388904     0.604687     0.334314 
    0.550850     0.407654     0.319592 
    0.372655     0.636994     0.437751 
    0.454205     0.374401     0.307527 
    0.335706     0.535720     0.393761 
    0.686158     0.541131     0.505622 
    0.705759     0.612263     0.425924 
EA2552 16.599 16.800 15.221 90.00 90.00 90.00 Sym.group:    0
1.0
   16.598704     0.000000     0.000000
    0.000000    16.799976     0.000000
    0.000000     0.000000    15.221304
   W   B
  19  12
Direct
    0.491794     0.442871     0.471372 
    0.527569     0.280720     0.463251 
    0.492899     0.353217     0.330099 
    0.582662     0.389249     0.593838 
    0.334053     0.389519     0.597949 
    0.269988     0.512774     0.587440 
    0.536131     0.499814     0.705407 
    0.581616     0.485820     0.339597 
    0.396857     0.531624     0.359782 
    0.514198     0.613025     0.409216 
    0.386575     0.687984     0.355800 
    0.613345     0.699901     0.489696 
    0.304903     0.605526     0.457164 
    0.668900     0.455927     0.467985 
    0.585622     0.563601     0.574656 
    0.503464     0.696967     0.584290 
    0.640538     0.347111     0.341829 
    0.420183     0.560903     0.556161 
    0.375740     0.312381     0.466618 
    0.376470     0.406044     0.378258 
    0.455334     0.421445     0.636265 
    0.645457     0.328142     0.481273 
    0.462018     0.335911     0.574097 
    0.661677     0.500128     0.674993 
    0.649472     0.583269     0.419393 
    0.401359     0.687597     0.493830 
    0.481947     0.737887     0.449115 
    0.715824     0.536324     0.596061 
    0.709430     0.584430     0.504994 
    0.384837     0.493330     0.671312 
    0.329141     0.456560     0.468260 
EA3010 16.930 15.220 15.413 90.00 90.00 90.00 Sym.group:    0
1.0
   16.930249     0.000000     0.000000
    0.000000    15.220193     0.000000
    0.000000     0.000000    15.412868
   W   B
  17  11
Direct
    0.688189     0.448127     0.478944 
    0.448446     0.561432     0.597221 
    0.628167     0.572785     0.370431 
    0.612358     0.367120     0.593277 
    0.521989     0.475195     0.468953 
    0.304997     0.369527     0.534449 
    0.385260     0.692611     0.467079 
    0.476267     0.459758     0.306571 
    0.474132     0.317032     0.523873 
    0.369257     0.521456     0.440106 
    0.626053     0.415610     0.333771 
    0.472203     0.612427     0.346157 
    0.598024     0.626721     0.628089 
    0.383171     0.390376     0.655676 
    0.531875     0.650797     0.489568 
    0.391034     0.361356     0.395271 
    0.230658     0.511250     0.509866 
    0.729280     0.586828     0.454751 
    0.565295     0.494127     0.644953 
    0.707064     0.573728     0.558655 
    0.323133     0.605027     0.558992 
    0.322776     0.502727     0.603122 
    0.496685     0.424597     0.610075 
    0.276175     0.630064     0.465275 
    0.660856     0.500251     0.618683 
    0.662130     0.652655     0.500301 
    0.518732     0.340560     0.387835 
    0.595791     0.335859     0.458057 
EA3073 16.883 18.180 15.081 90.00 90.00 90.00 Sym.group:    0
1.0
   16.883345     0.000000     0.000000
    0.000000    18.179612     0.000000
    0.000000     0.000000    15.080956
   W   B
  20  14
Direct
    0.666693     0.489541     0.513975 
    0.419053     0.652679     0.633409 
    0.521855     0.705061     0.526306 
    0.532900     0.574184     0.472315 
    0.732835     0.604762     0.460822 
    0.609194     0.637490     0.348122 
    0.527536     0.548326     0.641597 
    0.605444     0.422748     0.666755 
    0.517307     0.420649     0.523598 
    0.441420     0.437303     0.691931 
    0.467333     0.315423     0.656354 
    0.474781     0.281009     0.491484 
    0.399515     0.498799     0.407473 
    0.425384     0.360235     0.374229 
    0.367377     0.528360     0.578194 
    0.363404     0.381456     0.538981 
    0.246932     0.462517     0.495230 
    0.473993     0.589620     0.300364 
    0.559283     0.474153     0.352787 
    0.384521     0.639497     0.463725 
    0.656048     0.531817     0.651772 
    0.639410     0.603296     0.576940 
    0.638488     0.670855     0.493313 
    0.667125     0.538968     0.377122 
    0.630765     0.391616     0.433943 
    0.582135     0.315176     0.590364 
    0.650910     0.371673     0.541455 
    0.596742     0.312742     0.479564 
    0.553460     0.349758     0.387332 
    0.257476     0.603935     0.513485 
    0.291295     0.557681     0.432966 
    0.488193     0.681952     0.387615 
    0.309537     0.401737     0.405819 
    0.301659     0.644982     0.590661 
EA3073 16.883 18.180 15.081 90.00 90.00 90.00 Sym.group:    0
1.0
   16.883345     0.000000     0.000000
    0.000000    18.179612     0.000000
    0.000000     0.000000    15.080956
   W   B
  20  14
Direct
    0.666693     0.489541     0.513975 
    0.419053     0.652679     0.633409 
    0.521855     0.705061     0.526306 
    0.532900     0.574184     0.472315 
    0.732835     0.604762     0.460822 
    0.609194     0.637490     0.348122 
    0.527536     0.548326     0.641597 
    0.605444     0.422748     0.666755 
    0.517307     0.420649     0.523598 
    0.441420     0.437303     0.691931 
    0.467333     0.315423     0.656354 
    0.474781     0.281009     0.491484 
    0.399515     0.498799     0.407473 
    0.425384     0.360235     0.374229 
    0.367377     0.528360     0.578194 
    0.363404     0.381456     0.538981 
    0.246932     0.462517     0.495230 
    0.473993     0.589620     0.300364 
    0.559283     0.474153     0.352787 
    0.384521     0.639497     0.463725 
    0.656048     0.531817     0.651772 
    0.639410     0.603296     0.576940 
    0.638488     0.670855     0.493313 
    0.667125     0.538968     0.377122 
    0.630765     0.391616     0.433943 
    0.582135     0.315176     0.590364 
    0.650910     0.371673     0.541455 
    0.596742     0.312742     0.479564 
    0.553460     0.349758     0.387332 
    0.257476     0.603935     0.513485 
    0.291295     0.557681     0.432966 
    0.488193     0.681952     0.387615 
    0.309537     0.401737     0.405819 
    0.301659     0.644982     0.590661 
EA3412 16.546 16.713 15.344 90.00 90.00 90.00 Sym.group:    0
1.0
   16.545730     0.000000     0.000000
    0.000000    16.712583     0.000000
    0.000000     0.000000    15.343817
   W   B
  19  15
Direct
    0.566743     0.354502     0.523888 
    0.367925     0.555197     0.693475 
    0.319853     0.429011     0.621567 
    0.427968     0.450484     0.493778 
    0.444918     0.311349     0.425183 
    0.486988     0.457918     0.661376 
    0.647667     0.445401     0.648820 
    0.581375     0.515782     0.513690 
    0.560313     0.584004     0.695336 
    0.680124     0.606849     0.617937 
    0.689471     0.596857     0.440346 
    0.455003     0.570949     0.386145 
    0.581082     0.507005     0.323438 
    0.462279     0.612829     0.567608 
    0.470491     0.712922     0.435208 
    0.319298     0.509868     0.364880 
    0.439630     0.416632     0.311713 
    0.307745     0.565653     0.524004 
    0.428932     0.319630     0.611073 
    0.555104     0.344614     0.666420 
    0.335477     0.346635     0.505520 
    0.548215     0.388173     0.384027 
    0.644018     0.417701     0.414186 
    0.727460     0.501923     0.545725 
    0.689015     0.409581     0.520286 
    0.734577     0.470283     0.443607 
    0.703717     0.487529     0.347322 
    0.357884     0.693941     0.520336 
    0.349304     0.650090     0.422739 
    0.287510     0.437229     0.479688 
    0.574678     0.633227     0.378778 
    0.343890     0.661466     0.619132 
    0.577840     0.652658     0.494230 
    0.333510     0.382107     0.398540 
EA3900 18.082 15.559 14.830 90.00 90.00 90.00 Sym.group:    0
1.0
   18.081858     0.000000     0.000000
    0.000000    15.558680     0.000000
    0.000000     0.000000    14.830084
   W   B
  20  11
Direct
    0.411745     0.468372     0.354187 
    0.514787     0.656998     0.508888 
    0.673586     0.684824     0.556871 
    0.270245     0.532241     0.391224 
    0.382282     0.558058     0.534661 
    0.701487     0.575800     0.384527 
    0.616322     0.424575     0.369998 
    0.239534     0.543207     0.542222 
    0.564337     0.570415     0.343691 
    0.371180     0.545464     0.707729 
    0.334487     0.400562     0.488947 
    0.421617     0.409753     0.642532 
    0.499354     0.442139     0.486191 
    0.626822     0.344217     0.526293 
    0.625586     0.546363     0.523686 
    0.502701     0.552173     0.649208 
    0.732082     0.439896     0.459763 
    0.294959     0.670325     0.452162 
    0.641392     0.546364     0.694188 
    0.510224     0.285410     0.439370 
    0.505713     0.369409     0.328196 
    0.521891     0.458714     0.272561 
    0.459803     0.576035     0.416303 
    0.617588     0.671855     0.431122 
    0.433188     0.315009     0.535762 
    0.311915     0.456387     0.620284 
    0.671629     0.436712     0.615066 
    0.519243     0.327418     0.586494 
    0.581035     0.657595     0.633715 
    0.375936     0.609099     0.379793 
    0.567331     0.424614     0.624365 
EA4396 17.757 15.557 14.254 90.00 90.00 90.00 Sym.group:    0
1.0
   17.756576     0.000000     0.000000
    0.000000    15.556760     0.000000
    0.000000     0.000000    14.254467
   W   B
  16  12
Direct
    0.463007     0.442444     0.345302 
    0.458438     0.599989     0.412135 
    0.579271     0.468224     0.452742 
    0.673962     0.391693     0.558032 
    0.657796     0.623503     0.540794 
    0.396101     0.677117     0.560913 
    0.441226     0.332957     0.498060 
    0.395872     0.492196     0.523457 
    0.517398     0.410170     0.635187 
    0.516331     0.575342     0.588480 
    0.396435     0.526917     0.693790 
    0.258738     0.477745     0.460850 
    0.280230     0.586225     0.599304 
    0.306865     0.630761     0.442800 
    0.680951     0.569306     0.378743 
    0.380941     0.375402     0.664966 
    0.353528     0.507543     0.370252 
    0.581005     0.641512     0.418284 
    0.735256     0.511871     0.502461 
    0.563800     0.567254     0.335297 
    0.713172     0.514703     0.613053 
    0.320276     0.371656     0.514462 
    0.534841     0.339474     0.407022 
    0.620610     0.503857     0.625042 
    0.544192     0.689103     0.511386 
    0.705670     0.442198     0.424578 
    0.358215     0.398388     0.404654 
    0.565871     0.332448     0.517954 
EA4592 18.088 15.501 14.306 90.00 90.00 90.00 Sym.group:    0
1.0
   18.087587     0.000000     0.000000
    0.000000    15.500570     0.000000
    0.000000     0.000000    14.306135
   W   B
  20  11
Direct
    0.572488     0.666790     0.479750 
    0.747687     0.523377     0.575232 
    0.622057     0.575536     0.337223 
    0.712657     0.404988     0.457511 
    0.323911     0.669447     0.469465 
    0.715552     0.621234     0.455313 
    0.419316     0.671101     0.596618 
    0.417515     0.515071     0.696910 
    0.545488     0.428338     0.654208 
    0.507107     0.469023     0.329726 
    0.572917     0.328400     0.398751 
    0.402920     0.392057     0.573247 
    0.308963     0.539999     0.601357 
    0.389704     0.571317     0.331015 
    0.441198     0.537445     0.495884 
    0.355062     0.410289     0.383466 
    0.633082     0.308694     0.545526 
    0.538870     0.598624     0.636561 
    0.441977     0.717277     0.418825 
    0.597201     0.488381     0.493866 
    0.640400     0.522358     0.653151 
    0.667280     0.423255     0.618570 
    0.506148     0.605658     0.369571 
    0.516647     0.355227     0.530483 
    0.310312     0.530802     0.441525 
    0.271619     0.447402     0.491583 
    0.298546     0.345824     0.499290 
    0.278661     0.403872     0.595675 
    0.458561     0.378654     0.439244 
    0.653823     0.612188     0.586197 
    0.632331     0.437369     0.344254 
EA5088 17.004 15.142 14.651 90.00 90.00 90.00 Sym.group:    0
1.0
   17.003703     0.000000     0.000000
    0.000000    15.142203     0.000000
    0.000000     0.000000    14.651004
   W   B
  16  11
Direct
    0.612806     0.285975     0.513281 
    0.695342     0.531283     0.573365 
    0.554257     0.642514     0.574876 
    0.617331     0.394923     0.658104 
    0.692426     0.399027     0.427345 
    0.567728     0.468056     0.517189 
    0.608583     0.625566     0.422008 
    0.552042     0.529140     0.699441 
    0.610778     0.480951     0.326057 
    0.469386     0.550133     0.396072 
    0.368218     0.429154     0.363075 
    0.334792     0.403911     0.547199 
    0.419050     0.541309     0.589411 
    0.481596     0.307423     0.562995 
    0.524239     0.356810     0.388921 
    0.410498     0.675393     0.476247 
    0.672866     0.675217     0.548639 
    0.728912     0.633385     0.470682 
    0.717318     0.538745     0.421104 
    0.324681     0.636675     0.575706 
    0.284971     0.534726     0.560348 
    0.286696     0.498189     0.447936 
    0.340381     0.574396     0.382927 
    0.404257     0.323492     0.448252 
    0.483763     0.419760     0.649913 
    0.293374     0.611653     0.474296 
    0.443707     0.432194     0.484612 
EA5162 16.728 16.401 15.630 90.00 90.00 90.00 Sym.group:    0
1.0
   16.727780     0.000000     0.000000
    0.000000    16.400845     0.000000
    0.000000     0.000000    15.630059
   W   B
  18  15
Direct
    0.579324     0.476327     0.512831 
    0.728453     0.496460     0.549107 
    0.613085     0.420611     0.322703 
    0.509795     0.412239     0.638103 
    0.657652     0.495808     0.682569 
    0.461508     0.413569     0.371340 
    0.628997     0.621692     0.586149 
    0.277279     0.462737     0.556174 
    0.319583     0.344552     0.464121 
    0.317191     0.475522     0.374013 
    0.462771     0.635349     0.572216 
    0.393914     0.622473     0.410720 
    0.537305     0.569999     0.385891 
    0.458336     0.315526     0.511306 
    0.690305     0.368870     0.460036 
    0.570524     0.297322     0.406596 
    0.405086     0.544453     0.270579 
    0.417613     0.493077     0.513699 
    0.665905     0.590371     0.455125 
    0.330331     0.610910     0.544018 
    0.282718     0.564922     0.465285 
    0.353592     0.557964     0.631102 
    0.371887     0.373902     0.596171 
    0.506202     0.691234     0.445166 
    0.517908     0.490776     0.269961 
    0.374268     0.458829     0.655876 
    0.676158     0.499962     0.406819 
    0.539726     0.549305     0.648652 
    0.587709     0.333439     0.545709 
    0.443723     0.530651     0.665347 
    0.654839     0.389570     0.600408 
    0.559058     0.718238     0.530827 
    0.607253     0.673346     0.451382 
EA5513 17.683 15.851 14.908 90.00 90.00 90.00 Sym.group:    0
1.0
   17.683319     0.000000     0.000000
    0.000000    15.850759     0.000000
    0.000000     0.000000    14.907831
   W   B
  17  15
Direct
    0.334389     0.367754     0.473232 
    0.477221     0.323638     0.518526 
    0.372376     0.530638     0.666458 
    0.510225     0.735406     0.557080 
    0.490291     0.411004     0.665624 
    0.353101     0.376455     0.637381 
    0.417886     0.510850     0.503833 
    0.394855     0.681847     0.469945 
    0.452242     0.409252     0.368743 
    0.423499     0.587515     0.340653 
    0.538161     0.573321     0.628928 
    0.626894     0.448707     0.684053 
    0.561717     0.459523     0.502682 
    0.657710     0.520541     0.374107 
    0.633411     0.683584     0.563304 
    0.540587     0.619500     0.432594 
    0.693777     0.431685     0.533444 
    0.609080     0.320376     0.491216 
    0.552042     0.333310     0.402354 
    0.289025     0.479693     0.575273 
    0.538744     0.513836     0.329243 
    0.320325     0.583265     0.421323 
    0.285097     0.493432     0.464710 
    0.342140     0.484585     0.374647 
    0.432505     0.635012     0.595891 
    0.589261     0.341130     0.600634 
    0.666110     0.642297     0.434074 
    0.575153     0.415891     0.338473 
    0.667601     0.557289     0.608832 
    0.645091     0.380724     0.404156 
    0.305146     0.579501     0.535350 
    0.704335     0.568440     0.503236 
EA5940 17.757 15.703 15.096 90.00 90.00 90.00 Sym.group:    0
1.0
   17.756643     0.000000     0.000000
    0.000000    15.703147     0.000000
    0.000000     0.000000    15.095617
   W   B
  19  12
Direct
    0.510753     0.442077     0.501340 
    0.404311     0.380616     0.391341 
    0.576675     0.706005     0.604790 
    0.631404     0.369921     0.594318 
    0.368541     0.648901     0.407933 
    0.619143     0.539956     0.425412 
    0.639630     0.372012     0.433142 
    0.323786     0.602551     0.556952 
    0.579052     0.527003     0.628032 
    0.457264     0.531901     0.355720 
    0.596274     0.700922     0.445587 
    0.405819     0.356152     0.569748 
    0.689748     0.611686     0.559191 
    0.286308     0.369593     0.471947 
    0.426061     0.506183     0.644280 
    0.479458     0.617182     0.514434 
    0.739594     0.470196     0.495595 
    0.300342     0.512752     0.388482 
    0.583842     0.623059     0.289863 
    0.546286     0.295108     0.504184 
    0.411210     0.646507     0.646484 
    0.523923     0.323050     0.401864 
    0.514089     0.401901     0.656995 
    0.696615     0.485986     0.623818 
    0.256812     0.493878     0.515741 
    0.521447     0.308275     0.607765 
    0.493726     0.668024     0.371586 
    0.532980     0.412361     0.344877 
    0.497030     0.621393     0.677097 
    0.565179     0.495001     0.288310 
    0.322697     0.459850     0.583171 
EA6198 16.476 15.830 14.618 90.00 90.00 90.00 Sym.group:    0
1.0
   16.475844     0.000000     0.000000
    0.000000    15.830023     0.000000
    0.000000     0.000000    14.618253
   W   B
  17  15
Direct
    0.667621     0.353534     0.485276 
    0.511656     0.325271     0.532790 
    0.641070     0.530736     0.667528 
    0.506162     0.736663     0.542111 
    0.503908     0.423143     0.672995 
    0.647264     0.378174     0.653720 
    0.589551     0.504698     0.501344 
    0.627503     0.671663     0.452387 
    0.545823     0.394591     0.374618 
    0.585787     0.569768     0.332314 
    0.469087     0.586500     0.621531 
    0.359650     0.472618     0.692371 
    0.429982     0.465199     0.504456 
    0.331114     0.524760     0.368417 
    0.366969     0.698748     0.547861 
    0.462150     0.618413     0.422730 
    0.287514     0.445960     0.544699 
    0.366417     0.330044     0.505399 
    0.428876     0.333204     0.414515 
    0.724998     0.467591     0.577478 
    0.460854     0.504574     0.329083 
    0.699580     0.562130     0.412021 
    0.730152     0.473703     0.464139 
    0.666704     0.462864     0.373582 
    0.588361     0.633937     0.584293 
    0.390629     0.358438     0.613274 
    0.328699     0.649659     0.421945 
    0.412737     0.413454     0.343148 
    0.332138     0.575473     0.604277 
    0.332710     0.388115     0.412977 
    0.713483     0.566266     0.529651 
    0.290849     0.580112     0.497071 
EA6485 16.688 15.865 16.289 90.00 90.00 90.00 Sym.group:    0
1.0
   16.688222     0.000000     0.000000
    0.000000    15.865009     0.000000
    0.000000     0.000000    16.289108
   W   B
  19  15
Direct
    0.537095     0.479361     0.466840 
    0.755370     0.539628     0.604414 
    0.596885     0.461529     0.319915 
    0.607076     0.472346     0.608431 
    0.493120     0.591652     0.353733 
    0.528847     0.629491     0.552049 
    0.697400     0.467846     0.451859 
    0.518071     0.580050     0.701136 
    0.372639     0.347248     0.502402 
    0.406583     0.333660     0.663743 
    0.521511     0.336606     0.556901 
    0.379202     0.480497     0.413899 
    0.313917     0.604004     0.496146 
    0.429034     0.487480     0.590421 
    0.676610     0.615373     0.507742 
    0.387975     0.633125     0.633664 
    0.452064     0.459887     0.275983 
    0.614720     0.325445     0.412720 
    0.506386     0.415245     0.718699 
    0.582850     0.669726     0.424629 
    0.413855     0.694078     0.514498 
    0.638998     0.606825     0.639471 
    0.653243     0.361245     0.535937 
    0.396500     0.677429     0.413861 
    0.489711     0.703719     0.442722 
    0.356241     0.601093     0.361697 
    0.485007     0.307807     0.429281 
    0.412509     0.353288     0.369999 
    0.300106     0.466843     0.521974 
    0.628049     0.584680     0.380830 
    0.311088     0.415650     0.611564 
    0.510523     0.355763     0.337956 
    0.727724     0.417501     0.573862 
    0.299092     0.523881     0.611021 
EA6817 17.034 15.709 15.642 90.00 90.00 90.00 Sym.group:    0
1.0
   17.034458     0.000000     0.000000
    0.000000    15.708743     0.000000
    0.000000     0.000000    15.641984
   W   B
  20  14
Direct
    0.445419     0.529236     0.452751 
    0.268020     0.475601     0.655941 
    0.378514     0.527065     0.307201 
    0.408858     0.535127     0.620606 
    0.483154     0.390151     0.363571 
    0.475045     0.372779     0.560746 
    0.291056     0.523528     0.483228 
    0.274605     0.618341     0.606096 
    0.506650     0.435960     0.707481 
    0.637995     0.666976     0.509408 
    0.493079     0.669837     0.575322 
    0.601337     0.545250     0.392111 
    0.655342     0.405116     0.467622 
    0.571691     0.514636     0.564468 
    0.490697     0.643925     0.326281 
    0.325550     0.382203     0.545429 
    0.622104     0.366290     0.623341 
    0.328492     0.398310     0.369700 
    0.604285     0.287148     0.375466 
    0.515518     0.501993     0.254646 
    0.403103     0.314997     0.450746 
    0.579355     0.289631     0.516415 
    0.386589     0.399118     0.670150 
    0.373175     0.635692     0.521241 
    0.498204     0.279258     0.455007 
    0.611176     0.414442     0.330643 
    0.436677     0.680086     0.449371 
    0.528891     0.715707     0.449292 
    0.520572     0.578818     0.680662 
    0.597276     0.686804     0.380666 
    0.694148     0.540299     0.500535 
    0.686482     0.575439     0.605867 
    0.603276     0.628583     0.642495 
    0.703664     0.471651     0.585496 
EA7456 16.588 15.357 14.187 90.00 90.00 90.00 Sym.group:    0
1.0
   16.587668     0.000000     0.000000
    0.000000    15.356620     0.000000
    0.000000     0.000000    14.186847
   W   B
  16  11
Direct
    0.330935     0.432630     0.671502 
    0.433898     0.357867     0.554242 
    0.323426     0.389925     0.388007 
    0.474679     0.486522     0.677925 
    0.555969     0.334313     0.429154 
    0.369078     0.515371     0.507075 
    0.422090     0.280158     0.386564 
    0.581952     0.370217     0.625738 
    0.528400     0.492264     0.490874 
    0.671772     0.441197     0.405786 
    0.461187     0.450110     0.336320 
    0.586329     0.569887     0.335692 
    0.448289     0.624709     0.376739 
    0.586235     0.657742     0.490722 
    0.621172     0.534958     0.628441 
    0.339729     0.670184     0.545867 
    0.666608     0.336322     0.512247 
    0.343295     0.567196     0.650795 
    0.301621     0.390919     0.537334 
    0.698512     0.426039     0.562113 
    0.349406     0.531233     0.349342 
    0.318125     0.619837     0.410139 
    0.460690     0.680236     0.520924 
    0.727194     0.521688     0.526178 
    0.702569     0.624132     0.542996 
    0.693910     0.583724     0.433271 
    0.502932     0.610618     0.604013 
EA7690 16.251 16.078 14.819 90.00 90.00 90.00 Sym.group:    0
1.0
   16.251202     0.000000     0.000000
    0.000000    16.077614     0.000000
    0.000000     0.000000    14.818949
   W   B
  17  13
Direct
    0.311091     0.421273     0.490939 
    0.612469     0.388524     0.618187 
    0.442624     0.374509     0.578854 
    0.492864     0.512945     0.660209 
    0.490455     0.666834     0.576077 
    0.343754     0.673541     0.521175 
    0.427236     0.534600     0.500111 
    0.584481     0.642860     0.432724 
    0.677704     0.631719     0.576330 
    0.644304     0.544381     0.310547 
    0.487603     0.546644     0.336582 
    0.599615     0.399002     0.345111 
    0.580147     0.484735     0.487131 
    0.529648     0.287344     0.472997 
    0.443520     0.397684     0.391571 
    0.734318     0.488390     0.559971 
    0.686695     0.345084     0.485777 
    0.293755     0.547028     0.563528 
    0.291635     0.559098     0.449404 
    0.365228     0.609823     0.386502 
    0.348261     0.501551     0.371005 
    0.382091     0.295905     0.469187 
    0.427568     0.244652     0.554841 
    0.356620     0.480979     0.625028 
    0.579327     0.609651     0.667311 
    0.633244     0.522335     0.656278 
    0.448978     0.664755     0.423454 
    0.703519     0.569210     0.443731 
    0.711513     0.467427     0.413309 
    0.369733     0.587517     0.632130 
EA8124 17.061 14.463 13.885 90.00 90.00 90.00 Sym.group:    0
1.0
   17.060962     0.000000     0.000000
    0.000000    14.463083     0.000000
    0.000000     0.000000    13.885448
   W   B
  16  11
Direct
    0.580619     0.494560     0.495386 
    0.731977     0.493166     0.407356 
    0.511633     0.639121     0.391467 
    0.286438     0.569345     0.456049 
    0.495832     0.465107     0.340958 
    0.636810     0.410138     0.313747 
    0.651371     0.650241     0.473430 
    0.354253     0.352179     0.581781 
    0.429715     0.514339     0.515492 
    0.505296     0.547415     0.677775 
    0.326412     0.563956     0.630484 
    0.727771     0.538318     0.574580 
    0.672019     0.370504     0.527481 
    0.549706     0.319011     0.435332 
    0.380805     0.689548     0.472564 
    0.514630     0.378149     0.613682 
    0.396345     0.577699     0.361006 
    0.616974     0.559230     0.344857 
    0.528606     0.643391     0.556652 
    0.363941     0.466803     0.368748 
    0.316577     0.421628     0.461517 
    0.614104     0.600173     0.619980 
    0.404640     0.451993     0.675028 
    0.428095     0.651568     0.611385 
    0.622236     0.477864     0.651244 
    0.444324     0.284749     0.512422 
    0.408873     0.369805     0.429595 
EA8209 16.750 16.566 14.470 90.00 90.00 90.00 Sym.group:    0
1.0
   16.750078     0.000000     0.000000
    0.000000    16.566064     0.000000
    0.000000     0.000000    14.470106
   W   B
  19  13
Direct
    0.465962     0.727429     0.384914 
    0.444280     0.542608     0.498244 
    0.415855     0.686699     0.547676 
    0.355064     0.639580     0.380898 
    0.498758     0.484651     0.674774 
    0.285718     0.499070     0.473474 
    0.443849     0.389428     0.545487 
    0.332656     0.538963     0.630794 
    0.585298     0.339856     0.573796 
    0.639420     0.381776     0.399878 
    0.653184     0.443247     0.684205 
    0.647718     0.586215     0.646182 
    0.527635     0.282018     0.431420 
    0.591271     0.493062     0.510322 
    0.665776     0.557352     0.359975 
    0.486426     0.412260     0.357317 
    0.571964     0.655534     0.474800 
    0.505454     0.576709     0.334617 
    0.722492     0.614148     0.502015 
    0.385567     0.510368     0.354890 
    0.303143     0.625428     0.518751 
    0.523300     0.616678     0.611531 
    0.319106     0.365918     0.482908 
    0.396043     0.324090     0.419477 
    0.359557     0.417130     0.395220 
    0.439172     0.603092     0.665101 
    0.379650     0.423810     0.673716 
    0.726883     0.478160     0.461312 
    0.700022     0.405493     0.540421 
    0.728004     0.498020     0.578135 
    0.589142     0.471735     0.299718 
    0.311633     0.409475     0.588033 
EA8731 16.434 16.136 14.527 90.00 90.00 90.00 Sym.group:    0
1.0
   16.434135     0.000000     0.000000
    0.000000    16.135516     0.000000
    0.000000     0.000000    14.526866
   W   B
  19  11
Direct
    0.320365     0.407358     0.492276 
    0.616172     0.406924     0.635153 
    0.461268     0.378204     0.586666 
    0.490365     0.525788     0.665299 
    0.468179     0.672519     0.565735 
    0.320010     0.652385     0.501906 
    0.426804     0.528266     0.497493 
    0.569200     0.647804     0.425558 
    0.661712     0.651255     0.566953 
    0.644553     0.547121     0.307709 
    0.491517     0.538533     0.332616 
    0.615391     0.401383     0.351764 
    0.582887     0.492029     0.491223 
    0.556574     0.291844     0.488758 
    0.457284     0.384641     0.394333 
    0.732107     0.516426     0.566493 
    0.697883     0.363731     0.502907 
    0.254778     0.531871     0.573067 
    0.399510     0.257016     0.463203 
    0.290421     0.531947     0.430108 
    0.360170     0.588653     0.371780 
    0.359612     0.479409     0.365208 
    0.460316     0.245461     0.584112 
    0.364040     0.475143     0.629828 
    0.564304     0.632732     0.659675 
    0.623371     0.545560     0.653757 
    0.433797     0.654512     0.407463 
    0.694044     0.584220     0.441349 
    0.713306     0.482220     0.419062 
    0.370059     0.585041     0.628549 
EA9160 16.844 14.804 13.767 90.00 90.00 90.00 Sym.group:    0
1.0
   16.843875     0.000000     0.000000
    0.000000    14.803695     0.000000
    0.000000     0.000000    13.766979
   W   B
  16  11
Direct
    0.631522     0.375318     0.621341 
    0.482791     0.608445     0.614985 
    0.577180     0.498841     0.490193 
    0.637329     0.446205     0.309185 
    0.585008     0.690226     0.474165 
    0.664840     0.596464     0.350051 
    0.628725     0.316209     0.464171 
    0.320888     0.385626     0.542059 
    0.338509     0.648245     0.596933 
    0.419571     0.503407     0.485218 
    0.492430     0.387967     0.364190 
    0.507473     0.571732     0.328249 
    0.488404     0.339461     0.545075 
    0.437863     0.674720     0.443552 
    0.361042     0.530123     0.321190 
    0.719644     0.446691     0.461006 
    0.680868     0.516849     0.601803 
    0.618408     0.612877     0.600247 
    0.592191     0.519717     0.660545 
    0.687988     0.595025     0.510464 
    0.287119     0.527930     0.529736 
    0.396124     0.312024     0.439793 
    0.412554     0.425727     0.642534 
    0.356204     0.395073     0.378466 
    0.343015     0.510413     0.634905 
    0.511583     0.456219     0.643584 
    0.320727     0.608466     0.446360 
EA9198 17.316 16.264 14.738 90.00 90.00 90.00 Sym.group:    0
1.0
   17.315980     0.000000     0.000000
    0.000000    16.263726     0.000000
    0.000000     0.000000    14.737993
   W   B
  19  15
Direct
    0.581715     0.603911     0.582408 
    0.536661     0.647905     0.395577 
    0.702830     0.504243     0.589190 
    0.505509     0.477310     0.343626 
    0.679830     0.586227     0.423033 
    0.490282     0.722299     0.535880 
    0.376002     0.677208     0.434420 
    0.446593     0.547296     0.493138 
    0.646765     0.358959     0.642483 
    0.581441     0.454508     0.506260 
    0.565289     0.334372     0.388410 
    0.281030     0.574481     0.520986 
    0.484406     0.406961     0.633620 
    0.369980     0.521750     0.647906 
    0.237036     0.462593     0.429205 
    0.542671     0.287436     0.544995 
    0.371576     0.417395     0.454275 
    0.692189     0.336572     0.494236 
    0.419751     0.598200     0.302174 
    0.697530     0.641787     0.553356 
    0.710770     0.460981     0.448694 
    0.604560     0.553783     0.315524 
    0.630977     0.697235     0.490077 
    0.460656     0.625172     0.640013 
    0.379966     0.651879     0.584176 
    0.324050     0.551421     0.383744 
    0.446177     0.356674     0.350799 
    0.499215     0.536662     0.676073 
    0.281648     0.445644     0.567486 
    0.360454     0.391481     0.605406 
    0.416741     0.318606     0.550743 
    0.447519     0.299733     0.445026 
    0.588104     0.486448     0.665038 
    0.640080     0.462868     0.362025 
EA9809 16.990 14.473 14.081 90.00 90.00 90.00 Sym.group:    0
1.0
   16.989583     0.000000     0.000000
    0.000000    14.473341     0.000000
    0.000000     0.000000    14.080507
   W   B
  16  12
Direct
    0.622775     0.640533     0.397789 
    0.358769     0.664932     0.387358 
    0.634829     0.405442     0.657329 
    0.487178     0.673724     0.499634 
    0.576644     0.495219     0.500861 
    0.487257     0.575876     0.347327 
    0.559864     0.308114     0.498463 
    0.501049     0.391566     0.363196 
    0.489270     0.401343     0.630039 
    0.415834     0.503964     0.497540 
    0.278867     0.411436     0.481055 
    0.720903     0.499647     0.407472 
    0.406477     0.312582     0.494424 
    0.512316     0.580956     0.651447 
    0.263307     0.590476     0.480817 
    0.363664     0.647053     0.597064 
    0.689793     0.593449     0.520016 
    0.708907     0.485033     0.559999 
    0.392287     0.508802     0.662066 
    0.602962     0.494574     0.337228 
    0.368236     0.405320     0.373728 
    0.608514     0.647687     0.558411 
    0.354320     0.405041     0.610119 
    0.337030     0.516869     0.362968 
    0.305518     0.507312     0.601830 
    0.632621     0.391696     0.388775 
    0.645847     0.557060     0.627442 
    0.674961     0.384297     0.505601 
EA10145 16.990 14.473 14.081 90.00 90.00 90.00 Sym.group:    0
1.0
   16.989583     0.000000     0.000000
    0.000000    14.473341     0.000000
    0.000000     0.000000    14.080507
   W   B
  16  12
Direct
    0.625426     0.637626     0.391854 
    0.631129     0.410971     0.658472 
    0.490054     0.670290     0.488148 
    0.576734     0.505734     0.501729 
    0.473514     0.567432     0.341985 
    0.553115     0.316193     0.502982 
    0.504941     0.385029     0.357057 
    0.483915     0.398829     0.635161 
    0.419374     0.492449     0.492632 
    0.275859     0.417522     0.474769 
    0.715562     0.503723     0.400844 
    0.397283     0.305574     0.496241 
    0.516359     0.576681     0.651914 
    0.373154     0.645305     0.594199 
    0.614602     0.693926     0.575777 
    0.356564     0.391907     0.340848 
    0.697413     0.596427     0.522190 
    0.706972     0.483859     0.554688 
    0.389897     0.509334     0.659110 
    0.594868     0.493470     0.333991 
    0.349341     0.407005     0.607740 
    0.327504     0.536485     0.377240 
    0.306611     0.514893     0.592719 
    0.630648     0.393728     0.393546 
    0.652630     0.556973     0.628612 
    0.670852     0.384603     0.508408 
    0.368180     0.631500     0.427989 
    0.297498     0.572535     0.489153 
EA10230 17.236 15.831 15.836 90.00 90.00 90.00 Sym.group:    0
1.0
   17.236059     0.000000     0.000000
    0.000000    15.831027     0.000000
    0.000000     0.000000    15.835627
   W   B
  20  14
Direct
    0.521926     0.545792     0.536336 
    0.735300     0.377345     0.423911 
    0.607399     0.574361     0.659251 
    0.605155     0.470709     0.403055 
    0.479971     0.461249     0.670846 
    0.508532     0.363196     0.494911 
    0.688648     0.503094     0.538809 
    0.504156     0.365272     0.336154 
    0.407997     0.660229     0.435546 
    0.434902     0.604859     0.284790 
    0.548909     0.619845     0.378440 
    0.376905     0.573956     0.578364 
    0.299777     0.439694     0.530181 
    0.423699     0.490840     0.412558 
    0.651790     0.346008     0.538139 
    0.366864     0.339968     0.409853 
    0.481435     0.633145     0.695354 
    0.645634     0.668294     0.525607 
    0.275275     0.458409     0.379652 
    0.558655     0.740722     0.620653 
    0.551792     0.351835     0.631045 
    0.385602     0.332134     0.545216 
    0.614952     0.327958     0.405432 
    0.674960     0.589335     0.413263 
    0.372343     0.377287     0.640131 
    0.457129     0.330975     0.621917 
    0.348557     0.473900     0.660164 
    0.523746     0.700038     0.492115 
    0.452568     0.688686     0.567677 
    0.309330     0.566787     0.462008 
    0.610295     0.435655     0.643518 
    0.329510     0.580165     0.356907 
    0.732036     0.505799     0.403702 
    0.514254     0.502460     0.304496 
EA10784 17.183 14.279 14.942 90.00 90.00 90.00 Sym.group:    0
1.0
   17.183040     0.000000     0.000000
    0.000000    14.278854     0.000000
    0.000000     0.000000    14.941854
   W   B
  16  14
Direct
    0.464898     0.570976     0.363464 
    0.336395     0.633141     0.433581 
    0.571229     0.413409     0.346926 
    0.488260     0.606148     0.646685 
    0.560702     0.512588     0.508215 
    0.684946     0.532322     0.400448 
    0.704729     0.504074     0.573995 
    0.485130     0.417736     0.655274 
    0.620656     0.361297     0.607894 
    0.503324     0.344147     0.491527 
    0.347086     0.340353     0.446332 
    0.405414     0.491641     0.513822 
    0.338348     0.484887     0.665780 
    0.361206     0.657398     0.591852 
    0.355662     0.324409     0.608746 
    0.581107     0.672436     0.402470 
    0.352671     0.482014     0.368704 
    0.437872     0.417981     0.370669 
    0.565853     0.675744     0.545829 
    0.585753     0.554055     0.315930 
    0.693919     0.384713     0.372417 
    0.659921     0.635658     0.516525 
    0.732799     0.402383     0.472595 
    0.621299     0.613286     0.621118 
    0.594313     0.506059     0.660875 
    0.282900     0.485882     0.446395 
    0.277686     0.426216     0.546171 
    0.277613     0.544447     0.545668 
    0.636645     0.351731     0.461560 
    0.471664     0.652870     0.498535 
EA11014 17.260 14.964 14.184 90.00 90.00 90.00 Sym.group:    0
1.0
   17.260137     0.000000     0.000000
    0.000000    14.964293     0.000000
    0.000000     0.000000    14.184169
   W   B
  20  11
Direct
    0.521120     0.543464     0.330458 
    0.274279     0.639831     0.443348 
    0.446104     0.395258     0.330631 
    0.336584     0.512704     0.339530 
    0.434433     0.579744     0.650319 
    0.506953     0.653538     0.500536 
    0.431073     0.483632     0.495139 
    0.687711     0.371324     0.421651 
    0.537651     0.341136     0.473868 
    0.716310     0.605296     0.562019 
    0.534987     0.440095     0.653393 
    0.592999     0.504562     0.499656 
    0.589915     0.608549     0.655099 
    0.651906     0.340782     0.584549 
    0.317380     0.355028     0.567297 
    0.631064     0.736062     0.546787 
    0.405542     0.650575     0.363245 
    0.366691     0.708542     0.544048 
    0.647685     0.642051     0.402203 
    0.451182     0.304196     0.608132 
    0.313541     0.586770     0.575946 
    0.404521     0.430644     0.656384 
    0.334614     0.391457     0.423814 
    0.328964     0.486991     0.615667 
    0.720733     0.458213     0.540074 
    0.717577     0.515911     0.432945 
    0.648404     0.499735     0.347757 
    0.580344     0.414370     0.344168 
    0.408869     0.324831     0.461853 
    0.665190     0.481550     0.639346 
    0.295675     0.493158     0.490138 
EA11466 17.061 14.257 14.467 90.00 90.00 90.00 Sym.group:    0
1.0
   17.061487     0.000000     0.000000
    0.000000    14.256666     0.000000
    0.000000     0.000000    14.467415
   W   B
  16  14
Direct
    0.522972     0.525805     0.662770 
    0.655103     0.442958     0.645688 
    0.411873     0.652960     0.570622 
    0.523921     0.330985     0.438658 
    0.436088     0.489621     0.501573 
    0.296949     0.514596     0.594322 
    0.307149     0.458294     0.418087 
    0.542055     0.471761     0.320301 
    0.504367     0.631111     0.409996 
    0.652911     0.671859     0.473148 
    0.593865     0.502899     0.490448 
    0.680861     0.418621     0.368366 
    0.647061     0.321205     0.525388 
    0.655561     0.592008     0.324272 
    0.407364     0.403512     0.671263 
    0.353142     0.637987     0.399711 
    0.630770     0.603169     0.611638 
    0.545218     0.646613     0.564073 
    0.436768     0.325734     0.551185 
    0.397336     0.551842     0.678617 
    0.290689     0.657174     0.531431 
    0.340032     0.376226     0.541685 
    0.247713     0.580572     0.466451 
    0.392254     0.338547     0.445787 
    0.424754     0.401951     0.354821 
    0.710347     0.557405     0.559079 
    0.726629     0.544576     0.441086 
    0.724559     0.448475     0.510740 
    0.527108     0.382734     0.588689 
    0.414581     0.518800     0.340107 
EA11883 16.603 14.799 14.170 90.00 90.00 90.00 Sym.group:    0
1.0
   16.603285     0.000000     0.000000
    0.000000    14.798846     0.000000
    0.000000     0.000000    14.169944
   W   B
  16  11
Direct
    0.584471     0.497844     0.500413 
    0.524087     0.543591     0.674903 
    0.287610     0.530500     0.590534 
    0.497077     0.379920     0.610214 
    0.669239     0.586912     0.609569 
    0.429892     0.512376     0.499623 
    0.512576     0.643839     0.400051 
    0.333132     0.620737     0.445760 
    0.737804     0.552003     0.439215 
    0.661577     0.407838     0.389734 
    0.524963     0.323270     0.437764 
    0.395737     0.628308     0.652533 
    0.507805     0.474843     0.333396 
    0.292766     0.414106     0.454899 
    0.386595     0.291661     0.492318 
    0.736160     0.438627     0.558996 
    0.402068     0.480280     0.662307 
    0.622037     0.434287     0.641968 
    0.535152     0.643086     0.553931 
    0.359865     0.401053     0.593241 
    0.629220     0.641920     0.470288 
    0.412279     0.582292     0.326184 
    0.435971     0.678792     0.518742 
    0.623229     0.565912     0.363695 
    0.409814     0.384377     0.379442 
    0.366418     0.486006     0.352517 
    0.622456     0.355623     0.547765 
EA12083 17.356 15.765 15.241 90.00 90.00 90.00 Sym.group:    0
1.0
   17.356139     0.000000     0.000000
    0.000000    15.764885     0.000000
    0.000000     0.000000    15.240539
   W   B
  19  12
Direct
    0.347768     0.645434     0.589870 
    0.371269     0.321329     0.493030 
    0.258806     0.427281     0.500864 
    0.398332     0.502588     0.514731 
    0.486682     0.390395     0.399530 
    0.426366     0.544498     0.356842 
    0.478811     0.653698     0.473087 
    0.336316     0.663566     0.433838 
    0.486004     0.579712     0.630849 
    0.331826     0.394477     0.631476 
    0.691416     0.523791     0.607247 
    0.568810     0.511373     0.489529 
    0.489688     0.393262     0.594860 
    0.611785     0.337220     0.487193 
    0.603754     0.602828     0.724441 
    0.614726     0.660380     0.578802 
    0.663486     0.554722     0.339766 
    0.718153     0.460543     0.449674 
    0.493735     0.254381     0.500470 
    0.287652     0.523228     0.601522 
    0.271750     0.566592     0.499648 
    0.304903     0.523921     0.402270 
    0.355060     0.427568     0.392352 
    0.545630     0.600509     0.359346 
    0.685961     0.594701     0.475442 
    0.619761     0.404279     0.611361 
    0.707560     0.387682     0.567061 
    0.576269     0.482565     0.664200 
    0.605852     0.646572     0.432079 
    0.546962     0.495449     0.329376 
    0.614905     0.425456     0.369243 
EA12569 16.715 14.969 14.181 90.00 90.00 90.00 Sym.group:    0
1.0
   16.714706     0.000000     0.000000
    0.000000    14.969089     0.000000
    0.000000     0.000000    14.181319
   W   B
  16  11
Direct
    0.414483     0.507931     0.508587 
    0.471662     0.462498     0.328042 
    0.711969     0.463668     0.399952 
    0.507682     0.624596     0.392962 
    0.332230     0.422684     0.386853 
    0.568317     0.488304     0.495563 
    0.483579     0.357910     0.600552 
    0.667618     0.381315     0.547386 
    0.256788     0.449103     0.554600 
    0.341712     0.622733     0.600911 
    0.481989     0.669160     0.565361 
    0.595688     0.370630     0.345775 
    0.502268     0.524900     0.671925 
    0.712828     0.565806     0.539118 
    0.269616     0.569541     0.446274 
    0.361595     0.454430     0.670798 
    0.597882     0.518863     0.336698 
    0.383851     0.573521     0.362638 
    0.453724     0.364081     0.449103 
    0.645388     0.593586     0.407339 
    0.365714     0.362491     0.526694 
    0.587806     0.411149     0.670133 
    0.555988     0.326399     0.479911 
    0.601994     0.607922     0.615257 
    0.638463     0.502378     0.644775 
    0.383497     0.655986     0.451383 
    0.605672     0.648413     0.501407 
EA12640 16.708 15.432 14.900 90.00 90.00 90.00 Sym.group:    0
1.0
   16.707595     0.000000     0.000000
    0.000000    15.431766     0.000000
    0.000000     0.000000    14.899729
   W   B
  20  12
Direct
    0.559277     0.591295     0.525192 
    0.675205     0.528297     0.651127 
    0.556331     0.401519     0.509257 
    0.655690     0.497997     0.385341 
    0.661013     0.658462     0.361633 
    0.335011     0.593988     0.605530 
    0.412279     0.493525     0.508440 
    0.539928     0.465282     0.673377 
    0.316908     0.356819     0.491513 
    0.422152     0.411099     0.352397 
    0.711645     0.623814     0.508213 
    0.434632     0.350604     0.611965 
    0.509633     0.558024     0.363961 
    0.465918     0.733049     0.575413 
    0.401706     0.667530     0.449567 
    0.680401     0.374204     0.619128 
    0.471819     0.607696     0.675509 
    0.529354     0.731460     0.384427 
    0.236064     0.480612     0.526422 
    0.612716     0.751794     0.511573 
    0.704238     0.477075     0.518740 
    0.305757     0.470518     0.401042 
    0.301542     0.573261     0.446523 
    0.403739     0.481013     0.673357 
    0.323769     0.437943     0.620561 
    0.524192     0.326019     0.384422 
    0.562244     0.330166     0.645189 
    0.623996     0.355708     0.387065 
    0.372446     0.546349     0.365444 
    0.448308     0.325512     0.462981 
    0.687324     0.379729     0.470979 
    0.554765     0.419633     0.333709 
EA13249 16.715 14.969 14.181 90.00 90.00 90.00 Sym.group:    0
1.0
   16.714706     0.000000     0.000000
    0.000000    14.969089     0.000000
    0.000000     0.000000    14.181319
   W   B
  16  11
Direct
    0.421439     0.502878     0.499162 
    0.477746     0.439818     0.333812 
    0.719331     0.467980     0.406034 
    0.507611     0.611855     0.386447 
    0.316800     0.424736     0.402099 
    0.576767     0.499167     0.506361 
    0.486441     0.362140     0.595800 
    0.648532     0.363269     0.531216 
    0.262289     0.460148     0.562492 
    0.344290     0.596683     0.611370 
    0.480243     0.668966     0.567885 
    0.493929     0.524916     0.670267 
    0.712912     0.575826     0.545066 
    0.621150     0.695951     0.507261 
    0.608989     0.503637     0.294813 
    0.370267     0.570257     0.326864 
    0.427607     0.348423     0.452512 
    0.646415     0.595440     0.403203 
    0.361171     0.367883     0.544619 
    0.589953     0.416395     0.666148 
    0.531976     0.341260     0.450697 
    0.376132     0.441025     0.639781 
    0.595169     0.610464     0.627386 
    0.639366     0.511499     0.655691 
    0.377187     0.647072     0.464088 
    0.301019     0.567597     0.462925 
    0.605271     0.384713     0.386001 
EA13563 17.029 14.432 13.875 90.00 90.00 90.00 Sym.group:    0
1.0
   17.028800     0.000000     0.000000
    0.000000    14.432069     0.000000
    0.000000     0.000000    13.875355
   W   B
  16  12
Direct
    0.604762     0.381062     0.360437 
    0.345435     0.359820     0.369891 
    0.641545     0.533626     0.680173 
    0.475885     0.330985     0.452315 
    0.578868     0.506853     0.505467 
    0.467167     0.472768     0.333556 
    0.568261     0.687406     0.549683 
    0.510671     0.648901     0.386227 
    0.491270     0.567036     0.655473 
    0.421470     0.501583     0.499975 
    0.290209     0.606531     0.494121 
    0.714993     0.502354     0.402541 
    0.416664     0.686794     0.535021 
    0.507009     0.385035     0.631404 
    0.353015     0.346670     0.555241 
    0.703699     0.624050     0.549767 
    0.679380     0.387521     0.488829 
    0.710764     0.472063     0.561166 
    0.388380     0.462514     0.658525 
    0.593834     0.535424     0.341635 
    0.384878     0.613641     0.385846 
    0.593137     0.337358     0.517418 
    0.359861     0.577962     0.629235 
    0.329886     0.512296     0.374945 
    0.304619     0.485234     0.590034 
    0.637343     0.622980     0.411667 
    0.640307     0.396972     0.607229 
    0.286685     0.454559     0.472181 
EA13911 17.035 14.178 14.018 90.00 90.00 90.00 Sym.group:    0
1.0
   17.034517     0.000000     0.000000
    0.000000    14.177618     0.000000
    0.000000     0.000000    14.017971
   W   B
  16  12
Direct
    0.495539     0.567790     0.648541 
    0.417934     0.507556     0.496415 
    0.573763     0.402787     0.670802 
    0.476278     0.397635     0.372491 
    0.518946     0.310872     0.535814 
    0.486034     0.575819     0.324283 
    0.574520     0.498427     0.498341 
    0.719246     0.434673     0.443479 
    0.293450     0.420973     0.562247 
    0.488142     0.676833     0.476862 
    0.620714     0.668833     0.551494 
    0.378830     0.682294     0.604266 
    0.618472     0.491206     0.323224 
    0.419540     0.395333     0.652046 
    0.349138     0.639678     0.405312 
    0.266410     0.598536     0.548146 
    0.293903     0.501173     0.422735 
    0.597384     0.633184     0.392636 
    0.682158     0.444218     0.598717 
    0.681290     0.582408     0.434721 
    0.395258     0.340163     0.493050 
    0.342442     0.397842     0.410385 
    0.632610     0.542038     0.643652 
    0.702363     0.549025     0.547470 
    0.643881     0.351580     0.536176 
    0.603823     0.359841     0.419323 
    0.369859     0.494719     0.339669 
    0.358070     0.534562     0.647703 
EA14269 16.431 14.815 14.340 90.00 90.00 90.00 Sym.group:    0
1.0
   16.431421     0.000000     0.000000
    0.000000    14.814938     0.000000
    0.000000     0.000000    14.339846
   W   B
  16  11
Direct
    0.686501     0.552696     0.615406 
    0.505518     0.678330     0.475176 
    0.422021     0.612004     0.342793 
    0.725938     0.548361     0.441048 
    0.601904     0.621017     0.355303 
    0.580510     0.492057     0.491390 
    0.522671     0.518646     0.679082 
    0.425323     0.638828     0.625324 
    0.620806     0.310480     0.522330 
    0.343267     0.341648     0.572690 
    0.493827     0.363453     0.609585 
    0.462937     0.347834     0.440551 
    0.524806     0.478074     0.321540 
    0.428614     0.510068     0.503064 
    0.292208     0.548435     0.402168 
    0.355637     0.480909     0.664423 
    0.573648     0.632083     0.599094 
    0.704076     0.424901     0.540215 
    0.682753     0.408171     0.423823 
    0.635697     0.641311     0.505873 
    0.630445     0.418324     0.627715 
    0.364959     0.649773     0.481864 
    0.591097     0.364136     0.388464 
    0.394088     0.460451     0.351204 
    0.333249     0.409165     0.433786 
    0.308973     0.580975     0.555819 
    0.288528     0.467869     0.530267 
EA14503 16.676 15.476 15.484 90.00 90.00 90.00 Sym.group:    0
1.0
   16.676393     0.000000     0.000000
    0.000000    15.475561     0.000000
    0.000000     0.000000    15.484267
   W   B
  19  11
Direct
    0.433643     0.365720     0.448907 
    0.302362     0.467900     0.420438 
    0.331294     0.450131     0.604249 
    0.375936     0.586919     0.321545 
    0.431090     0.535027     0.487882 
    0.528790     0.511800     0.342116 
    0.494831     0.668411     0.394171 
    0.336934     0.663995     0.447381 
    0.360954     0.626837     0.623052 
    0.405060     0.522722     0.726251 
    0.597990     0.359560     0.410803 
    0.523139     0.269730     0.532147 
    0.515276     0.593535     0.633845 
    0.585190     0.499566     0.500932 
    0.721356     0.585004     0.486645 
    0.599694     0.681916     0.518603 
    0.484577     0.419537     0.620168 
    0.736705     0.423470     0.473191 
    0.637222     0.362730     0.583328 
    0.315222     0.349990     0.504498 
    0.292147     0.557806     0.525661 
    0.491657     0.379806     0.325085 
    0.409546     0.447164     0.334383 
    0.458894     0.678708     0.528628 
    0.388820     0.324744     0.577097 
    0.610168     0.488390     0.650686 
    0.621125     0.605545     0.395497 
    0.650486     0.584603     0.609453 
    0.660387     0.499423     0.379632 
    0.699503     0.489313     0.593724 
EA14640 17.528 15.844 15.852 90.00 90.00 90.00 Sym.group:    0
1.0
   17.528229     0.000000     0.000000
    0.000000    15.844427     0.000000
    0.000000     0.000000    15.851724
   W   B
  19  15
Direct
    0.405571     0.383045     0.571627 
    0.437867     0.379418     0.403182 
    0.300485     0.513501     0.609608 
    0.518815     0.522442     0.357339 
    0.300549     0.462623     0.449321 
    0.582571     0.306603     0.408352 
    0.552155     0.444479     0.503808 
    0.382388     0.647575     0.609298 
    0.426293     0.533631     0.499903 
    0.701690     0.386587     0.506177 
    0.530535     0.578634     0.626544 
    0.629625     0.445028     0.635584 
    0.501225     0.688522     0.512476 
    0.639191     0.581528     0.473992 
    0.652340     0.440469     0.370114 
    0.556025     0.671505     0.344194 
    0.313806     0.308028     0.475613 
    0.530507     0.375113     0.283274 
    0.623841     0.739306     0.456570 
    0.273458     0.387999     0.567432 
    0.306243     0.600687     0.500749 
    0.390968     0.505474     0.360247 
    0.524437     0.349996     0.617001 
    0.599006     0.317008     0.555953 
    0.722678     0.512939     0.563227 
    0.614722     0.669834     0.578730 
    0.418758     0.510607     0.649895 
    0.504795     0.307255     0.518289 
    0.439751     0.640379     0.393173 
    0.376885     0.669269     0.470269 
    0.345372     0.593012     0.400645 
    0.740645     0.504405     0.458825 
    0.658937     0.578099     0.615592 
    0.497865     0.444999     0.652997 
EA15062 17.687 14.586 14.356 90.00 90.00 90.00 Sym.group:    0
1.0
   17.687184     0.000000     0.000000
    0.000000    14.585683     0.000000
    0.000000     0.000000    14.356228
   W   B
  20  12
Direct
    0.486415     0.400503     0.621549 
    0.450343     0.332997     0.437225 
    0.405749     0.500321     0.506802 
    0.257095     0.488635     0.428759 
    0.361615     0.569317     0.334712 
    0.289142     0.554301     0.606029 
    0.564814     0.544121     0.684464 
    0.501339     0.650388     0.556022 
    0.422501     0.559774     0.685254 
    0.572340     0.417158     0.356529 
    0.585510     0.320502     0.511028 
    0.508771     0.589328     0.375250 
    0.705428     0.528751     0.632999 
    0.595640     0.509697     0.503246 
    0.638548     0.620933     0.328005 
    0.645279     0.678740     0.611972 
    0.719959     0.610797     0.473131 
    0.282831     0.647826     0.459459 
    0.703646     0.333817     0.421896 
    0.713597     0.477330     0.347718 
    0.293005     0.411653     0.559475 
    0.357149     0.418290     0.366705 
    0.359627     0.429602     0.643362 
    0.327202     0.362865     0.462263 
    0.378056     0.348768     0.561765 
    0.407160     0.657148     0.449527 
    0.375646     0.655624     0.566097 
    0.687733     0.390078     0.566033 
    0.613879     0.408539     0.637639 
    0.446320     0.455412     0.344700 
    0.740357     0.458405     0.495407 
    0.603303     0.668382     0.464980 
EA15547 16.908 15.910 14.509 90.00 90.00 90.00 Sym.group:    0
1.0
   16.908363     0.000000     0.000000
    0.000000    15.910044     0.000000
    0.000000     0.000000    14.509113
   W   B
  19  11
Direct
    0.661952     0.383096     0.480993 
    0.520393     0.360607     0.562451 
    0.502810     0.492458     0.666458 
    0.532821     0.641092     0.607290 
    0.580993     0.528572     0.495128 
    0.483179     0.651958     0.424759 
    0.377558     0.597845     0.309972 
    0.511234     0.523855     0.315116 
    0.380284     0.425415     0.349769 
    0.420491     0.494861     0.496779 
    0.530336     0.378159     0.387298 
    0.280303     0.432803     0.551360 
    0.380758     0.316813     0.479313 
    0.639317     0.611316     0.355167 
    0.277422     0.526960     0.408361 
    0.385153     0.360601     0.641005 
    0.738408     0.525457     0.435422 
    0.696817     0.629766     0.556021 
    0.293907     0.588506     0.573861 
    0.589521     0.272197     0.466339 
    0.620965     0.436805     0.619338 
    0.411563     0.591226     0.643805 
    0.366453     0.496899     0.655933 
    0.352362     0.637208     0.451269 
    0.629090     0.544575     0.647630 
    0.493307     0.256564     0.458734 
    0.633441     0.468566     0.356772 
    0.408825     0.652412     0.546697 
    0.602800     0.679629     0.478980 
    0.697535     0.493779     0.577981 
EA15855 16.901 14.340 14.601 90.00 90.00 90.00 Sym.group:    0
1.0
   16.900863     0.000000     0.000000
    0.000000    14.340253     0.000000
    0.000000     0.000000    14.601277
   W   B
  18  12
Direct
    0.482584     0.535184     0.327876 
    0.654949     0.364587     0.603675 
    0.571207     0.512528     0.499032 
    0.603910     0.412859     0.343461 
    0.712421     0.616465     0.502308 
    0.620996     0.598316     0.345222 
    0.612382     0.646179     0.626860 
    0.476420     0.350791     0.413742 
    0.585090     0.262263     0.481271 
    0.483902     0.678042     0.550215 
    0.461237     0.542673     0.660661 
    0.503540     0.375587     0.598395 
    0.409106     0.501620     0.495330 
    0.266577     0.420150     0.538238 
    0.375415     0.299640     0.527706 
    0.372484     0.647503     0.424261 
    0.320788     0.382619     0.387067 
    0.707651     0.339622     0.440996 
    0.699154     0.492054     0.412249 
    0.721137     0.468230     0.523633 
    0.587009     0.494560     0.664638 
    0.676293     0.515101     0.614923 
    0.512990     0.660494     0.406115 
    0.596226     0.676960     0.473924 
    0.350428     0.522614     0.340509 
    0.329049     0.526192     0.625912 
    0.282882     0.528869     0.425414 
    0.362810     0.631023     0.585113 
    0.288151     0.577619     0.528900 
    0.373211     0.419655     0.632352 
EA16007 18.175 16.589 14.607 90.00 90.00 90.00 Sym.group:    0
1.0
   18.175032     0.000000     0.000000
    0.000000    16.588964     0.000000
    0.000000     0.000000    14.607310
   W   B
  19  15
Direct
    0.584080     0.499952     0.486904 
    0.615270     0.360009     0.350097 
    0.678479     0.616979     0.441674 
    0.594311     0.677212     0.559475 
    0.486987     0.368871     0.428505 
    0.599730     0.343604     0.544893 
    0.586002     0.459140     0.665982 
    0.335762     0.372285     0.441775 
    0.420467     0.498630     0.495971 
    0.307646     0.513032     0.371096 
    0.502907     0.576778     0.624081 
    0.295771     0.601686     0.514404 
    0.508626     0.621182     0.414897 
    0.416712     0.679215     0.530848 
    0.241156     0.459602     0.508897 
    0.702533     0.567434     0.601591 
    0.423343     0.458662     0.676224 
    0.528532     0.477054     0.311781 
    0.685700     0.476786     0.338266 
    0.688358     0.399841     0.462737 
    0.722280     0.493676     0.481323 
    0.610015     0.593914     0.682050 
    0.420740     0.366255     0.567389 
    0.423533     0.548033     0.335573 
    0.513206     0.742598     0.487087 
    0.383242     0.618665     0.403498 
    0.378077     0.580233     0.628932 
    0.409960     0.446011     0.340320 
    0.333659     0.404948     0.584744 
    0.490742     0.298982     0.552909 
    0.502536     0.362184     0.640769 
    0.605669     0.572090     0.337742 
    0.685876     0.439637     0.573669 
    0.318096     0.504823     0.613900 
EA16481 17.433 15.428 14.502 90.00 90.00 90.00 Sym.group:    0
1.0
   17.432561     0.000000     0.000000
    0.000000    15.428068     0.000000
    0.000000     0.000000    14.501560
   W   B
  20  11
Direct
    0.697372     0.635456     0.499484 
    0.495875     0.527502     0.674812 
    0.480812     0.376717     0.591220 
    0.536588     0.342202     0.418772 
    0.697401     0.381058     0.423727 
    0.591445     0.493405     0.508292 
    0.617605     0.442734     0.678611 
    0.607960     0.624588     0.629790 
    0.618167     0.313136     0.552139 
    0.317795     0.658493     0.552758 
    0.391222     0.325423     0.455254 
    0.407544     0.500381     0.498973 
    0.466241     0.650058     0.553456 
    0.442614     0.425650     0.320748 
    0.495615     0.585701     0.377107 
    0.264158     0.546326     0.442816 
    0.599274     0.464902     0.325361 
    0.576717     0.706122     0.454944 
    0.359900     0.552006     0.306017 
    0.270578     0.500729     0.602751 
    0.698233     0.525490     0.396532 
    0.384956     0.458503     0.657532 
    0.735898     0.495676     0.496977 
    0.703962     0.418892     0.569905 
    0.701743     0.525444     0.604624 
    0.372605     0.633669     0.425936 
    0.376084     0.569099     0.643461 
    0.347846     0.384419     0.585307 
    0.326728     0.431923     0.382758 
    0.292486     0.409299     0.490690 
    0.624575     0.594997     0.379250 
EA16975 15.162 14.800 16.134 90.00 90.00 90.00 Sym.group:    0
1.0
   15.162482     0.000000     0.000000
    0.000000    14.799669     0.000000
    0.000000     0.000000    16.133920
   W   B
  16  11
Direct
    0.408076     0.576653     0.670222 
    0.367537     0.504790     0.351451 
    0.406811     0.494391     0.522575 
    0.483688     0.366980     0.420423 
    0.514132     0.340981     0.571535 
    0.343190     0.342762     0.556176 
    0.258436     0.575767     0.561872 
    0.239633     0.490771     0.433739 
    0.388617     0.681119     0.550452 
    0.644955     0.424252     0.354031 
    0.475344     0.626955     0.426413 
    0.570977     0.645104     0.572010 
    0.579746     0.496163     0.488939 
    0.550048     0.498054     0.650130 
    0.676455     0.379218     0.599656 
    0.744328     0.439774     0.480303 
    0.340215     0.386219     0.429014 
    0.325338     0.609761     0.438926 
    0.419423     0.421552     0.653653 
    0.319341     0.466441     0.635197 
    0.598944     0.569708     0.360597 
    0.624088     0.639288     0.442689 
    0.625239     0.341768     0.470874 
    0.683515     0.534304     0.595202 
    0.696482     0.557278     0.405287 
    0.701613     0.592184     0.505947 
    0.513830     0.497765     0.352685 
EA17063 17.474 14.422 14.373 90.00 90.00 90.00 Sym.group:    0
1.0
   17.473567     0.000000     0.000000
    0.000000    14.422032     0.000000
    0.000000     0.000000    14.373042
   W   B
  18  14
Direct
    0.513822     0.367594     0.426531 
    0.550272     0.375150     0.616765 
    0.590818     0.509305     0.499259 
    0.739318     0.527384     0.555713 
    0.636075     0.642662     0.624601 
    0.705242     0.525076     0.373955 
    0.427087     0.470544     0.311879 
    0.488801     0.624859     0.402604 
    0.570687     0.500376     0.307542 
    0.432807     0.481997     0.665199 
    0.421156     0.316322     0.559870 
    0.488750     0.637262     0.586985 
    0.289298     0.458899     0.369220 
    0.401084     0.500575     0.493913 
    0.339043     0.617404     0.348989 
    0.270487     0.610637     0.493187 
    0.747414     0.382714     0.463639 
    0.632775     0.293582     0.501502 
    0.644964     0.489960     0.650448 
    0.638720     0.393692     0.382774 
    0.681232     0.395593     0.596775 
    0.586506     0.676943     0.489921 
    0.614996     0.631840     0.385657 
    0.315199     0.367255     0.493688 
    0.384027     0.355192     0.410487 
    0.555108     0.529829     0.666602 
    0.267085     0.464375     0.523249 
    0.308479     0.520883     0.615312 
    0.384161     0.666744     0.496814 
    0.330609     0.408514     0.603811 
    0.679655     0.640746     0.477089 
    0.364323     0.616091     0.606017 
EA17358 17.511 16.017 15.310 90.00 90.00 90.00 Sym.group:    0
1.0
   17.511079     0.000000     0.000000
    0.000000    16.017455     0.000000
    0.000000     0.000000    15.309623
   W   B
  19  15
Direct
    0.397609     0.384651     0.566784 
    0.435650     0.386999     0.393980 
    0.297459     0.515416     0.609409 
    0.525105     0.526912     0.355001 
    0.300209     0.473817     0.439769 
    0.579828     0.309231     0.399899 
    0.550600     0.443250     0.502751 
    0.388236     0.646875     0.616946 
    0.425028     0.536165     0.500620 
    0.698930     0.379765     0.511075 
    0.530868     0.573036     0.633846 
    0.622660     0.437781     0.642287 
    0.508439     0.683872     0.515597 
    0.643576     0.574910     0.478372 
    0.657076     0.436228     0.370105 
    0.564597     0.671936     0.343021 
    0.307066     0.319352     0.458853 
    0.532873     0.382770     0.273032 
    0.634243     0.730472     0.461960 
    0.267448     0.396564     0.556720 
    0.308460     0.607201     0.503710 
    0.397346     0.522584     0.354065 
    0.516165     0.347727     0.615807 
    0.591523     0.313760     0.554686 
    0.721757     0.502586     0.574442 
    0.618187     0.661286     0.587265 
    0.414968     0.508001     0.654239 
    0.498393     0.309519     0.511488 
    0.442912     0.636964     0.390999 
    0.382964     0.672526     0.474165 
    0.345717     0.603014     0.399811 
    0.744223     0.495218     0.467348 
    0.658582     0.568621     0.626109 
    0.491304     0.440990     0.655844 
EA17766 16.994 15.862 15.594 90.00 90.00 90.00 Sym.group:    0
1.0
   16.994136     0.000000     0.000000
    0.000000    15.861531     0.000000
    0.000000     0.000000    15.593701
   W   B
  20  11
Direct
    0.489614     0.591279     0.614013 
    0.637026     0.650098     0.640198 
    0.582653     0.499085     0.504077 
    0.708473     0.420658     0.432926 
    0.489490     0.340279     0.525178 
    0.562138     0.379301     0.378525 
    0.734475     0.539154     0.558648 
    0.597919     0.636506     0.381045 
    0.485238     0.438322     0.662798 
    0.633547     0.495672     0.668056 
    0.696965     0.678631     0.501369 
    0.497491     0.525012     0.348133 
    0.449953     0.644630     0.450574 
    0.414762     0.482827     0.500102 
    0.265313     0.498321     0.420666 
    0.381342     0.421097     0.332537 
    0.346316     0.522050     0.658499 
    0.333364     0.349291     0.459380 
    0.301621     0.650308     0.435509 
    0.353930     0.370867     0.631091 
    0.568630     0.656947     0.517304 
    0.592219     0.374375     0.606707 
    0.617509     0.348346     0.504088 
    0.632703     0.504234     0.359247 
    0.695781     0.557749     0.424420 
    0.680456     0.406612     0.567583 
    0.371603     0.559130     0.368996 
    0.368132     0.620530     0.557500 
    0.445885     0.322246     0.396283 
    0.285790     0.562503     0.543281 
    0.279661     0.453942     0.551263 
EA18121 16.843 16.814 14.357 90.00 90.00 90.00 Sym.group:    0
1.0
   16.842979     0.000000     0.000000
    0.000000    16.814424     0.000000
    0.000000     0.000000    14.357232
   W   B
  20  12
Direct
    0.286870     0.440942     0.530391 
    0.433552     0.496105     0.486670 
    0.377889     0.380592     0.378965 
    0.297764     0.685500     0.582767 
    0.390616     0.529306     0.292496 
    0.518464     0.355627     0.444160 
    0.524438     0.482270     0.327823 
    0.487620     0.627597     0.413163 
    0.594697     0.504537     0.498700 
    0.665170     0.375835     0.420945 
    0.585442     0.367232     0.611245 
    0.623730     0.668384     0.481295 
    0.504916     0.486261     0.659336 
    0.415626     0.370821     0.597101 
    0.729041     0.415216     0.573881 
    0.422162     0.613832     0.610812 
    0.729327     0.559458     0.569617 
    0.333149     0.613655     0.441690 
    0.592870     0.616559     0.634338 
    0.417655     0.247808     0.459944 
    0.321850     0.319609     0.507183 
    0.297812     0.559753     0.602250 
    0.412510     0.706402     0.504361 
    0.313653     0.490190     0.399054 
    0.661108     0.494320     0.353159 
    0.610098     0.582377     0.361442 
    0.699926     0.576553     0.418164 
    0.731627     0.484983     0.438842 
    0.641515     0.487667     0.652957 
    0.499379     0.273686     0.565147 
    0.370309     0.490554     0.636637 
    0.509218     0.696369     0.545467 
EA18687 16.524 15.421 14.069 90.00 90.00 90.00 Sym.group:    0
1.0
   16.524318     0.000000     0.000000
    0.000000    15.420943     0.000000
    0.000000     0.000000    14.068663
   W   B
  16  11
Direct
    0.291463     0.424294     0.429891 
    0.480669     0.360358     0.600280 
    0.585860     0.466962     0.688254 
    0.272828     0.506335     0.589431 
    0.399361     0.482573     0.686633 
    0.420515     0.492544     0.500844 
    0.532685     0.358515     0.420811 
    0.413244     0.653852     0.401026 
    0.508614     0.530308     0.347127 
    0.575405     0.660036     0.472620 
    0.499651     0.607263     0.628560 
    0.575446     0.493573     0.509997 
    0.710339     0.463581     0.600598 
    0.350335     0.641556     0.575256 
    0.388700     0.308714     0.457839 
    0.459054     0.745086     0.536190 
    0.310054     0.568753     0.441527 
    0.345175     0.385065     0.578948 
    0.367585     0.518648     0.349542 
    0.616956     0.359499     0.567166 
    0.640069     0.591611     0.604792 
    0.690284     0.579478     0.497865 
    0.667485     0.387923     0.465745 
    0.706356     0.485248     0.441527 
    0.418211     0.419022     0.354900 
    0.630673     0.449723     0.368160 
    0.642980     0.559482     0.384474 
EA18702 17.748 16.100 15.001 90.00 90.00 90.00 Sym.group:    0
1.0
   17.748399     0.000000     0.000000
    0.000000    16.100418     0.000000
    0.000000     0.000000    15.001279
   W   B
  20  15
Direct
    0.574772     0.485420     0.489192 
    0.720145     0.584278     0.476624 
    0.712631     0.469925     0.366826 
    0.709592     0.414022     0.524049 
    0.439615     0.640167     0.545166 
    0.505034     0.526744     0.657360 
    0.659372     0.542070     0.622988 
    0.518084     0.370213     0.646224 
    0.661150     0.360287     0.665531 
    0.543539     0.739520     0.512440 
    0.639055     0.706491     0.415253 
    0.513102     0.605014     0.392516 
    0.607411     0.365374     0.390258 
    0.478371     0.445420     0.326111 
    0.311105     0.690694     0.503615 
    0.238412     0.569788     0.474673 
    0.322314     0.463247     0.391773 
    0.428543     0.478838     0.501674 
    0.486376     0.329326     0.482583 
    0.296643     0.454356     0.568757 
    0.643588     0.667438     0.554762 
    0.634541     0.576489     0.375458 
    0.603965     0.335537     0.539167 
    0.597511     0.457861     0.713257 
    0.564024     0.637023     0.607078 
    0.404721     0.437032     0.655857 
    0.379304     0.535780     0.638055 
    0.589803     0.495516     0.328674 
    0.490286     0.314851     0.343253 
    0.406690     0.550693     0.338808 
    0.361443     0.601116     0.417761 
    0.398976     0.348239     0.376938 
    0.355333     0.354949     0.480455 
    0.394463     0.355326     0.584985 
    0.310086     0.590957     0.591881 
EA19047 17.817 15.370 16.160 90.00 90.00 90.00 Sym.group:    0
1.0
   17.817482     0.000000     0.000000
    0.000000    15.370196     0.000000
    0.000000     0.000000    16.160059
   W   B
  20  15
Direct
    0.380295     0.323352     0.465243 
    0.492948     0.397865     0.374932 
    0.606679     0.309735     0.401732 
    0.275946     0.441599     0.445495 
    0.491450     0.467127     0.643849 
    0.515134     0.341743     0.524683 
    0.404777     0.495689     0.496120 
    0.286363     0.526279     0.598761 
    0.722496     0.417092     0.590790 
    0.336506     0.544405     0.336746 
    0.425281     0.466636     0.252092 
    0.430833     0.622401     0.615246 
    0.557700     0.539697     0.506352 
    0.709120     0.583151     0.581345 
    0.576114     0.633534     0.635680 
    0.635969     0.472594     0.371607 
    0.495982     0.564352     0.344866 
    0.411685     0.655562     0.444436 
    0.633699     0.698985     0.507268 
    0.764439     0.483728     0.469395 
    0.365786     0.406860     0.355324 
    0.622624     0.498415     0.639295 
    0.364782     0.433474     0.650426 
    0.597639     0.398801     0.603980 
    0.637400     0.331598     0.533627 
    0.318557     0.393007     0.567676 
    0.409843     0.361114     0.592113 
    0.378434     0.527506     0.692045 
    0.295635     0.583149     0.466142 
    0.331061     0.639813     0.542933 
    0.509554     0.688620     0.526855 
    0.677826     0.581682     0.448816 
    0.606466     0.616700     0.388733 
    0.534750     0.677527     0.425512 
    0.696228     0.376208     0.459885 
EA19644 17.736 14.954 13.973 90.00 90.00 90.00 Sym.group:    0
1.0
   17.735521     0.000000     0.000000
    0.000000    14.954099     0.000000
    0.000000     0.000000    13.973341
   W   B
  19  11
Direct
    0.477970     0.606207     0.363484 
    0.416238     0.505084     0.501727 
    0.269980     0.500667     0.449343 
    0.352323     0.372390     0.401284 
    0.308893     0.531118     0.631416 
    0.490588     0.308068     0.451735 
    0.482536     0.437808     0.331242 
    0.569900     0.494236     0.497852 
    0.716415     0.504425     0.588509 
    0.620056     0.510988     0.327683 
    0.508831     0.378505     0.615203 
    0.618890     0.283389     0.498167 
    0.701451     0.408682     0.444708 
    0.620155     0.660204     0.426880 
    0.479334     0.541790     0.667817 
    0.507359     0.659436     0.544363 
    0.622749     0.623918     0.635864 
    0.748947     0.562262     0.398672 
    0.734433     0.662176     0.528736 
    0.316921     0.620479     0.510103 
    0.369736     0.510093     0.338899 
    0.386053     0.638377     0.591956 
    0.346817     0.606389     0.394145 
    0.399095     0.667654     0.471266 
    0.397205     0.342356     0.549994 
    0.388531     0.420721     0.643166 
    0.319717     0.405821     0.553928 
    0.636481     0.389107     0.601700 
    0.590961     0.369808     0.376639 
    0.601436     0.477840     0.663517 
EA20048 16.450 14.981 14.288 90.00 90.00 90.00 Sym.group:    0
1.0
   16.450466     0.000000     0.000000
    0.000000    14.980996     0.000000
    0.000000     0.000000    14.288384
   W   B
  16  11
Direct
    0.708268     0.407921     0.438502 
    0.522027     0.391027     0.632417 
    0.408784     0.492420     0.695301 
    0.616404     0.518964     0.678619 
    0.575084     0.487061     0.496508 
    0.465496     0.335388     0.467869 
    0.338237     0.588157     0.347522 
    0.499212     0.566347     0.351962 
    0.407519     0.670546     0.473563 
    0.499308     0.619800     0.612370 
    0.421512     0.501763     0.504802 
    0.281363     0.472117     0.597139 
    0.648835     0.641433     0.566881 
    0.612492     0.297033     0.494809 
    0.391538     0.431210     0.341703 
    0.572624     0.392512     0.344423 
    0.698947     0.555427     0.454716 
    0.665419     0.402128     0.590544 
    0.636717     0.520617     0.356024 
    0.384055     0.377622     0.591679 
    0.542804     0.665227     0.466570 
    0.351638     0.599418     0.599399 
    0.297064     0.581954     0.495786 
    0.333372     0.381658     0.486691 
    0.292975     0.477516     0.437895 
    0.705915     0.505903     0.563437 
    0.622391     0.618833     0.412867 
EA20386 16.246 14.818 14.415 90.00 90.00 90.00 Sym.group:    0
1.0
   16.245666     0.000000     0.000000
    0.000000    14.817858     0.000000
    0.000000     0.000000    14.415495
   W   B
  16  11
Direct
    0.710239     0.567911     0.418193 
    0.524040     0.643176     0.597004 
    0.405513     0.558543     0.680094 
    0.606663     0.520640     0.681109 
    0.577081     0.508687     0.499291 
    0.477031     0.655128     0.421273 
    0.333628     0.387495     0.368172 
    0.500297     0.399110     0.376961 
    0.400563     0.330886     0.513728 
    0.491771     0.407795     0.640271 
    0.420101     0.501906     0.501873 
    0.279709     0.559364     0.579565 
    0.645970     0.371934     0.606953 
    0.626620     0.694170     0.456935 
    0.394702     0.530602     0.324845 
    0.571382     0.558850     0.324394 
    0.700281     0.426408     0.475990 
    0.669884     0.608611     0.570137 
    0.640139     0.438635     0.371870 
    0.388071     0.646674     0.549890 
    0.539274     0.330820     0.515737 
    0.346001     0.431442     0.616868 
    0.292246     0.426707     0.510934 
    0.338349     0.619251     0.449605 
    0.291761     0.517456     0.428708 
    0.707284     0.501043     0.567162 
    0.621395     0.356759     0.452438 
EA20545 17.526 15.099 14.661 90.00 90.00 90.00 Sym.group:    0
1.0
   17.526473     0.000000     0.000000
    0.000000    15.098586     0.000000
    0.000000     0.000000    14.661200
   W   B
  20  11
Direct
    0.412975     0.489513     0.494462 
    0.445323     0.663795     0.498532 
    0.275568     0.502487     0.409208 
    0.385245     0.478252     0.305988 
    0.500942     0.393785     0.369202 
    0.498823     0.584791     0.353931 
    0.568338     0.717616     0.425390 
    0.621121     0.475132     0.304753 
    0.578218     0.505067     0.495554 
    0.711887     0.506937     0.601784 
    0.486148     0.566316     0.645391 
    0.679934     0.650083     0.514338 
    0.649223     0.355010     0.410568 
    0.490283     0.399198     0.624927 
    0.352004     0.467941     0.668248 
    0.650847     0.359558     0.608776 
    0.722102     0.509380     0.423225 
    0.336510     0.348106     0.420583 
    0.350525     0.625236     0.638603 
    0.450737     0.290161     0.489867 
    0.323461     0.615136     0.488723 
    0.372285     0.600430     0.388785 
    0.629036     0.602183     0.379040 
    0.290250     0.421548     0.538965 
    0.560473     0.661044     0.565395 
    0.286604     0.532064     0.556066 
    0.614210     0.592933     0.631958 
    0.734269     0.392671     0.509519 
    0.595917     0.485457     0.658946 
    0.561773     0.352423     0.510314 
    0.364970     0.355749     0.568957 
EA20955 17.320 14.510 14.301 90.00 90.00 90.00 Sym.group:    0
1.0
   17.320380     0.000000     0.000000
    0.000000    14.510351     0.000000
    0.000000     0.000000    14.300632
   W   B
  17  13
Direct
    0.487031     0.580675     0.350819 
    0.423949     0.505514     0.499212 
    0.269340     0.514734     0.461143 
    0.337382     0.366330     0.430393 
    0.317473     0.563567     0.626244 
    0.479157     0.306369     0.472848 
    0.469651     0.405625     0.337780 
    0.582951     0.489872     0.496137 
    0.716362     0.517910     0.598117 
    0.611871     0.483129     0.311831 
    0.515568     0.384431     0.627016 
    0.702530     0.395115     0.457032 
    0.489695     0.559185     0.655611 
    0.535568     0.665560     0.509557 
    0.721560     0.557355     0.385230 
    0.678789     0.664058     0.509509 
    0.664779     0.368327     0.633022 
    0.332643     0.637897     0.498240 
    0.363790     0.496177     0.345765 
    0.408953     0.655280     0.570656 
    0.355816     0.602970     0.388280 
    0.418183     0.671220     0.450489 
    0.392003     0.351729     0.572689 
    0.393231     0.444682     0.652810 
    0.317520     0.425055     0.575360 
    0.589218     0.353770     0.393088 
    0.605960     0.493536     0.674907 
    0.600610     0.316237     0.507359 
    0.607952     0.622630     0.383735 
    0.610463     0.601064     0.625120 
EA21214 17.279 15.694 14.569 90.00 90.00 90.00 Sym.group:    0
1.0
   17.279428     0.000000     0.000000
    0.000000    15.693959     0.000000
    0.000000     0.000000    14.569265
   W   B
  19  12
Direct
    0.409559     0.506823     0.494372 
    0.448224     0.346553     0.500464 
    0.271662     0.487970     0.406320 
    0.380569     0.510335     0.297659 
    0.497913     0.594705     0.368748 
    0.500403     0.424374     0.352998 
    0.619978     0.522987     0.298899 
    0.580815     0.495734     0.499194 
    0.715066     0.497620     0.606607 
    0.486961     0.434071     0.647261 
    0.687170     0.361768     0.515700 
    0.653840     0.636588     0.408916 
    0.488050     0.595283     0.621227 
    0.348907     0.526274     0.667556 
    0.648874     0.638478     0.603342 
    0.725358     0.489536     0.425722 
    0.332494     0.635917     0.414391 
    0.349920     0.375337     0.641527 
    0.445707     0.702166     0.485617 
    0.323708     0.382958     0.488769 
    0.372400     0.396508     0.386720 
    0.631213     0.401480     0.380830 
    0.286624     0.568535     0.537372 
    0.566446     0.349192     0.565541 
    0.282863     0.462024     0.555575 
    0.617973     0.413977     0.637771 
    0.739547     0.605021     0.511852 
    0.595805     0.517707     0.661824 
    0.559441     0.641965     0.503616 
    0.361264     0.635124     0.564755 
    0.571248     0.342993     0.448857 
EA21451 17.148 15.868 14.589 90.00 90.00 90.00 Sym.group:    0
1.0
   17.148304     0.000000     0.000000
    0.000000    15.867765     0.000000
    0.000000     0.000000    14.589227
   W   B
  20  13
Direct
    0.601710     0.329356     0.509191 
    0.464114     0.365719     0.597850 
    0.490314     0.503155     0.685613 
    0.581623     0.509064     0.492125 
    0.486159     0.384915     0.409731 
    0.475087     0.238803     0.497946 
    0.722667     0.416500     0.457571 
    0.352348     0.316481     0.486627 
    0.633977     0.530218     0.682955 
    0.545671     0.637321     0.592688 
    0.329259     0.418753     0.636665 
    0.483245     0.655045     0.427574 
    0.637020     0.662844     0.437046 
    0.365798     0.665916     0.550493 
    0.412408     0.511782     0.514131 
    0.259810     0.444332     0.491255 
    0.437087     0.527218     0.330550 
    0.753262     0.574327     0.449629 
    0.677034     0.510703     0.320454 
    0.568580     0.607455     0.293292 
    0.671916     0.422010     0.597452 
    0.719880     0.509837     0.571721 
    0.582032     0.410049     0.637573 
    0.613364     0.398650     0.376052 
    0.361262     0.554184     0.665742 
    0.555338     0.468662     0.318327 
    0.315861     0.522813     0.384124 
    0.355528     0.424105     0.388811 
    0.290302     0.550084     0.585583 
    0.361300     0.617114     0.407104 
    0.433769     0.622334     0.659463 
    0.287174     0.580438     0.475481 
    0.675100     0.609812     0.569184 
EA21893 17.481 15.039 14.922 90.00 90.00 90.00 Sym.group:    0
1.0
   17.480538     0.000000     0.000000
    0.000000    15.038586     0.000000
    0.000000     0.000000    14.922375
   W   B
  17  14
Direct
    0.411872     0.495332     0.494849 
    0.445394     0.668796     0.483462 
    0.369039     0.487999     0.669795 
    0.495642     0.405132     0.635134 
    0.490519     0.580973     0.632871 
    0.613144     0.482880     0.700055 
    0.580062     0.501726     0.505091 
    0.715543     0.498864     0.409386 
    0.489972     0.563992     0.354778 
    0.682547     0.644506     0.485721 
    0.644618     0.358379     0.594707 
    0.497219     0.388334     0.377841 
    0.339445     0.353877     0.429520 
    0.370663     0.460409     0.312751 
    0.642900     0.351243     0.417091 
    0.718268     0.511243     0.581005 
    0.270698     0.504478     0.423535 
    0.363860     0.601132     0.386910 
    0.325070     0.622070     0.489395 
    0.369302     0.615439     0.593495 
    0.622056     0.605821     0.614712 
    0.374924     0.369469     0.578772 
    0.296678     0.433145     0.553276 
    0.565251     0.658367     0.429074 
    0.618832     0.585010     0.368875 
    0.447946     0.341653     0.509569 
    0.736744     0.383896     0.502760 
    0.598383     0.476755     0.347750 
    0.543898     0.341676     0.508407 
    0.564912     0.663053     0.543201 
    0.294599     0.544352     0.566214 
EA22324 16.985 15.124 14.803 90.00 90.00 90.00 Sym.group:    0
1.0
   16.984723     0.000000     0.000000
    0.000000    15.123548     0.000000
    0.000000     0.000000    14.802869
   W   B
  18  12
Direct
    0.581310     0.513403     0.502405 
    0.732462     0.515615     0.442019 
    0.665340     0.375320     0.415602 
    0.688799     0.554064     0.622829 
    0.547561     0.271759     0.455647 
    0.496871     0.376035     0.586562 
    0.526205     0.538549     0.662469 
    0.383621     0.509390     0.300927 
    0.461935     0.658810     0.522895 
    0.301350     0.621391     0.530242 
    0.342046     0.361921     0.578721 
    0.414939     0.499314     0.497871 
    0.336016     0.388149     0.402940 
    0.391372     0.611914     0.663868 
    0.508396     0.585601     0.361547 
    0.505423     0.407060     0.377665 
    0.269801     0.552578     0.384725 
    0.594006     0.675935     0.606986 
    0.673595     0.635252     0.495376 
    0.617879     0.497876     0.352297 
    0.640765     0.603358     0.389157 
    0.582581     0.669838     0.455605 
    0.621301     0.346473     0.549553 
    0.616910     0.427960     0.632018 
    0.693151     0.425010     0.551862 
    0.380571     0.623519     0.402337 
    0.316119     0.502190     0.614712 
    0.278492     0.472824     0.510720 
    0.427597     0.313691     0.472892 
    0.403587     0.465200     0.657552 
EA22521 17.162 15.866 14.521 90.00 90.00 90.00 Sym.group:    0
1.0
   17.162099     0.000000     0.000000
    0.000000    15.866183     0.000000
    0.000000     0.000000    14.521430
   W   B
  18  14
Direct
    0.389781     0.321646     0.449267 
    0.521336     0.387861     0.375413 
    0.508808     0.551301     0.328760 
    0.420237     0.504691     0.487672 
    0.514127     0.241202     0.438267 
    0.278603     0.414361     0.491598 
    0.371568     0.597413     0.315700 
    0.454705     0.668802     0.441466 
    0.359386     0.636621     0.601070 
    0.501842     0.362737     0.567427 
    0.633295     0.319763     0.473136 
    0.664123     0.448795     0.356476 
    0.506107     0.624026     0.599073 
    0.628600     0.665509     0.501405 
    0.583784     0.503519     0.504342 
    0.730965     0.434570     0.508575 
    0.545380     0.483996     0.679533 
    0.374030     0.441606     0.327631 
    0.290854     0.546644     0.526072 
    0.296431     0.526661     0.409007 
    0.368994     0.384937     0.584811 
    0.338715     0.488875     0.615320 
    0.424302     0.435499     0.659425 
    0.419346     0.539794     0.673908 
    0.331398     0.621722     0.455581 
    0.634436     0.586377     0.370904 
    0.670615     0.489575     0.635516 
    0.630682     0.395032     0.603024 
    0.704337     0.559596     0.447908 
    0.629501     0.588625     0.634481 
    0.568311     0.663376     0.373792 
    0.705398     0.564866     0.563439 
EA22903 16.892 15.539 14.498 90.00 90.00 90.00 Sym.group:    0
1.0
   16.892256     0.000000     0.000000
    0.000000    15.539114     0.000000
    0.000000     0.000000    14.498124
   W   B
  20  11
Direct
    0.397068     0.514271     0.294785 
    0.471759     0.335566     0.501319 
    0.297145     0.357150     0.491821 
    0.500861     0.447452     0.656436 
    0.467405     0.609813     0.604467 
    0.312630     0.604802     0.582600 
    0.406363     0.486079     0.492450 
    0.318739     0.605038     0.411774 
    0.379349     0.357671     0.637205 
    0.589783     0.325697     0.614168 
    0.521795     0.433090     0.338569 
    0.581879     0.485507     0.500506 
    0.704432     0.553373     0.563683 
    0.632138     0.334988     0.444798 
    0.541282     0.753736     0.524929 
    0.490819     0.608003     0.405953 
    0.635661     0.657105     0.446674 
    0.385516     0.354137     0.354123 
    0.669146     0.431294     0.317289 
    0.407242     0.721100     0.491997 
    0.296182     0.463548     0.599011 
    0.264279     0.495929     0.493397 
    0.377665     0.502335     0.656545 
    0.609576     0.551681     0.350651 
    0.690082     0.405235     0.565556 
    0.716096     0.443147     0.461260 
    0.604145     0.649913     0.595912 
    0.637135     0.455046     0.650425 
    0.592809     0.554567     0.651461 
    0.699807     0.539490     0.411491 
    0.301213     0.463236     0.388743 
EA23320 17.164 14.987 14.183 90.00 90.00 90.00 Sym.group:    0
1.0
   17.163723     0.000000     0.000000
    0.000000    14.986774     0.000000
    0.000000     0.000000    14.183032
   W   B
  19  11
Direct
    0.469845     0.364073     0.410779 
    0.414884     0.501595     0.500085 
    0.262388     0.492056     0.467738 
    0.358257     0.602900     0.364249 
    0.319849     0.523796     0.652227 
    0.498674     0.515097     0.323536 
    0.605388     0.308213     0.449481 
    0.521204     0.360270     0.597093 
    0.578995     0.510991     0.489586 
    0.718590     0.508675     0.582150 
    0.522542     0.658996     0.564360 
    0.720360     0.546870     0.406356 
    0.490086     0.522838     0.667529 
    0.675569     0.349423     0.584706 
    0.678834     0.666084     0.538017 
    0.359979     0.449817     0.314647 
    0.398333     0.290838     0.549648 
    0.287977     0.636549     0.533414 
    0.609927     0.666323     0.396134 
    0.319254     0.401435     0.571415 
    0.401264     0.407996     0.643948 
    0.340648     0.374955     0.450337 
    0.408911     0.661173     0.494316 
    0.402158     0.627798     0.612600 
    0.621176     0.538973     0.315387 
    0.611909     0.575382     0.641116 
    0.607838     0.461355     0.651177 
    0.481252     0.626861     0.419292 
    0.621731     0.433864     0.360566 
    0.692180     0.414800     0.448111 
EA23627 16.622 15.861 14.656 90.00 90.00 90.00 Sym.group:    0
1.0
   16.621997     0.000000     0.000000
    0.000000    15.860727     0.000000
    0.000000     0.000000    14.655574
   W   B
  20  11
Direct
    0.395673     0.508523     0.702975 
    0.469079     0.339549     0.490683 
    0.294004     0.363743     0.502720 
    0.501266     0.454899     0.341766 
    0.471263     0.612857     0.402366 
    0.315131     0.609677     0.420135 
    0.405121     0.488645     0.505648 
    0.320244     0.603203     0.591952 
    0.377941     0.366942     0.357217 
    0.587795     0.331160     0.378415 
    0.517854     0.424843     0.656888 
    0.581672     0.482425     0.499973 
    0.707393     0.551705     0.439997 
    0.630049     0.332993     0.545911 
    0.546849     0.750219     0.493420 
    0.490902     0.603400     0.594512 
    0.639700     0.649668     0.561879 
    0.379982     0.353996     0.639254 
    0.667485     0.423257     0.677790 
    0.409264     0.720331     0.512596 
    0.293763     0.471388     0.400186 
    0.262543     0.501625     0.505203 
    0.377135     0.508900     0.344256 
    0.608282     0.541589     0.650321 
    0.691401     0.405526     0.431419 
    0.718096     0.438032     0.536535 
    0.607475     0.648653     0.415599 
    0.638749     0.458491     0.349585 
    0.594926     0.557215     0.355341 
    0.701018     0.531044     0.588075 
    0.297945     0.465502     0.607382 
EA23918 16.622 15.861 14.656 90.00 90.00 90.00 Sym.group:    0
1.0
   16.621997     0.000000     0.000000
    0.000000    15.860727     0.000000
    0.000000     0.000000    14.655574
   W   B
  20  11
Direct
    0.395673     0.508523     0.702975 
    0.469079     0.339549     0.490683 
    0.294004     0.363743     0.502720 
    0.501266     0.454899     0.341766 
    0.471263     0.612857     0.402366 
    0.315131     0.609677     0.420135 
    0.405121     0.488645     0.505648 
    0.320244     0.603203     0.591952 
    0.377941     0.366942     0.357217 
    0.587795     0.331160     0.378415 
    0.517854     0.424843     0.656888 
    0.581672     0.482425     0.499973 
    0.707393     0.551705     0.439997 
    0.630049     0.332993     0.545911 
    0.546849     0.750219     0.493420 
    0.490902     0.603400     0.594512 
    0.639700     0.649668     0.561879 
    0.379982     0.353996     0.639254 
    0.667485     0.423257     0.677790 
    0.409264     0.720331     0.512596 
    0.293763     0.471388     0.400186 
    0.262543     0.501625     0.505203 
    0.377135     0.508900     0.344256 
    0.608282     0.541589     0.650321 
    0.691401     0.405526     0.431419 
    0.718096     0.438032     0.536535 
    0.607475     0.648653     0.415599 
    0.638749     0.458491     0.349585 
    0.594926     0.557215     0.355341 
    0.701018     0.531044     0.588075 
    0.297945     0.465502     0.607382 
EA24154 17.268 15.591 14.098 90.00 90.00 90.00 Sym.group:    0
1.0
   17.267537     0.000000     0.000000
    0.000000    15.590640     0.000000
    0.000000     0.000000    14.097775
   W   B
  19  14
Direct
    0.505161     0.527375     0.329875 
    0.717214     0.585445     0.423949 
    0.445249     0.726632     0.624976 
    0.494666     0.655994     0.473119 
    0.409815     0.495755     0.507006 
    0.373932     0.609196     0.368651 
    0.267530     0.581842     0.505885 
    0.365966     0.441374     0.330873 
    0.491837     0.366558     0.406679 
    0.246577     0.537665     0.337716 
    0.262137     0.426649     0.459614 
    0.598131     0.652776     0.347652 
    0.574253     0.496472     0.499346 
    0.560925     0.630508     0.639641 
    0.708901     0.607936     0.601982 
    0.504633     0.479358     0.671379 
    0.661565     0.477901     0.668715 
    0.385569     0.583762     0.657803 
    0.460978     0.341956     0.582344 
    0.637081     0.523088     0.325776 
    0.597949     0.427288     0.344194 
    0.373142     0.656188     0.520678 
    0.621617     0.650510     0.500564 
    0.712652     0.478728     0.526799 
    0.628637     0.365249     0.432028 
    0.660443     0.385382     0.550167 
    0.578032     0.323768     0.519241 
    0.582022     0.372707     0.626427 
    0.337117     0.377657     0.574472 
    0.371994     0.350294     0.464076 
    0.379983     0.434753     0.664029 
    0.298873     0.476302     0.608726 
    0.685418     0.452930     0.405618 
EA24610 16.881 15.871 14.587 90.00 90.00 90.00 Sym.group:    0
1.0
   16.881022     0.000000     0.000000
    0.000000    15.871395     0.000000
    0.000000     0.000000    14.587131
   W   B
  20  11
Direct
    0.600603     0.504186     0.704718 
    0.530774     0.337491     0.485783 
    0.704370     0.364150     0.502062 
    0.499786     0.456571     0.342787 
    0.529163     0.613836     0.406355 
    0.683825     0.612953     0.425357 
    0.592785     0.488081     0.507337 
    0.675146     0.602382     0.596641 
    0.623109     0.370813     0.355701 
    0.413234     0.332771     0.372467 
    0.480683     0.418587     0.652039 
    0.417349     0.482777     0.498954 
    0.295496     0.553190     0.438943 
    0.369766     0.330769     0.538396 
    0.456820     0.748268     0.504288 
    0.508664     0.601709     0.598200 
    0.360353     0.648189     0.565835 
    0.618217     0.351018     0.635843 
    0.333043     0.418472     0.671977 
    0.592943     0.723229     0.509286 
    0.704010     0.474928     0.402257 
    0.733795     0.502711     0.508949 
    0.621571     0.513589     0.347747 
    0.392391     0.537632     0.650600 
    0.310982     0.408195     0.425276 
    0.283110     0.437617     0.531930 
    0.396365     0.648917     0.421208 
    0.364758     0.462318     0.345821 
    0.407671     0.560701     0.355829 
    0.300699     0.529192     0.587245 
    0.698514     0.464756     0.610166 
EA24845 16.191 16.294 15.902 90.00 90.00 90.00 Sym.group:    0
1.0
   16.191078     0.000000     0.000000
    0.000000    16.294439     0.000000
    0.000000     0.000000    15.901803
   W   B
  20  12
Direct
    0.626010     0.478639     0.693592 
    0.743641     0.408224     0.467960 
    0.506800     0.627699     0.446217 
    0.662484     0.648115     0.447747 
    0.587327     0.484598     0.495841 
    0.655063     0.602116     0.603108 
    0.492983     0.414656     0.650852 
    0.429070     0.709816     0.576614 
    0.494655     0.578364     0.619132 
    0.641797     0.359463     0.593389 
    0.577317     0.728981     0.553658 
    0.479572     0.498322     0.343660 
    0.413938     0.488887     0.499893 
    0.305052     0.366395     0.477772 
    0.323308     0.590734     0.589219 
    0.476389     0.336428     0.509179 
    0.628889     0.429508     0.336265 
    0.310973     0.472863     0.364474 
    0.630187     0.316178     0.443351 
    0.360640     0.346086     0.625566 
    0.695972     0.523560     0.402324 
    0.728770     0.540786     0.504483 
    0.375179     0.483101     0.651983 
    0.711660     0.475934     0.585707 
    0.301338     0.579613     0.450429 
    0.411963     0.384298     0.390913 
    0.370524     0.653400     0.470807 
    0.384705     0.590052     0.385074 
    0.292649     0.454345     0.587509 
    0.602564     0.561282     0.359399 
    0.264508     0.495127     0.495947 
    0.514072     0.372427     0.377938 
EA25382 17.421 14.565 14.135 90.00 90.00 90.00 Sym.group:    0
1.0
   17.421065     0.000000     0.000000
    0.000000    14.565209     0.000000
    0.000000     0.000000    14.135028
   W   B
  16  14
Direct
    0.464477     0.589729     0.644207 
    0.579634     0.501218     0.506426 
    0.663282     0.648454     0.464360 
    0.378490     0.329115     0.604879 
    0.716912     0.408526     0.522235 
    0.368226     0.634249     0.384161 
    0.507462     0.661347     0.479643 
    0.422734     0.496579     0.490009 
    0.299292     0.475680     0.384425 
    0.280909     0.437079     0.557581 
    0.489165     0.333660     0.474933 
    0.680099     0.482836     0.364828 
    0.702124     0.561677     0.611843 
    0.534799     0.441037     0.339045 
    0.503390     0.412704     0.646973 
    0.371230     0.697137     0.545846 
    0.337207     0.564885     0.613626 
    0.586045     0.633254     0.601249 
    0.751046     0.545584     0.469886 
    0.632497     0.432509     0.638361 
    0.383149     0.471084     0.656502 
    0.602246     0.351320     0.556934 
    0.414858     0.502164     0.318127 
    0.581563     0.583989     0.362443 
    0.408102     0.392771     0.359423 
    0.613816     0.360189     0.434928 
    0.357153     0.352727     0.452817 
    0.298715     0.580815     0.502509 
    0.588227     0.535255     0.670770 
    0.483149     0.582427     0.341029 
EA25726 17.416 14.529 14.600 90.00 90.00 90.00 Sym.group:    0
1.0
   17.416423     0.000000     0.000000
    0.000000    14.529479     0.000000
    0.000000     0.000000    14.600043
   W   B
  16  14
Direct
    0.528940     0.583757     0.356259 
    0.420788     0.500255     0.499888 
    0.336460     0.392968     0.392725 
    0.617544     0.676669     0.601138 
    0.284033     0.552843     0.579701 
    0.633553     0.342580     0.425430 
    0.491495     0.404654     0.366206 
    0.576369     0.494875     0.504035 
    0.705114     0.420028     0.563373 
    0.715942     0.588529     0.524104 
    0.515679     0.556601     0.656849 
    0.324598     0.385431     0.582134 
    0.293586     0.560032     0.403445 
    0.473412     0.386243     0.624974 
    0.492345     0.668562     0.511775 
    0.622825     0.454641     0.298949 
    0.657348     0.576301     0.386396 
    0.408680     0.521153     0.340891 
    0.249337     0.444096     0.482344 
    0.363731     0.644904     0.503283 
    0.610567     0.654421     0.452285 
    0.397982     0.613063     0.610202 
    0.592593     0.345169     0.574729 
    0.423042     0.338153     0.490872 
    0.599116     0.432009     0.653070 
    0.391381     0.503090     0.656967 
    0.646723     0.533442     0.645469 
    0.698770     0.474304     0.419377 
    0.405683     0.626959     0.396648 
    0.522367     0.324270     0.496481 
EA26021 17.359 14.761 14.287 90.00 90.00 90.00 Sym.group:    0
1.0
   17.358532     0.000000     0.000000
    0.000000    14.761290     0.000000
    0.000000     0.000000    14.286632
   W   B
  16  14
Direct
    0.474919     0.452256     0.664344 
    0.579257     0.497294     0.499766 
    0.664530     0.627757     0.580401 
    0.380867     0.305715     0.442433 
    0.714984     0.434845     0.428760 
    0.364362     0.668781     0.535964 
    0.509587     0.623424     0.610954 
    0.421844     0.505197     0.497632 
    0.292113     0.560070     0.419809 
    0.284410     0.406015     0.503982 
    0.482545     0.407648     0.356293 
    0.672370     0.595397     0.389114 
    0.709553     0.468868     0.605915 
    0.523614     0.577947     0.349971 
    0.508431     0.339470     0.526643 
    0.379412     0.589656     0.686756 
    0.345132     0.452026     0.633393 
    0.593624     0.518063     0.661414 
    0.751886     0.561853     0.497894 
    0.638450     0.360890     0.528774 
    0.391460     0.361878     0.586526 
    0.603095     0.365701     0.414670 
    0.405184     0.628974     0.390932 
    0.575417     0.656958     0.470991 
    0.397924     0.527131     0.334835 
    0.607594     0.461621     0.343767 
    0.351314     0.431425     0.367520 
    0.301520     0.540887     0.574915 
    0.598685     0.403239     0.632282 
    0.475918     0.669011     0.463351 
EA26371 16.914 14.298 14.228 90.00 90.00 90.00 Sym.group:    0
1.0
   16.913852     0.000000     0.000000
    0.000000    14.298238     0.000000
    0.000000     0.000000    14.227601
   W   B
  16  14
Direct
    0.482629     0.471276     0.329178 
    0.422685     0.489044     0.499446 
    0.303610     0.546338     0.615275 
    0.278165     0.567189     0.447534 
    0.288785     0.385426     0.471820 
    0.512146     0.637932     0.409080 
    0.456317     0.640471     0.590214 
    0.340427     0.374773     0.630874 
    0.524828     0.335622     0.439512 
    0.583138     0.503516     0.503931 
    0.703281     0.596148     0.578918 
    0.733723     0.422705     0.554352 
    0.721177     0.500344     0.396634 
    0.495271     0.373438     0.619277 
    0.668538     0.655765     0.418126 
    0.634156     0.457734     0.676254 
    0.352695     0.467060     0.360093 
    0.388474     0.579241     0.362794 
    0.418568     0.500875     0.665108 
    0.398970     0.363073     0.388542 
    0.387107     0.658205     0.451524 
    0.329517     0.673740     0.546018 
    0.653750     0.370056     0.444756 
    0.619159     0.349429     0.557185 
    0.584944     0.665607     0.540038 
    0.602344     0.543716     0.338707 
    0.610000     0.424195     0.351957 
    0.583998     0.603459     0.643729 
    0.406412     0.322549     0.504537 
    0.515185     0.521075     0.664586 
EA26706 16.945 14.261 14.178 90.00 90.00 90.00 Sym.group:    0
1.0
   16.945246     0.000000     0.000000
    0.000000    14.261413     0.000000
    0.000000     0.000000    14.178066
   W   B
  17  13
Direct
    0.484244     0.419729     0.347925 
    0.421668     0.488963     0.506189 
    0.301304     0.582432     0.598363 
    0.278038     0.544778     0.436242 
    0.288341     0.379358     0.512136 
    0.508090     0.599066     0.366760 
    0.455191     0.663526     0.540876 
    0.340347     0.423262     0.665617 
    0.527293     0.325856     0.500113 
    0.581698     0.505667     0.499996 
    0.697074     0.618611     0.540005 
    0.737831     0.437953     0.580620 
    0.717933     0.472941     0.393556 
    0.495482     0.419299     0.653821 
    0.661841     0.624201     0.364098 
    0.639414     0.528611     0.673642 
    0.676521     0.319548     0.490538 
    0.352513     0.422673     0.380507 
    0.387161     0.530121     0.346162 
    0.417606     0.555893     0.655941 
    0.399660     0.334886     0.441563 
    0.384956     0.634659     0.403947 
    0.328278     0.679895     0.490128 
    0.619768     0.378847     0.617229 
    0.583220     0.672608     0.482788 
    0.601946     0.492097     0.322430 
    0.611371     0.384649     0.374243 
    0.578553     0.651899     0.600797 
    0.408123     0.332757     0.565137 
    0.514533     0.575214     0.648634 
EA27040 15.902 14.531 17.116 90.00 90.00 90.00 Sym.group:    0
1.0
   15.901725     0.000000     0.000000
    0.000000    14.530818     0.000000
    0.000000     0.000000    17.116204
   W   B
  17  13
Direct
    0.492101     0.347777     0.430012 
    0.416279     0.488341     0.502685 
    0.278373     0.607981     0.521329 
    0.269127     0.491996     0.419946 
    0.273427     0.398093     0.547618 
    0.520901     0.510814     0.361979 
    0.456409     0.653044     0.458063 
    0.317317     0.514254     0.640928 
    0.525705     0.354197     0.575384 
    0.588569     0.504310     0.501120 
    0.715737     0.622498     0.483644 
    0.745791     0.502630     0.583931 
    0.740448     0.425179     0.454547 
    0.487656     0.516649     0.639522 
    0.686235     0.533716     0.360301 
    0.631389     0.616072     0.623189 
    0.503758     0.702906     0.604241 
    0.349822     0.364213     0.439135 
    0.391839     0.436683     0.371298 
    0.399167     0.616361     0.580669 
    0.393465     0.324855     0.525703 
    0.388209     0.553456     0.367831 
    0.326583     0.634053     0.407307 
    0.396619     0.391588     0.613171 
    0.663490     0.382928     0.563024 
    0.621783     0.457423     0.631437 
    0.590243     0.629648     0.415537 
    0.617055     0.401739     0.390863 
    0.624650     0.341456     0.477334 
    0.587855     0.675139     0.508251 
EA27433 17.111 14.264 14.278 90.00 90.00 90.00 Sym.group:    0
1.0
   17.110603     0.000000     0.000000
    0.000000    14.263949     0.000000
    0.000000     0.000000    14.277771
   W   B
  17  13
Direct
    0.517410     0.572307     0.345590 
    0.577520     0.515487     0.507274 
    0.697747     0.430142     0.605065 
    0.722422     0.458097     0.441306 
    0.705822     0.628142     0.511828 
    0.498168     0.395172     0.372274 
    0.547401     0.339798     0.547196 
    0.653579     0.590060     0.665383 
    0.466734     0.671283     0.492129 
    0.419471     0.492441     0.499305 
    0.306766     0.377236     0.533421 
    0.261142     0.560582     0.580797 
    0.287372     0.515827     0.390457 
    0.498380     0.586836     0.648797 
    0.348280     0.364942     0.365621 
    0.355929     0.473976     0.669394 
    0.319606     0.670683     0.478712 
    0.646776     0.577554     0.381522 
    0.616510     0.466433     0.350489 
    0.580308     0.453332     0.657208 
    0.596219     0.665972     0.438541 
    0.619345     0.365115     0.413262 
    0.674039     0.325758     0.503090 
    0.376046     0.622855     0.612149 
    0.422129     0.321670     0.487901 
    0.402421     0.498173     0.320500 
    0.390482     0.606731     0.368690 
    0.422484     0.350173     0.602746 
    0.585785     0.672755     0.559940 
    0.483709     0.430470     0.649408 
EA27754 17.345 15.704 14.683 90.00 90.00 90.00 Sym.group:    0
1.0
   17.345440     0.000000     0.000000
    0.000000    15.704399     0.000000
    0.000000     0.000000    14.682900
   W   B
  19  11
Direct
    0.644405     0.396970     0.355959 
    0.680346     0.661135     0.515659 
    0.589975     0.498071     0.491690 
    0.717615     0.514667     0.596496 
    0.487460     0.563130     0.649384 
    0.529410     0.656433     0.500332 
    0.723307     0.540012     0.421720 
    0.508974     0.397612     0.604793 
    0.608541     0.308958     0.488641 
    0.420435     0.511644     0.496356 
    0.331695     0.559708     0.348531 
    0.278648     0.458090     0.574098 
    0.499525     0.378958     0.402362 
    0.500248     0.563018     0.351720 
    0.335632     0.381184     0.434250 
    0.293322     0.613674     0.498498 
    0.433973     0.277326     0.495538 
    0.612514     0.483228     0.701693 
    0.401894     0.683693     0.579290 
    0.618522     0.620017     0.394103 
    0.622931     0.531109     0.333197 
    0.610982     0.597025     0.615917 
    0.700559     0.409840     0.492983 
    0.644473     0.397878     0.592196 
    0.410719     0.646586     0.431484 
    0.253418     0.493139     0.437658 
    0.353832     0.560037     0.628907 
    0.395053     0.461898     0.643397 
    0.410397     0.459443     0.344345 
    0.381197     0.375518     0.578803 
EA28159 17.147 14.645 14.354 90.00 90.00 90.00 Sym.group:    0
1.0
   17.146970     0.000000     0.000000
    0.000000    14.645225     0.000000
    0.000000     0.000000    14.354106
   W   B
  18  11
Direct
    0.537992     0.593505     0.330217 
    0.490817     0.429249     0.356492 
    0.398103     0.295771     0.414390 
    0.516220     0.312073     0.510570 
    0.516994     0.403411     0.668348 
    0.727083     0.464958     0.437993 
    0.579216     0.495076     0.502813 
    0.627674     0.501116     0.700399 
    0.665736     0.372780     0.580857 
    0.636949     0.338359     0.415239 
    0.505787     0.585474     0.633634 
    0.568450     0.676073     0.482671 
    0.386719     0.570624     0.334781 
    0.423282     0.471969     0.509911 
    0.345954     0.598484     0.610129 
    0.279767     0.527757     0.457444 
    0.383360     0.329440     0.596099 
    0.278492     0.447856     0.612714 
    0.624801     0.479502     0.345440 
    0.653548     0.587097     0.389106 
    0.702981     0.522552     0.578952 
    0.686104     0.603846     0.497529 
    0.635797     0.612823     0.598361 
    0.367840     0.639635     0.466366 
    0.451815     0.672198     0.413476 
    0.445477     0.680005     0.532358 
    0.353291     0.430137     0.377439 
    0.403575     0.476833     0.671715 
    0.306178     0.381398     0.474555 
EA28453 17.147 14.645 14.354 90.00 90.00 90.00 Sym.group:    0
1.0
   17.146970     0.000000     0.000000
    0.000000    14.645225     0.000000
    0.000000     0.000000    14.354106
   W   B
  18  11
Direct
    0.537992     0.593505     0.330217 
    0.490817     0.429249     0.356492 
    0.398103     0.295771     0.414390 
    0.516220     0.312073     0.510570 
    0.516994     0.403411     0.668348 
    0.727083     0.464958     0.437993 
    0.579216     0.495076     0.502813 
    0.627674     0.501116     0.700399 
    0.665736     0.372780     0.580857 
    0.636949     0.338359     0.415239 
    0.505787     0.585474     0.633634 
    0.568450     0.676073     0.482671 
    0.386719     0.570624     0.334781 
    0.423282     0.471969     0.509911 
    0.345954     0.598484     0.610129 
    0.279767     0.527757     0.457444 
    0.383360     0.329440     0.596099 
    0.278492     0.447856     0.612714 
    0.624801     0.479502     0.345440 
    0.653548     0.587097     0.389106 
    0.702981     0.522552     0.578952 
    0.686104     0.603846     0.497529 
    0.635797     0.612823     0.598361 
    0.367840     0.639635     0.466366 
    0.451815     0.672198     0.413476 
    0.445477     0.680005     0.532358 
    0.353291     0.430137     0.377439 
    0.403575     0.476833     0.671715 
    0.306178     0.381398     0.474555 
EA28631 15.967 16.975 15.369 90.00 90.00 90.00 Sym.group:    0
1.0
   15.967192     0.000000     0.000000
    0.000000    16.974902     0.000000
    0.000000     0.000000    15.369040
   W   B
  16  15
Direct
    0.497323     0.616174     0.414977 
    0.571933     0.488590     0.315028 
    0.416031     0.491338     0.325900 
    0.414572     0.504328     0.502724 
    0.272998     0.481771     0.391784 
    0.394186     0.350136     0.551775 
    0.271887     0.473662     0.571194 
    0.508153     0.389949     0.425862 
    0.589027     0.514593     0.494261 
    0.737179     0.539911     0.407398 
    0.693021     0.491801     0.659476 
    0.649446     0.376643     0.577048 
    0.514214     0.460334     0.632814 
    0.472312     0.622279     0.593251 
    0.680247     0.400704     0.414975 
    0.726449     0.595027     0.558054 
    0.381644     0.533798     0.649380 
    0.330270     0.595144     0.580669 
    0.376157     0.639626     0.491213 
    0.354599     0.591703     0.396412 
    0.283145     0.381817     0.473961 
    0.369984     0.390717     0.411939 
    0.377495     0.436834     0.648619 
    0.286062     0.579182     0.481854 
    0.525658     0.321514     0.555458 
    0.595967     0.647166     0.540262 
    0.602441     0.305464     0.476811 
    0.644110     0.639298     0.446564 
    0.741506     0.466382     0.527518 
    0.626857     0.596888     0.354238 
    0.595121     0.577224     0.628581 
EA29085 17.187 14.229 14.195 90.00 90.00 90.00 Sym.group:    0
1.0
   17.186736     0.000000     0.000000
    0.000000    14.229161     0.000000
    0.000000     0.000000    14.194954
   W   B
  17  13
Direct
    0.512581     0.464984     0.669139 
    0.578017     0.479725     0.501083 
    0.699156     0.539366     0.386351 
    0.721510     0.545807     0.552974 
    0.703681     0.367052     0.524217 
    0.498135     0.632411     0.599316 
    0.551590     0.643693     0.417955 
    0.652022     0.369878     0.363520 
    0.463746     0.333752     0.545739 
    0.420481     0.509546     0.496674 
    0.310280     0.616013     0.437502 
    0.260647     0.424094     0.423349 
    0.287292     0.514794     0.601976 
    0.499106     0.381234     0.373426 
    0.350793     0.669580     0.597942 
    0.360546     0.488455     0.324365 
    0.314930     0.343494     0.553125 
    0.642687     0.449174     0.639669 
    0.614665     0.565268     0.642416 
    0.582248     0.507283     0.339528 
    0.591609     0.350704     0.602451 
    0.621721     0.649539     0.557604 
    0.677460     0.664839     0.461728 
    0.376011     0.357421     0.415409 
    0.425476     0.680849     0.468605 
    0.399875     0.546640     0.670805 
    0.387340     0.429591     0.647474 
    0.427064     0.624591     0.363820 
    0.582097     0.315747     0.484862 
    0.487236     0.534477     0.336977 
EA29400 17.987 15.051 14.093 90.00 90.00 90.00 Sym.group:    0
1.0
   17.986912     0.000000     0.000000
    0.000000    15.050810     0.000000
    0.000000     0.000000    14.093025
   W   B
  19  11
Direct
    0.486010     0.672803     0.505268 
    0.475058     0.601392     0.344315 
    0.423163     0.493534     0.491040 
    0.382003     0.627153     0.629342 
    0.274123     0.500397     0.446691 
    0.349737     0.655280     0.439059 
    0.311817     0.480863     0.621007 
    0.254515     0.628093     0.556471 
    0.517951     0.434139     0.342517 
    0.368385     0.402605     0.340867 
    0.338351     0.340112     0.507906 
    0.456560     0.274793     0.564205 
    0.529530     0.589484     0.649672 
    0.573225     0.517940     0.487784 
    0.664986     0.443860     0.361639 
    0.735769     0.484800     0.543993 
    0.696819     0.594944     0.428151 
    0.528948     0.414857     0.636139 
    0.567051     0.331078     0.475510 
    0.594846     0.565730     0.329777 
    0.582987     0.655663     0.406077 
    0.361897     0.541884     0.346677 
    0.449229     0.333849     0.427704 
    0.407807     0.392919     0.631551 
    0.431125     0.497100     0.672278 
    0.660740     0.595040     0.584532 
    0.636919     0.496743     0.638087 
    0.607970     0.666975     0.524568 
    0.642553     0.398136     0.582407 
    0.689928     0.367831     0.484763 
EA29833 17.012 15.037 14.360 90.00 90.00 90.00 Sym.group:    0
1.0
   17.011522     0.000000     0.000000
    0.000000    15.036919     0.000000
    0.000000     0.000000    14.359924
   W   B
  18  11
Direct
    0.411659     0.495350     0.503395 
    0.505221     0.472817     0.660207 
    0.580089     0.330590     0.577873 
    0.266360     0.455977     0.483191 
    0.349378     0.423943     0.649514 
    0.290380     0.623934     0.456654 
    0.461534     0.491572     0.317740 
    0.570789     0.496267     0.491448 
    0.722853     0.537834     0.560167 
    0.700991     0.476569     0.391836 
    0.504250     0.639119     0.588759 
    0.488089     0.355000     0.425259 
    0.593593     0.585693     0.323641 
    0.572569     0.707466     0.438291 
    0.344766     0.383284     0.360989 
    0.635317     0.320886     0.412918 
    0.442545     0.634949     0.412525 
    0.655786     0.433411     0.673438 
    0.447189     0.352284     0.583112 
    0.398292     0.562410     0.650745 
    0.308905     0.553000     0.595055 
    0.373614     0.638971     0.566087 
    0.684535     0.401895     0.525893 
    0.633647     0.639219     0.552736 
    0.608509     0.564385     0.637889 
    0.332505     0.526294     0.365553 
    0.366043     0.351057     0.511642 
    0.671357     0.612380     0.442959 
    0.579235     0.433440     0.340487 
EA30144 16.363 16.263 14.777 90.00 90.00 90.00 Sym.group:    0
1.0
   16.362902     0.000000     0.000000
    0.000000    16.263088     0.000000
    0.000000     0.000000    14.777123
   W   B
  17  12
Direct
    0.496522     0.474405     0.663318 
    0.616414     0.379170     0.622380 
    0.698654     0.607303     0.434347 
    0.594728     0.497101     0.505208 
    0.737855     0.519821     0.568470 
    0.653884     0.636179     0.614925 
    0.516307     0.416736     0.371142 
    0.475099     0.355947     0.537747 
    0.503780     0.581560     0.382180 
    0.489661     0.615774     0.582016 
    0.432302     0.707087     0.460427 
    0.366837     0.401984     0.664183 
    0.410818     0.494923     0.499380 
    0.342734     0.609147     0.385856 
    0.298513     0.383063     0.510861 
    0.372861     0.360293     0.371045 
    0.329841     0.632204     0.557993 
    0.599463     0.354268     0.474332 
    0.630355     0.514607     0.662515 
    0.696629     0.397726     0.499682 
    0.641233     0.506418     0.353731 
    0.720561     0.474322     0.424753 
    0.649565     0.406165     0.392444 
    0.586334     0.644397     0.484615 
    0.397404     0.489147     0.340078 
    0.268685     0.523449     0.488245 
    0.302803     0.475915     0.393752 
    0.294287     0.501824     0.596730 
    0.375871     0.539063     0.657646 
EA30580 16.740 14.221 13.991 90.00 90.00 90.00 Sym.group:    0
1.0
   16.740191     0.000000     0.000000
    0.000000    14.220898     0.000000
    0.000000     0.000000    13.991496
   W   B
  16  11
Direct
    0.667421     0.596674     0.622277 
    0.443117     0.457618     0.672882 
    0.275969     0.445623     0.610925 
    0.570736     0.504264     0.504271 
    0.506494     0.335598     0.557672 
    0.575661     0.337748     0.397302 
    0.606511     0.434176     0.675601 
    0.489960     0.490146     0.336701 
    0.716132     0.572443     0.447999 
    0.414574     0.497605     0.504305 
    0.338986     0.682500     0.486602 
    0.264482     0.545582     0.460429 
    0.340667     0.591625     0.640439 
    0.487239     0.660412     0.441378 
    0.421786     0.335066     0.406805 
    0.610101     0.620748     0.341882 
    0.537602     0.565220     0.661247 
    0.369306     0.351275     0.558350 
    0.639673     0.360336     0.538898 
    0.682862     0.420214     0.446404 
    0.697744     0.456880     0.563870 
    0.348832     0.465636     0.364378 
    0.313093     0.397048     0.461746 
    0.380534     0.582492     0.370206 
    0.618650     0.667076     0.493311 
    0.551839     0.654604     0.580745 
    0.630028     0.471395     0.353373 
EA30681 16.872 15.871 14.683 90.00 90.00 90.00 Sym.group:    0
1.0
   16.872081     0.000000     0.000000
    0.000000    15.870693     0.000000
    0.000000     0.000000    14.682521
   W   B
  20  11
Direct
    0.498549     0.364145     0.446743 
    0.604507     0.573379     0.328081 
    0.414829     0.499187     0.496527 
    0.302404     0.615608     0.470763 
    0.453249     0.624135     0.380339 
    0.340111     0.351280     0.475781 
    0.411933     0.720342     0.497468 
    0.405162     0.428949     0.321881 
    0.590932     0.680054     0.445528 
    0.498842     0.616891     0.588003 
    0.592421     0.497494     0.493336 
    0.716791     0.585669     0.453817 
    0.729114     0.420186     0.519517 
    0.504736     0.442344     0.638599 
    0.654178     0.427844     0.691453 
    0.579195     0.412202     0.304844 
    0.447763     0.291764     0.595905 
    0.349463     0.403524     0.632004 
    0.612682     0.329520     0.569313 
    0.733134     0.540541     0.622761 
    0.367816     0.625815     0.596502 
    0.502928     0.495926     0.375398 
    0.275344     0.472143     0.518579 
    0.297093     0.469033     0.408084 
    0.346362     0.546004     0.353558 
    0.683326     0.458897     0.381340 
    0.634579     0.620157     0.569899 
    0.637536     0.367302     0.425920 
    0.401578     0.536215     0.650940 
    0.603091     0.546421     0.647904 
    0.310353     0.537032     0.599215 
EA31024 16.872 15.871 14.683 90.00 90.00 90.00 Sym.group:    0
1.0
   16.872081     0.000000     0.000000
    0.000000    15.870693     0.000000
    0.000000     0.000000    14.682521
   W   B
  20  11
Direct
    0.498549     0.364145     0.446743 
    0.604507     0.573379     0.328081 
    0.414829     0.499187     0.496527 
    0.302404     0.615608     0.470763 
    0.453249     0.624135     0.380339 
    0.340111     0.351280     0.475781 
    0.411933     0.720342     0.497468 
    0.405162     0.428949     0.321881 
    0.590932     0.680054     0.445528 
    0.498842     0.616891     0.588003 
    0.592421     0.497494     0.493336 
    0.716791     0.585669     0.453817 
    0.729114     0.420186     0.519517 
    0.504736     0.442344     0.638599 
    0.654178     0.427844     0.691453 
    0.579195     0.412202     0.304844 
    0.447763     0.291764     0.595905 
    0.349463     0.403524     0.632004 
    0.612682     0.329520     0.569313 
    0.733134     0.540541     0.622761 
    0.367816     0.625815     0.596502 
    0.502928     0.495926     0.375398 
    0.275344     0.472143     0.518579 
    0.297093     0.469033     0.408084 
    0.346362     0.546004     0.353558 
    0.683326     0.458897     0.381340 
    0.634579     0.620157     0.569899 
    0.637536     0.367302     0.425920 
    0.401578     0.536215     0.650940 
    0.603091     0.546421     0.647904 
    0.310353     0.537032     0.599215 
EA31496 17.059 15.555 14.713 90.00 90.00 90.00 Sym.group:    0
1.0
   17.059244     0.000000     0.000000
    0.000000    15.555257     0.000000
    0.000000     0.000000    14.712521
   W   B
  19  11
Direct
    0.472220     0.317824     0.450190 
    0.569510     0.325539     0.581517 
    0.704694     0.385511     0.513130 
    0.588298     0.492117     0.505658 
    0.731300     0.529394     0.427468 
    0.657737     0.428609     0.666795 
    0.508379     0.471247     0.654449 
    0.406955     0.359520     0.599591 
    0.537528     0.637629     0.575338 
    0.504833     0.624278     0.401468 
    0.421826     0.723037     0.518819 
    0.343255     0.673595     0.405827 
    0.418486     0.503738     0.505422 
    0.308432     0.607466     0.570301 
    0.340139     0.473895     0.701147 
    0.277552     0.449645     0.553624 
    0.390569     0.539206     0.328278 
    0.419721     0.601885     0.679555 
    0.517602     0.447443     0.350925 
    0.598091     0.356660     0.431779 
    0.617397     0.543802     0.358929 
    0.644089     0.567629     0.635981 
    0.716617     0.519765     0.572949 
    0.633113     0.623181     0.433942 
    0.348184     0.359915     0.460060 
    0.290136     0.546236     0.435119 
    0.314435     0.446757     0.404896 
    0.395909     0.397549     0.365650 
    0.673402     0.610447     0.535936 
    0.649593     0.436482     0.375256 
EA31802 16.805 15.600 14.896 90.00 90.00 90.00 Sym.group:    0
1.0
   16.805163     0.000000     0.000000
    0.000000    15.599568     0.000000
    0.000000     0.000000    14.895779
   W   B
  19  11
Direct
    0.516256     0.686299     0.471711 
    0.416650     0.661084     0.590935 
    0.285598     0.600998     0.508309 
    0.411115     0.506824     0.497950 
    0.272562     0.458362     0.417082 
    0.328832     0.553506     0.663536 
    0.478245     0.508170     0.657030 
    0.578013     0.633202     0.621426 
    0.469866     0.354005     0.548326 
    0.509211     0.391145     0.383138 
    0.591856     0.280720     0.486880 
    0.676187     0.348627     0.390980 
    0.579436     0.499253     0.512045 
    0.690247     0.393021     0.569137 
    0.647120     0.509081     0.710529 
    0.717420     0.555862     0.575910 
    0.623527     0.488095     0.332996 
    0.576200     0.379827     0.671010 
    0.484515     0.565365     0.352379 
    0.393448     0.643375     0.433844 
    0.389915     0.458913     0.349218 
    0.365487     0.424266     0.622347 
    0.284103     0.464472     0.562376 
    0.381028     0.376578     0.422805 
    0.643165     0.649684     0.490793 
    0.715442     0.473347     0.446834 
    0.687240     0.574032     0.428275 
    0.602580     0.619699     0.388792 
    0.335639     0.380133     0.522396 
    0.349098     0.562057     0.371012 
EA32130 16.619 15.448 14.892 90.00 90.00 90.00 Sym.group:    0
1.0
   16.618670     0.000000     0.000000
    0.000000    15.447808     0.000000
    0.000000     0.000000    14.892391
   W   B
  19  11
Direct
    0.509533     0.687680     0.462391 
    0.407712     0.663344     0.582388 
    0.279442     0.593602     0.502728 
    0.411684     0.505618     0.496775 
    0.273192     0.446598     0.419851 
    0.324809     0.555542     0.661129 
    0.476026     0.512723     0.658308 
    0.569855     0.641861     0.616487 
    0.476912     0.354975     0.551544 
    0.516294     0.387412     0.384908 
    0.601244     0.279328     0.489442 
    0.685836     0.349561     0.393608 
    0.580619     0.503722     0.513035 
    0.690600     0.399129     0.573314 
    0.643070     0.519694     0.712964 
    0.713785     0.565993     0.578330 
    0.627855     0.487181     0.333862 
    0.576491     0.385939     0.678763 
    0.483476     0.560329     0.348507 
    0.386915     0.639180     0.425533 
    0.391754     0.449530     0.350254 
    0.368664     0.424633     0.625518 
    0.285051     0.458225     0.564542 
    0.386393     0.369638     0.427528 
    0.638819     0.655647     0.487781 
    0.717754     0.477833     0.450524 
    0.687539     0.578713     0.428966 
    0.601124     0.620203     0.386112 
    0.341173     0.374129     0.527736 
    0.346378     0.552037     0.367168 
EA32416 17.058 15.673 15.045 90.00 90.00 90.00 Sym.group:    0
1.0
   17.058342     0.000000     0.000000
    0.000000    15.673287     0.000000
    0.000000     0.000000    15.044707
   W   B
  20  11
Direct
    0.653784     0.663895     0.470551 
    0.582283     0.511359     0.493382 
    0.723989     0.525589     0.408155 
    0.490706     0.380727     0.404405 
    0.626589     0.455487     0.312264 
    0.632970     0.365822     0.608965 
    0.497697     0.528478     0.326620 
    0.645450     0.356090     0.443970 
    0.515613     0.664073     0.406829 
    0.632074     0.632951     0.637116 
    0.420939     0.518461     0.503227 
    0.269265     0.497770     0.404501 
    0.338008     0.367503     0.456519 
    0.428940     0.248992     0.500175 
    0.361269     0.601699     0.348752 
    0.297750     0.501553     0.583323 
    0.534475     0.506905     0.661310 
    0.489107     0.368120     0.579143 
    0.406709     0.581289     0.694268 
    0.493745     0.651675     0.575924 
    0.617544     0.591077     0.351272 
    0.549596     0.270746     0.474873 
    0.709764     0.562098     0.550339 
    0.707677     0.455084     0.531548 
    0.665249     0.496834     0.626955 
    0.385348     0.458140     0.354851 
    0.405709     0.450241     0.659369 
    0.307351     0.608619     0.484554 
    0.359236     0.376297     0.597888 
    0.394009     0.666452     0.472932 
    0.357153     0.635973     0.576021 
EA32791 16.896 16.370 14.697 90.00 90.00 90.00 Sym.group:    0
1.0
   16.896322     0.000000     0.000000
    0.000000    16.370239     0.000000
    0.000000     0.000000    14.696737
   W   B
  19  11
Direct
    0.503861     0.358262     0.579561 
    0.421850     0.602670     0.602217 
    0.405174     0.445716     0.690919 
    0.530991     0.677144     0.504353 
    0.582457     0.586707     0.651736 
    0.564685     0.508284     0.478307 
    0.690388     0.598868     0.538098 
    0.722315     0.445289     0.496195 
    0.316395     0.372579     0.594401 
    0.406032     0.469744     0.495194 
    0.289178     0.613095     0.514225 
    0.511957     0.358043     0.395931 
    0.308817     0.503792     0.368980 
    0.645173     0.419711     0.353587 
    0.391506     0.304635     0.472170 
    0.480648     0.493643     0.321165 
    0.385868     0.732179     0.515622 
    0.575505     0.440126     0.712877 
    0.413827     0.616954     0.408810 
    0.636385     0.391726     0.593248 
    0.616424     0.361606     0.488127 
    0.499617     0.492487     0.610033 
    0.669025     0.486215     0.624166 
    0.271191     0.479272     0.511570 
    0.537270     0.614662     0.365537 
    0.686925     0.541593     0.399570 
    0.627784     0.623854     0.412253 
    0.605822     0.545459     0.329956 
    0.387566     0.400338     0.359720 
    0.315365     0.515347     0.611471 
EA33180 16.973 15.607 14.729 90.00 90.00 90.00 Sym.group:    0
1.0
   16.973058     0.000000     0.000000
    0.000000    15.607480     0.000000
    0.000000     0.000000    14.729385
   W   B
  18  12
Direct
    0.653115     0.352716     0.582289 
    0.584935     0.486288     0.513227 
    0.737136     0.507500     0.560469 
    0.505611     0.624916     0.594773 
    0.650231     0.598818     0.645159 
    0.607914     0.572399     0.336111 
    0.521425     0.467522     0.671511 
    0.641538     0.647887     0.479124 
    0.359490     0.635709     0.537580 
    0.479391     0.618557     0.412789 
    0.506049     0.442364     0.354224 
    0.338590     0.430998     0.373139 
    0.417895     0.482134     0.507883 
    0.283882     0.516663     0.625203 
    0.496975     0.337602     0.550985 
    0.380011     0.396232     0.648930 
    0.598786     0.320136     0.430390 
    0.418082     0.540877     0.278158 
    0.652194     0.463130     0.666202 
    0.544955     0.731251     0.496613 
    0.699731     0.408038     0.455628 
    0.699123     0.516126     0.421146 
    0.639964     0.439479     0.366220 
    0.406318     0.545752     0.653991 
    0.450006     0.728758     0.512962 
    0.350891     0.568760     0.402772 
    0.364881     0.341776     0.504135 
    0.294675     0.417684     0.521809 
    0.431325     0.340969     0.419851 
    0.284878     0.518959     0.476725 
EA33447 17.351 15.611 14.304 90.00 90.00 90.00 Sym.group:    0
1.0
   17.351036     0.000000     0.000000
    0.000000    15.611179     0.000000
    0.000000     0.000000    14.304481
   W   B
  20  11
Direct
    0.589133     0.492123     0.501396 
    0.717814     0.433882     0.406626 
    0.643477     0.472679     0.671422 
    0.577306     0.340256     0.614972 
    0.690821     0.616110     0.616366 
    0.537210     0.610716     0.615494 
    0.587681     0.408566     0.325939 
    0.500883     0.354609     0.461838 
    0.477658     0.452916     0.651327 
    0.350894     0.335061     0.472249 
    0.420909     0.507351     0.498748 
    0.263201     0.444236     0.527215 
    0.427486     0.413515     0.325001 
    0.363905     0.675745     0.481585 
    0.385301     0.564990     0.324597 
    0.392432     0.633249     0.644813 
    0.504747     0.628109     0.419475 
    0.629411     0.561343     0.341948 
    0.639050     0.678364     0.476658 
    0.480701     0.742865     0.546012 
    0.724739     0.491054     0.553114 
    0.688039     0.391205     0.554150 
    0.630448     0.350600     0.466848 
    0.710612     0.565435     0.466603 
    0.432644     0.329617     0.592425 
    0.357157     0.395322     0.612347 
    0.303285     0.570327     0.558793 
    0.300710     0.557345     0.438498 
    0.318038     0.456234     0.390636 
    0.345646     0.501302     0.637384 
    0.508663     0.524873     0.305524 
EA33666 16.150 16.220 15.369 90.00 90.00 90.00 Sym.group:    0
1.0
   16.150121     0.000000     0.000000
    0.000000    16.220289     0.000000
    0.000000     0.000000    15.368667
   W   B
  17  15
Direct
    0.493828     0.386272     0.403693 
    0.394423     0.507559     0.328862 
    0.485317     0.632024     0.400643 
    0.575116     0.517982     0.493969 
    0.668619     0.373111     0.465017 
    0.638306     0.598167     0.338505 
    0.714966     0.497096     0.569211 
    0.666806     0.344961     0.616874 
    0.620572     0.702313     0.442440 
    0.262955     0.444608     0.545185 
    0.405432     0.503885     0.501442 
    0.267174     0.594952     0.531940 
    0.256592     0.516294     0.393983 
    0.478907     0.519328     0.662760 
    0.516786     0.383756     0.578720 
    0.365575     0.324909     0.522506 
    0.516794     0.647978     0.572103 
    0.477195     0.273785     0.488967 
    0.617654     0.456795     0.366435 
    0.703383     0.598135     0.466936 
    0.655156     0.629331     0.561721 
    0.576011     0.287813     0.490198 
    0.702113     0.503048     0.419090 
    0.531297     0.512269     0.343513 
    0.385020     0.609073     0.610769 
    0.339290     0.516069     0.638488 
    0.381590     0.417314     0.624102 
    0.342762     0.403239     0.413990 
    0.392330     0.649779     0.505379 
    0.346240     0.615770     0.410904 
    0.609595     0.464385     0.651914 
    0.612189     0.567999     0.639742 
EA34031 16.641 16.156 14.305 90.00 90.00 90.00 Sym.group:    0
1.0
   16.641136     0.000000     0.000000
    0.000000    16.156341     0.000000
    0.000000     0.000000    14.304543
   W   B
  17  15
Direct
    0.490174     0.593360     0.377639 
    0.397802     0.455887     0.321077 
    0.491497     0.352743     0.426857 
    0.574289     0.486366     0.496518 
    0.657540     0.626911     0.440059 
    0.637943     0.383549     0.349037 
    0.708924     0.523371     0.575568 
    0.662692     0.674202     0.597938 
    0.627367     0.294854     0.477809 
    0.267896     0.554161     0.540489 
    0.408418     0.494638     0.501879 
    0.275270     0.403379     0.557233 
    0.265250     0.460055     0.393706 
    0.478911     0.507864     0.669628 
    0.514941     0.635851     0.560864 
    0.361317     0.668201     0.485544 
    0.520098     0.364463     0.603323 
    0.467645     0.720146     0.441662 
    0.612499     0.524358     0.349615 
    0.701364     0.407043     0.483005 
    0.653985     0.389989     0.588401 
    0.563064     0.709957     0.437974 
    0.696721     0.493421     0.414570 
    0.530125     0.462522     0.336996 
    0.391720     0.404377     0.639640 
    0.344752     0.500240     0.649378 
    0.384234     0.599003     0.614222 
    0.349089     0.573277     0.383483 
    0.397858     0.346319     0.538935 
    0.353575     0.365372     0.434167 
    0.603581     0.564042     0.654001 
    0.609458     0.460079     0.658781 
EA34421 16.576 15.453 14.911 90.00 90.00 90.00 Sym.group:    0
1.0
   16.576229     0.000000     0.000000
    0.000000    15.452714     0.000000
    0.000000     0.000000    14.911123
   W   B
  16  15
Direct
    0.351558     0.323310     0.536417 
    0.412389     0.484164     0.496503 
    0.284983     0.474675     0.422996 
    0.501835     0.593841     0.372025 
    0.473657     0.432878     0.333006 
    0.361981     0.653623     0.449954 
    0.480677     0.311307     0.449612 
    0.573470     0.474298     0.493760 
    0.656615     0.612319     0.418916 
    0.610842     0.354406     0.362536 
    0.704824     0.525166     0.558180 
    0.481171     0.525961     0.660701 
    0.506001     0.643181     0.537107 
    0.618527     0.468387     0.696401 
    0.509198     0.368354     0.609536 
    0.661412     0.690006     0.557651 
    0.466380     0.725344     0.421105 
    0.292129     0.447214     0.574831 
    0.294138     0.557631     0.545295 
    0.346252     0.520293     0.637798 
    0.602319     0.495262     0.339991 
    0.605518     0.593475     0.638583 
    0.688347     0.388975     0.480530 
    0.605988     0.324680     0.505995 
    0.650728     0.384333     0.587628 
    0.567730     0.716180     0.428186 
    0.381039     0.419064     0.638317 
    0.688619     0.468811     0.403278 
    0.380319     0.609691     0.587571 
    0.365022     0.365845     0.401190 
    0.376329     0.547326     0.354405 
EA34744 15.061 16.385 16.410 90.00 90.00 90.00 Sym.group:    0
1.0
   15.061083     0.000000     0.000000
    0.000000    16.384750     0.000000
    0.000000     0.000000    16.410012
   W   B
  16  15
Direct
    0.470784     0.453079     0.631421 
    0.472806     0.614683     0.600045 
    0.297573     0.443778     0.393007 
    0.418417     0.517826     0.484922 
    0.285488     0.601905     0.416665 
    0.232600     0.511465     0.522812 
    0.551275     0.657773     0.468359 
    0.476553     0.414888     0.382446 
    0.510465     0.347675     0.524321 
    0.542892     0.562306     0.348437 
    0.750594     0.436972     0.445169 
    0.600851     0.500824     0.505318 
    0.738406     0.603171     0.507969 
    0.644049     0.416088     0.636930 
    0.367806     0.311206     0.444756 
    0.711904     0.557988     0.368553 
    0.582651     0.541488     0.649090 
    0.378154     0.357090     0.572956 
    0.285896     0.386535     0.518274 
    0.324997     0.616205     0.548777 
    0.398733     0.664411     0.485969 
    0.321467     0.439228     0.604355 
    0.342221     0.537609     0.614230 
    0.397087     0.538956     0.342817 
    0.426929     0.633620     0.391350 
    0.621977     0.622233     0.588261 
    0.626813     0.450707     0.364730 
    0.755868     0.484707     0.567221 
    0.658243     0.358715     0.521117 
    0.617257     0.373629     0.429000 
    0.689244     0.543241     0.620721 
EA35257 17.132 15.080 14.146 90.00 90.00 90.00 Sym.group:    0
1.0
   17.131943     0.000000     0.000000
    0.000000    15.079914     0.000000
    0.000000     0.000000    14.145576
   W   B
  17  12
Direct
    0.742577     0.447530     0.458272 
    0.538087     0.506899     0.323644 
    0.502826     0.365829     0.416892 
    0.641357     0.345315     0.531906 
    0.309218     0.544301     0.385360 
    0.433680     0.512670     0.489654 
    0.340003     0.371254     0.427874 
    0.290954     0.456879     0.561604 
    0.503543     0.358392     0.597563 
    0.590777     0.496374     0.507123 
    0.537562     0.660529     0.544170 
    0.700293     0.610715     0.495432 
    0.499026     0.532935     0.660195 
    0.727432     0.468506     0.624431 
    0.644591     0.605852     0.653897 
    0.392051     0.679864     0.443234 
    0.291769     0.620987     0.545521 
    0.660561     0.527201     0.367728 
    0.631472     0.412542     0.379079 
    0.410939     0.459502     0.332666 
    0.426607     0.576085     0.330681 
    0.421223     0.287710     0.503834 
    0.368902     0.341554     0.583179 
    0.399116     0.435839     0.643970 
    0.414968     0.640087     0.599108 
    0.606847     0.444920     0.662082 
    0.370904     0.544487     0.641505 
    0.501110     0.627864     0.391842 
    0.601607     0.617376     0.397556 
EA35651 16.931 15.212 14.194 90.00 90.00 90.00 Sym.group:    0
1.0
   16.930580     0.000000     0.000000
    0.000000    15.212149     0.000000
    0.000000     0.000000    14.194176
   W   B
  17  11
Direct
    0.417147     0.504370     0.512639 
    0.462754     0.349556     0.605584 
    0.320041     0.374397     0.538539 
    0.524315     0.496644     0.671345 
    0.290553     0.558386     0.598710 
    0.365252     0.451369     0.689844 
    0.656820     0.586778     0.603348 
    0.567492     0.477406     0.496904 
    0.712584     0.431881     0.520453 
    0.664339     0.593941     0.425209 
    0.496352     0.424562     0.349767 
    0.497938     0.601430     0.364165 
    0.515121     0.647141     0.543485 
    0.271554     0.500909     0.430593 
    0.353598     0.635702     0.423139 
    0.618441     0.334243     0.595145 
    0.639849     0.737742     0.530762 
    0.420896     0.585123     0.653840 
    0.652891     0.454380     0.659746 
    0.655855     0.444423     0.376390 
    0.530569     0.325334     0.469119 
    0.429370     0.340667     0.455758 
    0.593688     0.516275     0.326156 
    0.576201     0.704808     0.415609 
    0.390535     0.510184     0.348981 
    0.385105     0.652012     0.569947 
    0.369147     0.407618     0.392669 
    0.621595     0.352716     0.432153 
EA35946 16.984 14.838 14.310 90.00 90.00 90.00 Sym.group:    0
1.0
   16.984137     0.000000     0.000000
    0.000000    14.838376     0.000000
    0.000000     0.000000    14.310018
   W   B
  17  12
Direct
    0.253704     0.471540     0.439347 
    0.460822     0.578600     0.347390 
    0.494758     0.409453     0.365650 
    0.357659     0.347148     0.454857 
    0.692709     0.588115     0.418520 
    0.569057     0.515387     0.496951 
    0.663358     0.413911     0.379580 
    0.714361     0.433314     0.535687 
    0.497854     0.331167     0.522945 
    0.407984     0.497071     0.504559 
    0.460675     0.628785     0.613926 
    0.295635     0.603502     0.545855 
    0.501469     0.465636     0.657826 
    0.270414     0.416318     0.594874 
    0.354380     0.528618     0.683198 
    0.608776     0.687161     0.532576 
    0.710731     0.590753     0.595939 
    0.337164     0.581522     0.394879 
    0.365754     0.472714     0.351679 
    0.587626     0.529998     0.334010 
    0.574462     0.638354     0.384815 
    0.579881     0.305583     0.406768 
    0.632654     0.321253     0.501858 
    0.603451     0.380605     0.600490 
    0.585753     0.585312     0.649649 
    0.393094     0.381819     0.614604 
    0.632111     0.481109     0.646589 
    0.497847     0.663221     0.461477 
    0.395859     0.652030     0.463507 
EA36240 17.380 15.337 14.723 90.00 90.00 90.00 Sym.group:    0
1.0
   17.380437     0.000000     0.000000
    0.000000    15.336637     0.000000
    0.000000     0.000000    14.723217
   W   B
  19  11
Direct
    0.410741     0.501574     0.500878 
    0.372359     0.682208     0.479569 
    0.452374     0.610191     0.620470 
    0.481662     0.440423     0.650313 
    0.354808     0.368805     0.581383 
    0.506732     0.641484     0.431576 
    0.590286     0.673476     0.572833 
    0.557802     0.335009     0.415250 
    0.699349     0.613726     0.480547 
    0.577891     0.500867     0.503204 
    0.696357     0.431702     0.394407 
    0.624906     0.564028     0.344039 
    0.637544     0.427541     0.660598 
    0.488208     0.473008     0.347125 
    0.405543     0.343977     0.411457 
    0.351166     0.505627     0.690324 
    0.738553     0.466588     0.557181 
    0.274070     0.408118     0.442115 
    0.279998     0.569677     0.435396 
    0.322075     0.594775     0.578858 
    0.619555     0.698547     0.415430 
    0.565095     0.355170     0.566836 
    0.651164     0.368857     0.517519 
    0.600867     0.421257     0.308958 
    0.474796     0.335361     0.535004 
    0.395147     0.580617     0.365746 
    0.283011     0.492351     0.564087 
    0.356775     0.477847     0.354168 
    0.569734     0.552750     0.656444 
    0.661429     0.564439     0.618286 
EA36445 17.805 15.219 13.975 90.00 90.00 90.00 Sym.group:    0
1.0
   17.804810     0.000000     0.000000
    0.000000    15.218553     0.000000
    0.000000     0.000000    13.974704
   W   B
  18  14
Direct
    0.498915     0.557318     0.333604 
    0.564250     0.692136     0.548484 
    0.593494     0.298478     0.490966 
    0.518761     0.390451     0.357290 
    0.579161     0.491757     0.491654 
    0.650784     0.484334     0.652882 
    0.636392     0.620611     0.399122 
    0.709449     0.383119     0.513175 
    0.509196     0.565228     0.649480 
    0.518633     0.383527     0.621242 
    0.422082     0.658442     0.456377 
    0.428875     0.482077     0.492585 
    0.284285     0.629154     0.451624 
    0.310127     0.365894     0.489912 
    0.438624     0.298648     0.481260 
    0.351798     0.595127     0.613036 
    0.379935     0.409536     0.329229 
    0.234913     0.505372     0.528369 
    0.532117     0.686600     0.396517 
    0.642046     0.391258     0.379056 
    0.613060     0.489857     0.325946 
    0.708633     0.528603     0.508025 
    0.669020     0.613439     0.559017 
    0.635668     0.344132     0.628854 
    0.692226     0.484152     0.399157 
    0.621646     0.625062     0.661145 
    0.449269     0.682045     0.606533 
    0.414420     0.470008     0.662747 
    0.393077     0.370297     0.606885 
    0.298213     0.493247     0.399901 
    0.329259     0.453785     0.611072 
    0.371670     0.556305     0.354851 
EA36769 17.762 15.348 14.042 90.00 90.00 90.00 Sym.group:    0
1.0
   17.762125     0.000000     0.000000
    0.000000    15.348227     0.000000
    0.000000     0.000000    14.042137
   W   B
  18  14
Direct
    0.493538     0.458677     0.327443 
    0.560525     0.301538     0.526706 
    0.597253     0.697116     0.510305 
    0.518178     0.620501     0.369581 
    0.580084     0.507193     0.490646 
    0.653909     0.496207     0.648612 
    0.634371     0.389752     0.383129 
    0.713092     0.609832     0.519075 
    0.508929     0.420049     0.639069 
    0.522641     0.602199     0.634365 
    0.419865     0.350663     0.445387 
    0.430645     0.521369     0.497114 
    0.279852     0.382565     0.444095 
    0.312739     0.638607     0.508118 
    0.444654     0.701672     0.505145 
    0.351097     0.398405     0.604022 
    0.378650     0.607505     0.344770 
    0.233526     0.499158     0.534304 
    0.528635     0.327272     0.378339 
    0.641995     0.615854     0.388470 
    0.610704     0.524337     0.325331 
    0.708602     0.466603     0.499842 
    0.667210     0.378240     0.540610 
    0.640669     0.637342     0.639565 
    0.691856     0.521584     0.396788 
    0.621135     0.358982     0.642325 
    0.446439     0.308363     0.589631 
    0.416979     0.516327     0.665455 
    0.397268     0.620841     0.621394 
    0.295583     0.520954     0.407511 
    0.331653     0.539474     0.617007 
    0.367727     0.460818     0.355845 
EA37323 16.921 14.428 14.998 90.00 90.00 90.00 Sym.group:    0
1.0
   16.920659     0.000000     0.000000
    0.000000    14.428415     0.000000
    0.000000     0.000000    14.997692
   W   B
  18  11
Direct
    0.527022     0.335280     0.505777 
    0.604500     0.389554     0.647382 
    0.734237     0.447623     0.587588 
    0.591072     0.506389     0.506428 
    0.671366     0.602080     0.617182 
    0.356923     0.516416     0.700338 
    0.301894     0.413319     0.582496 
    0.440463     0.382119     0.648041 
    0.513154     0.540149     0.653747 
    0.432402     0.491474     0.495337 
    0.278663     0.519684     0.426493 
    0.371321     0.447270     0.316560 
    0.381603     0.612776     0.347263 
    0.547535     0.687976     0.544597 
    0.539720     0.623083     0.383406 
    0.519672     0.451122     0.349462 
    0.671328     0.681722     0.462495 
    0.405884     0.655733     0.612324 
    0.619502     0.374849     0.410312 
    0.659313     0.357711     0.511216 
    0.699339     0.440890     0.439247 
    0.427764     0.350307     0.409653 
    0.310821     0.561486     0.567225 
    0.332387     0.380111     0.441778 
    0.394492     0.326954     0.514472 
    0.340911     0.636193     0.486463 
    0.436708     0.670483     0.468354 
    0.726900     0.545680     0.477144 
    0.663103     0.551566     0.387218 
EA37595 17.468 14.797 14.071 90.00 90.00 90.00 Sym.group:    0
1.0
   17.467997     0.000000     0.000000
    0.000000    14.797167     0.000000
    0.000000     0.000000    14.071377
   W   B
  19  11
Direct
    0.510730     0.431106     0.673161 
    0.642880     0.563280     0.663470 
    0.579697     0.501992     0.510853 
    0.704202     0.612388     0.497758 
    0.647330     0.351742     0.476741 
    0.367753     0.376411     0.626443 
    0.601692     0.706566     0.566523 
    0.505677     0.606576     0.655465 
    0.477639     0.338911     0.513295 
    0.423117     0.505236     0.499591 
    0.471770     0.669804     0.474273 
    0.382294     0.633304     0.339843 
    0.284618     0.523564     0.590992 
    0.370511     0.655036     0.619380 
    0.292320     0.492368     0.414207 
    0.517223     0.539565     0.345261 
    0.297865     0.663120     0.469540 
    0.738359     0.469777     0.412122 
    0.429099     0.366546     0.349047 
    0.623842     0.450121     0.357214 
    0.645653     0.559776     0.365285 
    0.705864     0.466807     0.560383 
    0.641790     0.411562     0.630167 
    0.580504     0.328844     0.603911 
    0.549278     0.381705     0.380097 
    0.393231     0.493678     0.318225 
    0.594220     0.640745     0.424314 
    0.272191     0.390863     0.525440 
    0.348799     0.355725     0.465573 
    0.399855     0.512885     0.671429 
EA37735 18.622 15.592 14.651 90.00 90.00 90.00 Sym.group:    0
1.0
   18.621605     0.000000     0.000000
    0.000000    15.592189     0.000000
    0.000000     0.000000    14.651335
   W   B
  19  15
Direct
    0.594533     0.508915     0.499035 
    0.515837     0.603956     0.366098 
    0.366673     0.571437     0.354654 
    0.530870     0.657650     0.534520 
    0.653592     0.646145     0.429416 
    0.665727     0.391817     0.379088 
    0.742963     0.560840     0.527738 
    0.527495     0.431589     0.359271 
    0.698074     0.397050     0.572403 
    0.468021     0.556491     0.661602 
    0.443488     0.322796     0.596890 
    0.436617     0.502715     0.496611 
    0.387798     0.414625     0.346117 
    0.350912     0.448206     0.637772 
    0.566238     0.430017     0.658611 
    0.570461     0.344517     0.508818 
    0.780174     0.426681     0.451408 
    0.287885     0.427812     0.471191 
    0.459315     0.518143     0.238432 
    0.622540     0.527351     0.342987 
    0.645248     0.625776     0.580185 
    0.701931     0.521115     0.395218 
    0.662305     0.523832     0.631229 
    0.454729     0.422767     0.698810 
    0.346537     0.624629     0.498002 
    0.358841     0.588263     0.614783 
    0.328083     0.333877     0.564276 
    0.293252     0.541145     0.554555 
    0.374881     0.329370     0.472968 
    0.581979     0.578551     0.647493 
    0.461996     0.341318     0.446441 
    0.426966     0.660179     0.450882 
    0.277206     0.565037     0.445737 
    0.416837     0.655390     0.566757 
EA38139 17.024 16.452 14.619 90.00 90.00 90.00 Sym.group:    0
1.0
   17.023540     0.000000     0.000000
    0.000000    16.452387     0.000000
    0.000000     0.000000    14.618954
   W   B
  20  12
Direct
    0.482422     0.380548     0.397469 
    0.750853     0.523822     0.467041 
    0.548475     0.512614     0.327774 
    0.586082     0.484797     0.508411 
    0.625240     0.358211     0.621295 
    0.510712     0.453591     0.675167 
    0.475617     0.335214     0.562147 
    0.629034     0.544658     0.686059 
    0.344027     0.626371     0.586076 
    0.367276     0.663278     0.427208 
    0.525042     0.640130     0.441817 
    0.432918     0.508928     0.493439 
    0.321159     0.420325     0.416482 
    0.291438     0.475303     0.587784 
    0.659008     0.628663     0.545452 
    0.500023     0.611172     0.625005 
    0.560478     0.740052     0.570952 
    0.727922     0.454740     0.613970 
    0.689990     0.476232     0.330512 
    0.374200     0.391195     0.685769 
    0.685095     0.397772     0.470739 
    0.591938     0.342350     0.479632 
    0.613373     0.388674     0.380673 
    0.385449     0.312292     0.457850 
    0.342263     0.352378     0.549078 
    0.440560     0.712972     0.536450 
    0.298980     0.551272     0.463032 
    0.437991     0.582060     0.340816 
    0.345628     0.545092     0.361259 
    0.415696     0.478345     0.328770 
    0.397956     0.523482     0.659460 
    0.643154     0.583467     0.402416 
EA38599 17.172 14.622 14.183 90.00 90.00 90.00 Sym.group:    0
1.0
   17.172374     0.000000     0.000000
    0.000000    14.621959     0.000000
    0.000000     0.000000    14.183326
   W   B
  19  11
Direct
    0.508364     0.440988     0.330246 
    0.642759     0.549096     0.338864 
    0.571675     0.483841     0.500265 
    0.706298     0.609450     0.480554 
    0.667813     0.334757     0.514940 
    0.379482     0.373247     0.389594 
    0.606743     0.713597     0.422756 
    0.503214     0.612409     0.345960 
    0.421843     0.518038     0.491670 
    0.476007     0.681958     0.515656 
    0.279713     0.520494     0.418237 
    0.365648     0.667672     0.384406 
    0.307889     0.499007     0.604683 
    0.521356     0.570646     0.655171 
    0.306214     0.663720     0.532626 
    0.461324     0.406278     0.654285 
    0.253197     0.371523     0.479708 
    0.612497     0.421936     0.668611 
    0.551724     0.299373     0.418642 
    0.649228     0.560875     0.617359 
    0.702952     0.458591     0.442780 
    0.637127     0.399883     0.373846 
    0.548321     0.330682     0.569383 
    0.404519     0.528399     0.701565 
    0.601513     0.650266     0.561931 
    0.366909     0.374636     0.549614 
    0.389281     0.516817     0.328935 
    0.700898     0.475543     0.563517 
    0.459286     0.347020     0.512887 
    0.396209     0.619261     0.631309 
EA38747 16.605 17.087 14.837 90.00 90.00 90.00 Sym.group:    0
1.0
   16.604899     0.000000     0.000000
    0.000000    17.087024     0.000000
    0.000000     0.000000    14.837290
   W   B
  20  14
Direct
    0.476574     0.353778     0.427654 
    0.532055     0.478651     0.345512 
    0.552101     0.651942     0.353984 
    0.384108     0.578205     0.362693 
    0.313318     0.558148     0.634421 
    0.259556     0.438382     0.539733 
    0.413622     0.493126     0.513428 
    0.361485     0.319801     0.554280 
    0.390572     0.438860     0.307127 
    0.492845     0.370051     0.606407 
    0.473077     0.514776     0.672270 
    0.681814     0.563477     0.406346 
    0.693207     0.599529     0.564012 
    0.531188     0.636828     0.554485 
    0.580116     0.486000     0.513130 
    0.654108     0.362612     0.559901 
    0.680399     0.409190     0.399179 
    0.549614     0.762087     0.451780 
    0.336010     0.417269     0.675396 
    0.360080     0.664447     0.521297 
    0.580219     0.356501     0.334399 
    0.447392     0.690780     0.422575 
    0.294383     0.560465     0.479188 
    0.303843     0.482606     0.407397 
    0.340313     0.388731     0.431239 
    0.495716     0.571633     0.439702 
    0.556763     0.284590     0.522190 
    0.604882     0.303909     0.426985 
    0.643038     0.682973     0.466677 
    0.721223     0.476616     0.521956 
    0.602803     0.548100     0.653413 
    0.679315     0.481764     0.627446 
    0.590396     0.445253     0.666798 
    0.423867     0.628919     0.637000 
EA39108 15.875 16.381 15.420 90.00 90.00 90.00 Sym.group:    0
1.0
   15.875340     0.000000     0.000000
    0.000000    16.381037     0.000000
    0.000000     0.000000    15.420123
   W   B
  19  14
Direct
    0.414973     0.507298     0.510445 
    0.313666     0.610057     0.432645 
    0.240822     0.492473     0.555814 
    0.300187     0.359674     0.499846 
    0.443391     0.608011     0.654338 
    0.533428     0.645544     0.511130 
    0.494195     0.421845     0.367154 
    0.473809     0.590839     0.364441 
    0.422507     0.722572     0.415923 
    0.413642     0.287618     0.416911 
    0.478898     0.366597     0.547410 
    0.454251     0.461377     0.696459 
    0.569602     0.295044     0.409572 
    0.590588     0.494125     0.501268 
    0.683742     0.404337     0.405523 
    0.769849     0.524937     0.496867 
    0.700371     0.654993     0.461131 
    0.592038     0.556713     0.683261 
    0.601169     0.408958     0.656712 
    0.369481     0.502408     0.360137 
    0.353463     0.401376     0.380128 
    0.388555     0.669316     0.535725 
    0.318860     0.603233     0.578570 
    0.337273     0.520462     0.646729 
    0.350115     0.418873     0.612666 
    0.288226     0.471223     0.425962 
    0.607233     0.603086     0.382289 
    0.600620     0.504426     0.344520 
    0.623116     0.349163     0.525666 
    0.704529     0.410591     0.549073 
    0.699319     0.496838     0.610646 
    0.675046     0.594228     0.576769 
    0.693036     0.541766     0.384269 
EA39751 16.420 14.226 15.504 90.00 90.00 90.00 Sym.group:    0
1.0
   16.419692     0.000000     0.000000
    0.000000    14.226473     0.000000
    0.000000     0.000000    15.503561
   W   B
  16  11
Direct
    0.583295     0.518036     0.500071 
    0.661686     0.663501     0.549817 
    0.487886     0.402378     0.388429 
    0.622067     0.678461     0.392320 
    0.735310     0.509532     0.568485 
    0.506004     0.681178     0.492547 
    0.348494     0.648033     0.435823 
    0.497608     0.577181     0.350489 
    0.626740     0.486370     0.338408 
    0.498915     0.500947     0.650834 
    0.413168     0.503518     0.511010 
    0.522515     0.354163     0.555172 
    0.263352     0.531346     0.562396 
    0.364918     0.375867     0.622013 
    0.363843     0.668319     0.586000 
    0.347196     0.525418     0.692633 
    0.705659     0.561359     0.437448 
    0.612677     0.367765     0.439793 
    0.293881     0.496380     0.426285 
    0.355558     0.401089     0.403400 
    0.699650     0.439203     0.449077 
    0.630546     0.550972     0.643078 
    0.660074     0.381593     0.537743 
    0.624374     0.434349     0.625996 
    0.396022     0.338112     0.486160 
    0.300571     0.398831     0.495972 
    0.377992     0.506100     0.358599 
EA40089 16.833 14.374 14.262 90.00 90.00 90.00 Sym.group:    0
1.0
   16.832795     0.000000     0.000000
    0.000000    14.373656     0.000000
    0.000000     0.000000    14.262222
   W   B
  16  11
Direct
    0.418434     0.500331     0.511623 
    0.336124     0.478763     0.663411 
    0.514232     0.591741     0.372139 
    0.365983     0.650056     0.633889 
    0.272688     0.415221     0.514887 
    0.484139     0.555069     0.670731 
    0.639584     0.618978     0.625175 
    0.496219     0.671260     0.529871 
    0.370202     0.659005     0.440763 
    0.504778     0.347312     0.547546 
    0.585599     0.494657     0.510124 
    0.488895     0.405628     0.375067 
    0.728743     0.457410     0.565348 
    0.641293     0.346336     0.428550 
    0.628034     0.467540     0.692191 
    0.651427     0.312651     0.592236 
    0.292423     0.564403     0.532550 
    0.393989     0.525742     0.350559 
    0.699012     0.586523     0.484870 
    0.643510     0.580741     0.382359 
    0.306173     0.526765     0.416669 
    0.375102     0.355755     0.581684 
    0.351529     0.422691     0.387705 
    0.387381     0.346196     0.464613 
    0.610158     0.476480     0.346125 
    0.698755     0.486564     0.412914 
    0.615590     0.656186     0.466400 
EA40123 16.090 16.136 16.723 90.00 90.00 90.00 Sym.group:    0
1.0
   16.089625     0.000000     0.000000
    0.000000    16.136072     0.000000
    0.000000     0.000000    16.723067
   W   B
  19  14
Direct
    0.385873     0.681664     0.479513 
    0.485912     0.470192     0.358243 
    0.514956     0.606675     0.435322 
    0.301838     0.470766     0.363615 
    0.518382     0.342352     0.450280 
    0.395736     0.489412     0.492444 
    0.334652     0.619930     0.600419 
    0.310297     0.374962     0.587110 
    0.257686     0.580613     0.460511 
    0.545729     0.759217     0.481258 
    0.486135     0.723656     0.600751 
    0.649432     0.553829     0.367972 
    0.590520     0.475408     0.501311 
    0.744562     0.543638     0.489029 
    0.629146     0.348336     0.590297 
    0.478489     0.394314     0.599057 
    0.613420     0.484592     0.672386 
    0.487930     0.561049     0.609051 
    0.626451     0.635762     0.555442 
    0.380790     0.578156     0.384982 
    0.613962     0.413793     0.372762 
    0.396349     0.331784     0.499501 
    0.397302     0.370732     0.399698 
    0.365853     0.489076     0.629011 
    0.250637     0.447805     0.489997 
    0.309245     0.371476     0.455327 
    0.272043     0.503983     0.573641 
    0.636874     0.674743     0.421134 
    0.656675     0.352074     0.451356 
    0.711193     0.551686     0.618315 
    0.706788     0.438683     0.412759 
    0.726446     0.405936     0.505901 
    0.718701     0.453705     0.591608 
EA40605 15.525 14.805 16.605 90.00 90.00 90.00 Sym.group:    0
1.0
   15.525119     0.000000     0.000000
    0.000000    14.804888     0.000000
    0.000000     0.000000    16.605487
   W   B
  19  11
Direct
    0.289869     0.357567     0.574012 
    0.394747     0.500169     0.503673 
    0.252307     0.553400     0.578078 
    0.356563     0.455179     0.668045 
    0.473438     0.349958     0.559630 
    0.508699     0.510324     0.640643 
    0.613271     0.369926     0.636497 
    0.497268     0.652385     0.543517 
    0.334548     0.672841     0.513105 
    0.719574     0.591733     0.522973 
    0.577018     0.478997     0.495179 
    0.506662     0.594106     0.396273 
    0.673230     0.562994     0.379426 
    0.805076     0.484062     0.428750 
    0.738193     0.411813     0.546326 
    0.683039     0.380877     0.400586 
    0.524302     0.323879     0.407138 
    0.428967     0.447425     0.339184 
    0.352931     0.345176     0.436267 
    0.252120     0.456936     0.477042 
    0.629144     0.699209     0.553554 
    0.385284     0.593308     0.620659 
    0.269655     0.564851     0.445146 
    0.612833     0.614135     0.617426 
    0.658587     0.510109     0.619604 
    0.572286     0.460478     0.353202 
    0.616300     0.327557     0.512068 
    0.613381     0.674142     0.457819 
    0.302070     0.477291     0.388393 
    0.358636     0.579174     0.385784 
EA41087 15.511 15.908 15.094 90.00 90.00 90.00 Sym.group:    0
1.0
   15.510845     0.000000     0.000000
    0.000000    15.908318     0.000000
    0.000000     0.000000    15.093523
   W   B
  16  11
Direct
    0.582566     0.510432     0.494709 
    0.654090     0.651169     0.457678 
    0.471681     0.620206     0.399303 
    0.413318     0.483760     0.337201 
    0.499751     0.367156     0.432939 
    0.660771     0.412417     0.380899 
    0.650768     0.336173     0.518564 
    0.599440     0.558212     0.323869 
    0.497520     0.660396     0.565033 
    0.415117     0.501976     0.514847 
    0.263382     0.403709     0.547293 
    0.259964     0.555300     0.553357 
    0.525516     0.383350     0.608959 
    0.368373     0.434491     0.664287 
    0.540470     0.533470     0.662911 
    0.387791     0.596275     0.660290 
    0.715199     0.535275     0.430642 
    0.357233     0.390026     0.434825 
    0.721229     0.458883     0.515269 
    0.539905     0.433553     0.311366 
    0.294798     0.479318     0.424544 
    0.367309     0.641269     0.505734 
    0.329232     0.581665     0.421029 
    0.397858     0.360420     0.538106 
    0.661538     0.442099     0.611424 
    0.692718     0.542026     0.589835 
    0.632460     0.626974     0.595086 
EA41295 16.491 15.946 15.075 90.00 90.00 90.00 Sym.group:    0
1.0
   16.491107     0.000000     0.000000
    0.000000    15.946379     0.000000
    0.000000     0.000000    15.075357
   W   B
  17  13
Direct
    0.413551     0.356565     0.600703 
    0.415068     0.502170     0.496726 
    0.285546     0.421594     0.532355 
    0.369353     0.666412     0.507580 
    0.509525     0.640363     0.567255 
    0.494992     0.644976     0.399193 
    0.494175     0.491275     0.654470 
    0.356899     0.587686     0.354778 
    0.572725     0.350978     0.594362 
    0.720028     0.440158     0.386864 
    0.585793     0.498728     0.499803 
    0.715486     0.407622     0.548532 
    0.352872     0.394786     0.354050 
    0.476397     0.487917     0.327667 
    0.621805     0.559079     0.338709 
    0.488245     0.357962     0.446943 
    0.737049     0.571209     0.458683 
    0.395368     0.584490     0.627772 
    0.276758     0.488242     0.401502 
    0.359510     0.483663     0.640691 
    0.305525     0.556641     0.583170 
    0.606383     0.569979     0.642998 
    0.277832     0.559648     0.478707 
    0.360563     0.322873     0.471609 
    0.631263     0.467328     0.648443 
    0.624110     0.360173     0.454187 
    0.696664     0.535132     0.596303 
    0.650903     0.624122     0.561407 
    0.617092     0.647745     0.459581 
    0.588521     0.420485     0.364960 
EA41643 16.491 15.946 15.075 90.00 90.00 90.00 Sym.group:    0
1.0
   16.491107     0.000000     0.000000
    0.000000    15.946379     0.000000
    0.000000     0.000000    15.075357
   W   B
  17  13
Direct
    0.413551     0.356565     0.600703 
    0.415068     0.502170     0.496726 
    0.285546     0.421594     0.532355 
    0.369353     0.666412     0.507580 
    0.509525     0.640363     0.567255 
    0.494992     0.644976     0.399193 
    0.494175     0.491275     0.654470 
    0.356899     0.587686     0.354778 
    0.572725     0.350978     0.594362 
    0.720028     0.440158     0.386864 
    0.585793     0.498728     0.499803 
    0.715486     0.407622     0.548532 
    0.352872     0.394786     0.354050 
    0.476397     0.487917     0.327667 
    0.621805     0.559079     0.338709 
    0.488245     0.357962     0.446943 
    0.737049     0.571209     0.458683 
    0.395368     0.584490     0.627772 
    0.276758     0.488242     0.401502 
    0.359510     0.483663     0.640691 
    0.305525     0.556641     0.583170 
    0.606383     0.569979     0.642998 
    0.277832     0.559648     0.478707 
    0.360563     0.322873     0.471609 
    0.631263     0.467328     0.648443 
    0.624110     0.360173     0.454187 
    0.696664     0.535132     0.596303 
    0.650903     0.624122     0.561407 
    0.617092     0.647745     0.459581 
    0.588521     0.420485     0.364960 
EA41986 16.491 15.946 15.075 90.00 90.00 90.00 Sym.group:    0
1.0
   16.491107     0.000000     0.000000
    0.000000    15.946379     0.000000
    0.000000     0.000000    15.075357
   W   B
  17  13
Direct
    0.413551     0.356565     0.600703 
    0.415068     0.502170     0.496726 
    0.285546     0.421594     0.532355 
    0.369353     0.666412     0.507580 
    0.509525     0.640363     0.567255 
    0.494992     0.644976     0.399193 
    0.494175     0.491275     0.654470 
    0.356899     0.587686     0.354778 
    0.572725     0.350978     0.594362 
    0.720028     0.440158     0.386864 
    0.585793     0.498728     0.499803 
    0.715486     0.407622     0.548532 
    0.352872     0.394786     0.354050 
    0.476397     0.487917     0.327667 
    0.621805     0.559079     0.338709 
    0.488245     0.357962     0.446943 
    0.737049     0.571209     0.458683 
    0.395368     0.584490     0.627772 
    0.276758     0.488242     0.401502 
    0.359510     0.483663     0.640691 
    0.305525     0.556641     0.583170 
    0.606383     0.569979     0.642998 
    0.277832     0.559648     0.478707 
    0.360563     0.322873     0.471609 
    0.631263     0.467328     0.648443 
    0.624110     0.360173     0.454187 
    0.696664     0.535132     0.596303 
    0.650903     0.624122     0.561407 
    0.617092     0.647745     0.459581 
    0.588521     0.420485     0.364960 
EA42438 15.878 14.809 16.169 90.00 90.00 90.00 Sym.group:    0
1.0
   15.877564     0.000000     0.000000
    0.000000    14.809143     0.000000
    0.000000     0.000000    16.168542
   W   B
  16  11
Direct
    0.416426     0.494270     0.487113 
    0.311583     0.463409     0.618435 
    0.271513     0.409146     0.476797 
    0.475879     0.389948     0.602257 
    0.573869     0.324524     0.484524 
    0.414110     0.320372     0.458241 
    0.335059     0.304567     0.590408 
    0.574818     0.542436     0.655387 
    0.485461     0.650465     0.549499 
    0.508754     0.442873     0.359436 
    0.627981     0.569113     0.354032 
    0.473227     0.618902     0.389201 
    0.580674     0.500918     0.499449 
    0.716260     0.527029     0.588777 
    0.717879     0.378961     0.508975 
    0.313603     0.550576     0.372833 
    0.283489     0.560332     0.509245 
    0.435087     0.539469     0.629519 
    0.623698     0.405587     0.605439 
    0.363740     0.420233     0.366451 
    0.357443     0.600995     0.577208 
    0.652228     0.427138     0.397809 
    0.719506     0.507612     0.445313 
    0.592785     0.657735     0.458689 
    0.689371     0.611641     0.477547 
    0.626813     0.641387     0.560411 
    0.358742     0.640363     0.477009 
EA42679 17.960 15.130 14.501 90.00 90.00 90.00 Sym.group:    0
1.0
   17.960291     0.000000     0.000000
    0.000000    15.130266     0.000000
    0.000000     0.000000    14.501403
   W   B
  19  11
Direct
    0.325338     0.568730     0.651556 
    0.409367     0.501304     0.500546 
    0.287130     0.412536     0.540271 
    0.378272     0.429979     0.682058 
    0.475970     0.577842     0.645990 
    0.509317     0.399458     0.625063 
    0.596248     0.515952     0.708553 
    0.499248     0.345645     0.449457 
    0.359324     0.361350     0.405037 
    0.693296     0.410448     0.471826 
    0.568763     0.511976     0.509553 
    0.501597     0.487736     0.348509 
    0.650305     0.527004     0.352243 
    0.764118     0.558605     0.446413 
    0.705769     0.541548     0.598639 
    0.656064     0.656612     0.480142 
    0.519213     0.692693     0.516026 
    0.434095     0.642685     0.370273 
    0.375298     0.670121     0.520763 
    0.286163     0.555520     0.506291 
    0.615400     0.307132     0.433769 
    0.401941     0.353175     0.551253 
    0.295720     0.488032     0.412957 
    0.599271     0.335373     0.542809 
    0.637662     0.415353     0.609651 
    0.556630     0.617142     0.391272 
    0.598482     0.625730     0.614184 
    0.600707     0.393101     0.364487 
    0.325908     0.590586     0.404527 
    0.373383     0.506635     0.345886 
EA42865 16.529 16.403 14.259 90.00 90.00 90.00 Sym.group:    0
1.0
   16.529302     0.000000     0.000000
    0.000000    16.402755     0.000000
    0.000000     0.000000    14.258774
   W   B
  20  12
Direct
    0.353638     0.318434     0.477274 
    0.410916     0.485429     0.509738 
    0.302949     0.430459     0.637698 
    0.506394     0.631934     0.437617 
    0.364778     0.647649     0.543550 
    0.517695     0.606406     0.621331 
    0.497936     0.447449     0.662037 
    0.367863     0.554948     0.681362 
    0.596360     0.746846     0.548015 
    0.658075     0.609994     0.541052 
    0.633160     0.555822     0.358285 
    0.467095     0.502804     0.335792 
    0.578641     0.467342     0.504939 
    0.714460     0.369919     0.511589 
    0.644021     0.384410     0.669504 
    0.479766     0.353881     0.399428 
    0.551778     0.319410     0.560481 
    0.756658     0.507134     0.449227 
    0.632514     0.707870     0.388539 
    0.258294     0.435089     0.473813 
    0.360844     0.411612     0.368170 
    0.268424     0.547120     0.568228 
    0.379354     0.595664     0.401342 
    0.330178     0.507638     0.368122 
    0.290604     0.566655     0.454287 
    0.619284     0.518939     0.652567 
    0.473295     0.721231     0.551568 
    0.413637     0.359858     0.599535 
    0.579252     0.428484     0.338362 
    0.675895     0.425640     0.377934 
    0.614191     0.347398     0.417712 
    0.702048     0.486532     0.590901 
EA43166 16.905 16.130 15.536 90.00 90.00 90.00 Sym.group:    0
1.0
   16.905044     0.000000     0.000000
    0.000000    16.129758     0.000000
    0.000000     0.000000    15.536073
   W   B
  20  15
Direct
    0.579931     0.301706     0.559825 
    0.598088     0.432060     0.651345 
    0.461007     0.301914     0.652443 
    0.461855     0.440437     0.724037 
    0.526404     0.355792     0.407104 
    0.473021     0.425501     0.543733 
    0.346914     0.492809     0.617315 
    0.332873     0.349603     0.554928 
    0.333197     0.525804     0.366788 
    0.430965     0.568669     0.482423 
    0.526582     0.670761     0.416684 
    0.502592     0.510754     0.344575 
    0.280349     0.601287     0.509452 
    0.592062     0.523414     0.490977 
    0.650545     0.598199     0.625348 
    0.745761     0.451015     0.441992 
    0.666938     0.684490     0.492480 
    0.667308     0.585019     0.369966 
    0.493427     0.572122     0.643750 
    0.645709     0.436876     0.329654 
    0.685322     0.386156     0.551568 
    0.706587     0.484395     0.578959 
    0.410906     0.413883     0.360978 
    0.399217     0.333621     0.435041 
    0.452458     0.285018     0.509395 
    0.322899     0.398501     0.418778 
    0.287943     0.468288     0.489833 
    0.650793     0.361779     0.451145 
    0.355275     0.662774     0.404093 
    0.423077     0.621092     0.338377 
    0.376844     0.634978     0.599640 
    0.727497     0.565705     0.509171 
    0.458603     0.689199     0.560239 
    0.553951     0.668475     0.560047 
    0.373100     0.697904     0.507916 
EA43698 16.724 14.541 14.217 90.00 90.00 90.00 Sym.group:    0
1.0
   16.724286     0.000000     0.000000
    0.000000    14.541405     0.000000
    0.000000     0.000000    14.216814
   W   B
  16  14
Direct
    0.591786     0.412766     0.333569 
    0.580867     0.507233     0.505643 
    0.715812     0.456037     0.439995 
    0.623447     0.678500     0.581156 
    0.482271     0.664293     0.513113 
    0.502867     0.563277     0.349458 
    0.628906     0.544398     0.681824 
    0.434909     0.395972     0.331012 
    0.291149     0.373703     0.573530 
    0.417676     0.489700     0.494133 
    0.294999     0.414989     0.400507 
    0.651049     0.339284     0.584516 
    0.523351     0.418586     0.653963 
    0.379906     0.472810     0.683625 
    0.522376     0.337224     0.475360 
    0.269881     0.536433     0.578211 
    0.594053     0.649735     0.425549 
    0.714647     0.463080     0.598475 
    0.637694     0.560063     0.361733 
    0.685710     0.608611     0.454224 
    0.390828     0.628185     0.402619 
    0.712086     0.566948     0.557433 
    0.652095     0.325746     0.438380 
    0.368679     0.532419     0.342041 
    0.386261     0.330487     0.468486 
    0.303543     0.565246     0.429084 
    0.348985     0.636845     0.509808 
    0.388747     0.608261     0.615809 
    0.418901     0.352393     0.583955 
    0.486521     0.566772     0.632792 
EA43839 17.278 16.091 15.467 90.00 90.00 90.00 Sym.group:    0
1.0
   17.278371     0.000000     0.000000
    0.000000    16.090667     0.000000
    0.000000     0.000000    15.466587
   W   B
  20  15
Direct
    0.391970     0.307131     0.527940 
    0.390479     0.430148     0.639118 
    0.500458     0.278693     0.627289 
    0.521110     0.409306     0.714797 
    0.457103     0.372687     0.388010 
    0.512020     0.415614     0.533652 
    0.640397     0.459679     0.623617 
    0.636509     0.320653     0.542576 
    0.673274     0.513376     0.374341 
    0.579873     0.554398     0.490624 
    0.506966     0.680527     0.443106 
    0.505712     0.531687     0.344412 
    0.725780     0.566773     0.531122 
    0.417942     0.539362     0.492286 
    0.361432     0.604974     0.634721 
    0.259181     0.499884     0.430040 
    0.365743     0.710983     0.509704 
    0.358104     0.624479     0.376195 
    0.508667     0.554112     0.653554 
    0.357542     0.482376     0.317859 
    0.303763     0.410376     0.529905 
    0.296866     0.507245     0.570100 
    0.578606     0.418880     0.357869 
    0.576193     0.328189     0.418782 
    0.515001     0.277269     0.482410 
    0.659772     0.381663     0.415381 
    0.699566     0.438852     0.494383 
    0.335396     0.393092     0.426670 
    0.668974     0.645862     0.428206 
    0.600432     0.623510     0.354998 
    0.631279     0.605301     0.619378 
    0.292543     0.600406     0.511049 
    0.560309     0.670467     0.581966 
    0.464986     0.668164     0.581576 
    0.646049     0.673886     0.532366 
EA44176 17.282 16.303 15.461 90.00 90.00 90.00 Sym.group:    0
1.0
   17.281649     0.000000     0.000000
    0.000000    16.303163     0.000000
    0.000000     0.000000    15.460691
   W   B
  20  15
Direct
    0.611961     0.688187     0.524393 
    0.614228     0.569016     0.634583 
    0.505532     0.724079     0.623339 
    0.483791     0.594630     0.710491 
    0.542436     0.623279     0.385504 
    0.489065     0.584592     0.533618 
    0.361988     0.541254     0.626517 
    0.367844     0.679398     0.543964 
    0.324555     0.489802     0.377997 
    0.420524     0.446129     0.492666 
    0.490023     0.319090     0.446959 
    0.490660     0.465066     0.344226 
    0.274305     0.439821     0.536517 
    0.580472     0.460344     0.490687 
    0.639014     0.396717     0.633612 
    0.738072     0.493775     0.423904 
    0.630380     0.288583     0.511704 
    0.636551     0.370746     0.376426 
    0.492203     0.448392     0.655643 
    0.639064     0.511826     0.314249 
    0.698711     0.585243     0.523303 
    0.703836     0.490082     0.564960 
    0.421067     0.579575     0.358223 
    0.425811     0.670260     0.418444 
    0.489548     0.720258     0.479174 
    0.341614     0.618953     0.416814 
    0.302747     0.564940     0.497723 
    0.664760     0.601345     0.420876 
    0.326908     0.359158     0.434044 
    0.394793     0.377572     0.359246 
    0.369377     0.399332     0.623913 
    0.704482     0.396924     0.508434 
    0.438492     0.333791     0.585769 
    0.533808     0.335921     0.583954 
    0.351382     0.331921     0.538123 
EA44512 17.282 16.303 15.461 90.00 90.00 90.00 Sym.group:    0
1.0
   17.281649     0.000000     0.000000
    0.000000    16.303163     0.000000
    0.000000     0.000000    15.460691
   W   B
  20  15
Direct
    0.611961     0.688187     0.524393 
    0.614228     0.569016     0.634583 
    0.505532     0.724079     0.623339 
    0.483791     0.594630     0.710491 
    0.542436     0.623279     0.385504 
    0.489065     0.584592     0.533618 
    0.361988     0.541254     0.626517 
    0.367844     0.679398     0.543964 
    0.324555     0.489802     0.377997 
    0.420524     0.446129     0.492666 
    0.490023     0.319090     0.446959 
    0.490660     0.465066     0.344226 
    0.274305     0.439821     0.536517 
    0.580472     0.460344     0.490687 
    0.639014     0.396717     0.633612 
    0.738072     0.493775     0.423904 
    0.630380     0.288583     0.511704 
    0.636551     0.370746     0.376426 
    0.492203     0.448392     0.655643 
    0.639064     0.511826     0.314249 
    0.698711     0.585243     0.523303 
    0.703836     0.490082     0.564960 
    0.421067     0.579575     0.358223 
    0.425811     0.670260     0.418444 
    0.489548     0.720258     0.479174 
    0.341614     0.618953     0.416814 
    0.302747     0.564940     0.497723 
    0.664760     0.601345     0.420876 
    0.326908     0.359158     0.434044 
    0.394793     0.377572     0.359246 
    0.369377     0.399332     0.623913 
    0.704482     0.396924     0.508434 
    0.438492     0.333791     0.585769 
    0.533808     0.335921     0.583954 
    0.351382     0.331921     0.538123 
EA44957 16.825 15.380 15.163 90.00 90.00 90.00 Sym.group:    0
1.0
   16.825189     0.000000     0.000000
    0.000000    15.379782     0.000000
    0.000000     0.000000    15.163445
   W   B
  20  11
Direct
    0.589278     0.443622     0.675842 
    0.495717     0.353640     0.531267 
    0.337120     0.328199     0.490954 
    0.360621     0.526412     0.676961 
    0.726108     0.421903     0.466417 
    0.581020     0.502616     0.505980 
    0.727113     0.584749     0.519168 
    0.511447     0.584509     0.655117 
    0.263737     0.441050     0.585405 
    0.651436     0.341840     0.574290 
    0.494337     0.673378     0.506801 
    0.269075     0.589630     0.503722 
    0.413590     0.511201     0.503842 
    0.336278     0.555180     0.353152 
    0.355268     0.702950     0.417837 
    0.368820     0.662782     0.591068 
    0.439444     0.293052     0.387148 
    0.475839     0.610702     0.357484 
    0.498886     0.437181     0.363803 
    0.624662     0.659496     0.417799 
    0.464897     0.451776     0.638242 
    0.701470     0.471088     0.605584 
    0.602053     0.364633     0.436994 
    0.649216     0.563965     0.634098 
    0.614134     0.643000     0.565491 
    0.384695     0.396698     0.607097 
    0.364435     0.414291     0.384060 
    0.287074     0.450892     0.446081 
    0.683620     0.535714     0.393121 
    0.634347     0.440962     0.364194 
    0.594263     0.542887     0.340980 
EA45196 17.081 16.314 14.644 90.00 90.00 90.00 Sym.group:    0
1.0
   17.081138     0.000000     0.000000
    0.000000    16.313546     0.000000
    0.000000     0.000000    14.643915
   W   B
  20  15
Direct
    0.387516     0.682415     0.529680 
    0.377303     0.556446     0.637825 
    0.498250     0.701487     0.645848 
    0.459430     0.636449     0.378861 
    0.510953     0.582846     0.526776 
    0.625624     0.549838     0.642443 
    0.632201     0.682604     0.558044 
    0.677928     0.499773     0.377415 
    0.583001     0.441606     0.496494 
    0.507512     0.317107     0.445966 
    0.512158     0.478647     0.343461 
    0.726245     0.440941     0.558358 
    0.411958     0.457079     0.491923 
    0.349909     0.393380     0.631436 
    0.268753     0.491713     0.402334 
    0.365489     0.289423     0.488735 
    0.370610     0.387513     0.350156 
    0.497836     0.444521     0.658509 
    0.670856     0.304324     0.543164 
    0.612128     0.363774     0.325135 
    0.299826     0.581612     0.517362 
    0.284297     0.486693     0.555136 
    0.583493     0.593045     0.356146 
    0.577076     0.680943     0.421438 
    0.512246     0.722857     0.492377 
    0.661688     0.628294     0.423193 
    0.693056     0.566025     0.509949 
    0.338703     0.602071     0.411578 
    0.700466     0.376376     0.428162 
    0.622521     0.401521     0.640580 
    0.286447     0.395984     0.498812 
    0.555805     0.332382     0.593829 
    0.457716     0.327645     0.585553 
    0.498852     0.575012     0.691798 
    0.382147     0.527660     0.341525 
EA45712 17.510 14.206 14.235 90.00 90.00 90.00 Sym.group:    0
1.0
   17.509686     0.000000     0.000000
    0.000000    14.205998     0.000000
    0.000000     0.000000    14.234626
   W   B
  19  11
Direct
    0.585661     0.414222     0.331750 
    0.576898     0.495618     0.501993 
    0.721868     0.468156     0.410746 
    0.636322     0.478699     0.675208 
    0.509959     0.333187     0.475332 
    0.626366     0.635942     0.610158 
    0.434172     0.398501     0.330291 
    0.417093     0.498248     0.489653 
    0.291380     0.441435     0.398218 
    0.483620     0.663080     0.531071 
    0.505080     0.570305     0.354154 
    0.274740     0.558769     0.566489 
    0.375487     0.634934     0.660774 
    0.714494     0.642758     0.464900 
    0.417569     0.345262     0.618356 
    0.485695     0.520873     0.659914 
    0.364432     0.545235     0.295067 
    0.756277     0.542622     0.579993 
    0.290724     0.380841     0.565916 
    0.615578     0.350009     0.573250 
    0.693597     0.412609     0.548663 
    0.632364     0.564275     0.367337 
    0.379302     0.339555     0.463750 
    0.313523     0.594326     0.424446 
    0.539000     0.378639     0.633824 
    0.361916     0.482071     0.650815 
    0.360116     0.659772     0.508980 
    0.403524     0.647016     0.403941 
    0.590750     0.646847     0.445823 
    0.642496     0.356194     0.459188 
EA46097 17.073 14.769 14.922 90.00 90.00 90.00 Sym.group:    0
1.0
   17.072567     0.000000     0.000000
    0.000000    14.769419     0.000000
    0.000000     0.000000    14.921734
   W   B
  18  11
Direct
    0.505439     0.340733     0.510672 
    0.626653     0.487660     0.696601 
    0.682854     0.365329     0.465847 
    0.579340     0.495252     0.494262 
    0.583146     0.685108     0.502423 
    0.626198     0.478922     0.323495 
    0.477548     0.431506     0.340352 
    0.723566     0.485533     0.578047 
    0.500385     0.596533     0.369392 
    0.506510     0.595143     0.627808 
    0.500545     0.419817     0.658912 
    0.270956     0.414052     0.482565 
    0.416524     0.490403     0.493210 
    0.359339     0.369223     0.617414 
    0.337358     0.529591     0.342366 
    0.262579     0.580019     0.472922 
    0.744281     0.508635     0.411109 
    0.362423     0.639735     0.588056 
    0.576679     0.361199     0.391028 
    0.637825     0.607408     0.397502 
    0.688342     0.606391     0.502213 
    0.638711     0.601433     0.603533 
    0.381941     0.634893     0.432992 
    0.458943     0.659389     0.498240 
    0.392117     0.510182     0.652531 
    0.306172     0.503246     0.595185 
    0.354697     0.391150     0.378195 
    0.378845     0.336129     0.473534 
    0.620085     0.375385     0.599592 
EA46351 16.803 15.002 14.362 90.00 90.00 90.00 Sym.group:    0
1.0
   16.803173     0.000000     0.000000
    0.000000    15.001917     0.000000
    0.000000     0.000000    14.362029
   W   B
  16  15
Direct
    0.453457     0.368893     0.598542 
    0.554452     0.324361     0.462540 
    0.643375     0.563565     0.338412 
    0.704283     0.636396     0.490766 
    0.699638     0.369952     0.516426 
    0.586751     0.497080     0.491020 
    0.533297     0.510995     0.665663 
    0.678632     0.398694     0.355502 
    0.420574     0.509663     0.510676 
    0.403015     0.632463     0.652736 
    0.280590     0.506450     0.448213 
    0.493987     0.625494     0.384871 
    0.542464     0.656153     0.551102 
    0.384320     0.480497     0.701884 
    0.321799     0.341507     0.475519 
    0.504501     0.456703     0.345808 
    0.731992     0.500512     0.443450 
    0.720875     0.511752     0.562153 
    0.650658     0.579493     0.616377 
    0.586029     0.382784     0.607613 
    0.654964     0.461732     0.633164 
    0.433354     0.345497     0.401613 
    0.434659     0.268525     0.483815 
    0.417657     0.675577     0.503257 
    0.362916     0.627892     0.414954 
    0.385173     0.537362     0.350154 
    0.308408     0.434236     0.586966 
    0.301347     0.548085     0.598882 
    0.609631     0.688754     0.415141 
    0.325606     0.631648     0.526060 
    0.371597     0.427283     0.366722 
EA46687 16.832 15.364 14.351 90.00 90.00 90.00 Sym.group:    0
1.0
   16.832065     0.000000     0.000000
    0.000000    15.364075     0.000000
    0.000000     0.000000    14.350854
   W   B
  16  15
Direct
    0.556112     0.383403     0.615532 
    0.449146     0.325512     0.489017 
    0.347174     0.543796     0.340707 
    0.293323     0.626620     0.488189 
    0.304590     0.373003     0.542646 
    0.413424     0.495602     0.495548 
    0.474728     0.528674     0.664008 
    0.318593     0.385940     0.378151 
    0.578755     0.511640     0.506659 
    0.599761     0.649383     0.626350 
    0.715610     0.504466     0.437045 
    0.496734     0.608344     0.368562 
    0.456833     0.655600     0.533807 
    0.624335     0.509443     0.700024 
    0.680214     0.347781     0.485252 
    0.490210     0.439587     0.351869 
    0.265415     0.491016     0.457424 
    0.283248     0.513072     0.573969 
    0.354642     0.584610     0.615689 
    0.422744     0.395613     0.624388 
    0.353911     0.473102     0.644917 
    0.566148     0.338144     0.415109 
    0.571019     0.277078     0.510637 
    0.578478     0.672278     0.472109 
    0.630499     0.615774     0.389465 
    0.606389     0.520407     0.340433 
    0.691911     0.448171     0.585557 
    0.698549     0.560165     0.580044 
    0.382726     0.672336     0.400067 
    0.671031     0.632837     0.497203 
    0.623749     0.416604     0.369623 
