EA52827 14.744 14.646 12.107 90.00 90.00 90.00 Sym.group:    0
1.0
   14.744359     0.000000     0.000000
    0.000000    14.646316     0.000000
    0.000000     0.000000    12.107142
   W
  16
Direct
    0.608361     0.710804     0.500098 
    0.334099     0.667638     0.500046 
    0.290143     0.393003     0.500106 
    0.534912     0.265154     0.499972 
    0.732415     0.463965     0.499898 
    0.638102     0.570552     0.611107 
    0.476419     0.654464     0.610473 
    0.346556     0.525004     0.610136 
    0.429384     0.360895     0.610925 
    0.609486     0.388684     0.609888 
    0.638049     0.570534     0.388906 
    0.476521     0.654456     0.389617 
    0.346692     0.524969     0.389510 
    0.429408     0.360875     0.389191 
    0.609523     0.388771     0.390081 
    0.499930     0.500235     0.500046 
EA52394 16.074 15.894 13.083 90.00 90.00 90.00 Sym.group:    0
1.0
   16.073507     0.000000     0.000000
    0.000000    15.894021     0.000000
    0.000000     0.000000    13.083350
   W
  17
Direct
    0.633503     0.506451     0.589811 
    0.550894     0.367348     0.588880 
    0.386379     0.403205     0.595942 
    0.383844     0.588093     0.595231 
    0.539235     0.635317     0.587642 
    0.387294     0.400727     0.380372 
    0.382255     0.588760     0.379258 
    0.545133     0.642032     0.389479 
    0.645512     0.506820     0.394770 
    0.552870     0.362571     0.390537 
    0.296728     0.494291     0.483791 
    0.426589     0.709846     0.480351 
    0.675453     0.639033     0.492992 
    0.684497     0.376933     0.492109 
    0.441758     0.285386     0.483578 
    0.475457     0.493153     0.700084 
    0.492600     0.500034     0.475172 
EA52757 15.750 15.989 14.883 90.00 90.00 90.00 Sym.group:    0
1.0
   15.750127     0.000000     0.000000
    0.000000    15.988804     0.000000
    0.000000     0.000000    14.882591
   W
  18
Direct
    0.635017     0.568920     0.591560 
    0.474431     0.648395     0.588779 
    0.351796     0.521951     0.591450 
    0.432250     0.367789     0.592085 
    0.601749     0.395899     0.592962 
    0.507170     0.506691     0.306056 
    0.507588     0.517913     0.678786 
    0.302394     0.397003     0.503743 
    0.530957     0.281531     0.500303 
    0.720669     0.458543     0.506469 
    0.601318     0.697887     0.501215 
    0.335502     0.650526     0.499983 
    0.477096     0.634920     0.408002 
    0.359271     0.519227     0.408742 
    0.433614     0.373290     0.408530 
    0.601206     0.399314     0.409664 
    0.628805     0.561869     0.411812 
    0.499170     0.498331     0.499861 
EA14148 14.754 14.114 14.571 90.00 90.00 90.00 Sym.group:    0
1.0
   14.754193     0.000000     0.000000
    0.000000    14.114420     0.000000
    0.000000     0.000000    14.570714
   W
  19
Direct
    0.576955     0.476675     0.672187 
    0.320297     0.475828     0.480709 
    0.607639     0.545817     0.353316 
    0.680921     0.528640     0.514961 
    0.413572     0.522425     0.336331 
    0.402135     0.452995     0.657410 
    0.660328     0.688670     0.440654 
    0.467471     0.606933     0.711480 
    0.309649     0.639755     0.410630 
    0.506602     0.314330     0.662890 
    0.696054     0.399754     0.392574 
    0.358322     0.355172     0.356416 
    0.425250     0.321478     0.511651 
    0.528269     0.371007     0.369857 
    0.612654     0.346614     0.533459 
    0.485588     0.666591     0.434013 
    0.375165     0.630308     0.569023 
    0.572700     0.658940     0.587084 
    0.500431     0.498068     0.505352 
EA52661 14.369 15.840 14.850 90.00 90.00 90.00 Sym.group:    0
1.0
   14.368998     0.000000     0.000000
    0.000000    15.840302     0.000000
    0.000000     0.000000    14.849956
   W
  20
Direct
    0.502766     0.310797     0.464920 
    0.348309     0.399722     0.547805 
    0.217645     0.436117     0.448023 
    0.341476     0.561162     0.513712 
    0.253527     0.543417     0.352023 
    0.567478     0.419800     0.356031 
    0.388593     0.425230     0.385778 
    0.419625     0.576023     0.355069 
    0.499015     0.662465     0.488263 
    0.670483     0.679292     0.509981 
    0.652124     0.372555     0.513962 
    0.624876     0.575974     0.386127 
    0.704935     0.526172     0.534012 
    0.733369     0.443650     0.385054 
    0.404501     0.657620     0.635413 
    0.578781     0.605137     0.634841 
    0.440189     0.508329     0.665907 
    0.500024     0.359105     0.635751 
    0.520367     0.494115     0.510549 
    0.631919     0.443317     0.676783 
