EA10   14.561 15.385 13.056 90.00 90.00 90.00 Sym.group:    0
1.0
   14.561371     0.000000     0.000000
    0.000000    15.384590     0.000000
    0.000000     0.000000    13.056177
   W
  20
Direct
    0.459871     0.338966     0.500386 
    0.371923     0.618633     0.500418 
    0.667618     0.542340     0.500378 
    0.545769     0.673382     0.499004 
    0.638889     0.371366     0.499683 
    0.316149     0.449801     0.500500 
    0.618794     0.621325     0.664314 
    0.547198     0.347298     0.671920 
    0.333870     0.543232     0.666357 
    0.370263     0.377569     0.339503 
    0.676483     0.450053     0.336829 
    0.451463     0.663130     0.328291 
    0.619284     0.621564     0.335622 
    0.546804     0.347857     0.327818 
    0.333774     0.543171     0.333555 
    0.369850     0.377458     0.660572 
    0.676680     0.449133     0.663186 
    0.451524     0.663189     0.671541 
    0.501709     0.500512     0.391866 
    0.502087     0.500022     0.608256 
EA369  16.702 16.584 10.648 90.00 90.00 90.00 Sym.group:    0
1.0
   16.701616     0.000000     0.000000
    0.000000    16.584272     0.000000
    0.000000     0.000000    10.647695
   W
  16
Direct
    0.445073     0.701236     0.497838 
    0.674240     0.614693     0.497297 
    0.661930     0.368069     0.499616 
    0.425282     0.304574     0.501368 
    0.292420     0.510612     0.500133 
    0.635246     0.492515     0.373178 
    0.535034     0.368221     0.374913 
    0.386064     0.425081     0.375138 
    0.394221     0.585290     0.373002 
    0.548838     0.626783     0.372344 
    0.550000     0.631728     0.623372 
    0.638948     0.493016     0.624986 
    0.536355     0.366245     0.626088 
    0.384195     0.423864     0.626027 
    0.392024     0.587558     0.625198 
    0.500132     0.500515     0.509498 
EA394  15.289 14.270 15.816 90.00 90.00 90.00 Sym.group:    0
1.0
   15.288748     0.000000     0.000000
    0.000000    14.270184     0.000000
    0.000000     0.000000    15.816499
   W
  20
Direct
    0.571641     0.410506     0.604136 
    0.396095     0.448661     0.625399 
    0.369168     0.348006     0.489919 
    0.451689     0.285619     0.621573 
    0.247393     0.460538     0.536966 
    0.505420     0.611596     0.635710 
    0.571640     0.726442     0.497848 
    0.641227     0.576742     0.554716 
    0.352013     0.600412     0.539714 
    0.438894     0.747424     0.571981 
    0.605239     0.584982     0.393566 
    0.439711     0.670229     0.411115 
    0.323323     0.499326     0.404968 
    0.484085     0.502740     0.482924 
    0.460089     0.542853     0.313162 
    0.743299     0.428587     0.557447 
    0.631863     0.397883     0.450192 
    0.755274     0.526837     0.438132 
    0.531834     0.260482     0.493760 
    0.480103     0.370138     0.376773 
EA811  15.529 15.538 12.028 90.00 90.00 90.00 Sym.group:    0
1.0
   15.528941     0.000000     0.000000
    0.000000    15.538042     0.000000
    0.000000     0.000000    12.027829
   W
  16
Direct
    0.659559     0.346377     0.500155 
    0.699306     0.605683     0.500432 
    0.459172     0.720913     0.500584 
    0.276700     0.530344     0.498459 
    0.404881     0.299264     0.499277 
    0.563324     0.631821     0.390901 
    0.394812     0.601226     0.389494 
    0.370363     0.431496     0.388073 
    0.526031     0.354388     0.386658 
    0.646512     0.481634     0.388478 
    0.647743     0.481297     0.611847 
    0.563884     0.632476     0.610363 
    0.393314     0.601609     0.609258 
    0.367781     0.430785     0.610332 
    0.525882     0.353590     0.613326 
    0.500736     0.497097     0.502366 
EA882  15.782 15.284 14.201 90.00 90.00 90.00 Sym.group:    0
1.0
   15.781673     0.000000     0.000000
    0.000000    15.283611     0.000000
    0.000000     0.000000    14.201115
   W
  19
Direct
    0.607196     0.542769     0.645681 
    0.463633     0.650140     0.594344 
    0.658339     0.560432     0.475004 
    0.527898     0.650218     0.423610 
    0.612438     0.690186     0.575573 
    0.370853     0.689435     0.438315 
    0.717454     0.435822     0.574279 
    0.569844     0.524585     0.297843 
    0.445439     0.487484     0.664737 
    0.480840     0.405718     0.320536 
    0.412353     0.330855     0.572635 
    0.355214     0.415270     0.439804 
    0.581633     0.371103     0.602737 
    0.333011     0.556822     0.528724 
    0.403255     0.563377     0.345399 
    0.523455     0.298645     0.454363 
    0.304238     0.431320     0.631648 
    0.497889     0.489029     0.495681 
    0.635019     0.406793     0.419087 
EA1068 16.528 16.493 14.626 90.00 90.00 90.00 Sym.group:    0
1.0
   16.527727     0.000000     0.000000
    0.000000    16.492582     0.000000
    0.000000     0.000000    14.626051
   W
  20
Direct
    0.560054     0.377935     0.580902 
    0.403962     0.458561     0.620345 
    0.358664     0.396442     0.454006 
    0.421807     0.309286     0.574893 
    0.274815     0.503056     0.528655 
    0.317816     0.543587     0.382119 
    0.708963     0.409537     0.520394 
    0.594985     0.409056     0.403359 
    0.488169     0.299530     0.435601 
    0.449904     0.460457     0.346592 
    0.597687     0.547937     0.337523 
    0.596652     0.637122     0.487535 
    0.646041     0.524239     0.606985 
    0.380795     0.616712     0.538304 
    0.715933     0.530533     0.435874 
    0.455087     0.619452     0.387782 
    0.506189     0.627237     0.635718 
    0.478866     0.732059     0.508788 
    0.536474     0.487832     0.707608 
    0.507137     0.509432     0.507018 
EA1285 15.005 14.904 15.508 90.00 90.00 90.00 Sym.group:    0
1.0
   15.004936     0.000000     0.000000
    0.000000    14.903534     0.000000
    0.000000     0.000000    15.508300
   W
  20
Direct
    0.395739     0.431448     0.374835 
    0.390382     0.277131     0.430787 
    0.299715     0.370596     0.539801 
    0.430714     0.285106     0.579643 
    0.692171     0.470239     0.424211 
    0.549184     0.486499     0.334559 
    0.677065     0.509809     0.570875 
    0.556107     0.389286     0.607665 
    0.546284     0.349322     0.446877 
    0.691916     0.340865     0.525248 
    0.518235     0.529313     0.495851 
    0.335958     0.537330     0.489712 
    0.511071     0.717095     0.457588 
    0.426899     0.611904     0.359667 
    0.406137     0.462784     0.627525 
    0.430162     0.655139     0.586606 
    0.620737     0.670044     0.586180 
    0.537363     0.568239     0.678721 
    0.336362     0.703380     0.459206 
    0.647799     0.634473     0.424441 
EA1638 13.848 14.053 14.022 90.00 90.00 90.00 Sym.group:    0
1.0
   13.847696     0.000000     0.000000
    0.000000    14.052828     0.000000
    0.000000     0.000000    14.022381
   W
  18
Direct
    0.552833     0.342978     0.395450 
    0.364258     0.405176     0.403790 
    0.361856     0.592298     0.407030 
    0.542601     0.658591     0.404040 
    0.670049     0.506560     0.397823 
    0.551861     0.343662     0.604788 
    0.364269     0.405314     0.596320 
    0.362214     0.592196     0.592980 
    0.541586     0.656947     0.595507 
    0.668846     0.506582     0.601661 
    0.698026     0.363336     0.499601 
    0.427257     0.264469     0.499336 
    0.237865     0.493642     0.500045 
    0.416627     0.741801     0.499490 
    0.697342     0.650758     0.499892 
    0.521634     0.488414     0.703992 
    0.518624     0.489647     0.298063 
    0.502251     0.497631     0.500193 
EA1760 16.606 17.332 12.415 90.00 90.00 90.00 Sym.group:    0
1.0
   16.606317     0.000000     0.000000
    0.000000    17.332292     0.000000
    0.000000     0.000000    12.415318
   W
  20
Direct
    0.742041     0.483442     0.506022 
    0.635444     0.692329     0.508053 
    0.393261     0.709017     0.508315 
    0.257750     0.516459     0.506051 
    0.364613     0.307848     0.507455 
    0.606822     0.291011     0.508379 
    0.367195     0.586580     0.407143 
    0.356225     0.433392     0.405448 
    0.489777     0.347837     0.407359 
    0.632767     0.413323     0.407273 
    0.643689     0.566813     0.405501 
    0.510498     0.652417     0.407466 
    0.500287     0.499968     0.535849 
    0.500044     0.499880     0.337008 
    0.635620     0.412826     0.607243 
    0.645556     0.567945     0.606968 
    0.510816     0.655257     0.607312 
    0.364492     0.586813     0.606902 
    0.354008     0.432040     0.606466 
    0.489095     0.344802     0.607791 
EA2022 15.883 15.233 14.422 90.00 90.00 90.00 Sym.group:    0
1.0
   15.882905     0.000000     0.000000
    0.000000    15.232648     0.000000
    0.000000     0.000000    14.422379
   W
  20
Direct
    0.676984     0.392304     0.578377 
    0.534841     0.478498     0.498359 
    0.546734     0.414951     0.689676 
    0.694193     0.522713     0.471253 
    0.620080     0.545083     0.664943 
    0.593898     0.488242     0.336078 
    0.472763     0.364692     0.364399 
    0.638843     0.341534     0.429203 
    0.508727     0.318900     0.534541 
    0.356414     0.311960     0.456763 
    0.398248     0.424747     0.604503 
    0.606728     0.651007     0.526525 
    0.432866     0.719855     0.537511 
    0.384182     0.491519     0.420113 
    0.315389     0.587677     0.558785 
    0.493892     0.624971     0.403393 
    0.652455     0.639363     0.358990 
    0.339530     0.675021     0.421845 
    0.268164     0.427940     0.517603 
    0.465068     0.579022     0.627142 
EA2261 15.709 15.653 14.287 90.00 90.00 90.00 Sym.group:    0
1.0
   15.709138     0.000000     0.000000
    0.000000    15.653043     0.000000
    0.000000     0.000000    14.287250
   W
  20
Direct
    0.691526     0.423074     0.575881 
    0.534770     0.485090     0.498277 
    0.556994     0.413464     0.686997 
    0.687976     0.555456     0.473495 
    0.609450     0.552859     0.672007 
    0.592588     0.513339     0.333987 
    0.496902     0.371403     0.353879 
    0.666216     0.377698     0.423473 
    0.538879     0.326236     0.525467 
    0.389192     0.297883     0.444046 
    0.408734     0.406394     0.599745 
    0.581098     0.659348     0.539446 
    0.401399     0.697615     0.549739 
    0.387290     0.476352     0.412368 
    0.302267     0.551744     0.563132 
    0.477407     0.623651     0.407806 
    0.632452     0.665811     0.366708 
    0.315040     0.645148     0.431557 
    0.280653     0.393922     0.506159 
    0.449167     0.563511     0.635829 
EA2483 16.040 15.479 14.149 90.00 90.00 90.00 Sym.group:    0
1.0
   16.039921     0.000000     0.000000
    0.000000    15.478524     0.000000
    0.000000     0.000000    14.148689
   W
  20
Direct
    0.452905     0.357463     0.501963 
    0.590687     0.293349     0.563375 
    0.310721     0.352739     0.381070 
    0.598082     0.380927     0.411027 
    0.535470     0.415434     0.656509 
    0.440980     0.425920     0.340237 
    0.596309     0.504191     0.305332 
    0.697716     0.400654     0.564791 
    0.344975     0.506052     0.451239 
    0.301833     0.358973     0.544736 
    0.385815     0.484835     0.621205 
    0.478391     0.714885     0.546449 
    0.345058     0.652930     0.558346 
    0.484879     0.602885     0.665041 
    0.403489     0.649180     0.401265 
    0.637458     0.664612     0.528812 
    0.629682     0.534616     0.637101 
    0.566271     0.645466     0.379892 
    0.683906     0.525813     0.450536 
    0.515374     0.529074     0.491074 
EA2709 15.507 15.552 14.139 90.00 90.00 90.00 Sym.group:    0
1.0
   15.507200     0.000000     0.000000
    0.000000    15.552002     0.000000
    0.000000     0.000000    14.139015
   W
  20
Direct
    0.525344     0.363705     0.491838 
    0.382997     0.310300     0.575787 
    0.666203     0.335299     0.379015 
    0.378790     0.390143     0.417824 
    0.459667     0.427582     0.656368 
    0.537121     0.446845     0.334466 
    0.387454     0.506682     0.298258 
    0.292708     0.428618     0.582863 
    0.666029     0.479572     0.463466 
    0.675834     0.327030     0.535457 
    0.621947     0.481818     0.643458 
    0.555602     0.702002     0.531664 
    0.688053     0.615400     0.562793 
    0.537839     0.604333     0.668937 
    0.606138     0.618344     0.396725 
    0.386861     0.683275     0.514560 
    0.378393     0.559152     0.635179 
    0.444540     0.642914     0.360633 
    0.317269     0.541508     0.452808 
    0.491209     0.535475     0.497897 
EA3082 17.201 15.384 14.639 90.00 90.00 90.00 Sym.group:    0
1.0
   17.200911     0.000000     0.000000
    0.000000    15.384299     0.000000
    0.000000     0.000000    14.639308
   W
  18
Direct
    0.364893     0.565459     0.381441 
    0.498152     0.524644     0.309478 
    0.470843     0.570149     0.683968 
    0.480600     0.665084     0.391107 
    0.495280     0.510539     0.492054 
    0.718938     0.515835     0.505740 
    0.510119     0.674758     0.586897 
    0.610491     0.613868     0.448005 
    0.375706     0.606131     0.543813 
    0.625820     0.472096     0.375146 
    0.610987     0.537777     0.615725 
    0.536564     0.393640     0.616787 
    0.387844     0.438184     0.600921 
    0.539697     0.354407     0.441836 
    0.392332     0.398893     0.426109 
    0.280013     0.486279     0.497675 
    0.665692     0.379931     0.538588 
    0.436030     0.292328     0.544708 
EA3190 16.976 15.619 14.689 90.00 90.00 90.00 Sym.group:    0
1.0
   16.976464     0.000000     0.000000
    0.000000    15.618928     0.000000
    0.000000     0.000000    14.689453
   W
  20
Direct
    0.621026     0.351869     0.563193 
    0.572043     0.368191     0.389493 
    0.462180     0.337470     0.512810 
    0.705943     0.472998     0.567546 
    0.688513     0.469770     0.399281 
    0.612882     0.482924     0.698804 
    0.504423     0.396726     0.666482 
    0.569815     0.546724     0.336439 
    0.560071     0.492546     0.512912 
    0.524657     0.738205     0.521962 
    0.265910     0.572909     0.562675 
    0.406913     0.504145     0.568076 
    0.522560     0.604044     0.628164 
    0.437815     0.459983     0.372135 
    0.459311     0.624057     0.438578 
    0.623500     0.637858     0.457472 
    0.436082     0.302464     0.353497 
    0.314804     0.569715     0.418200 
    0.379447     0.666195     0.573118 
    0.332104     0.401210     0.459161 
EA3469 15.772 15.772 15.772 90.00 90.00 90.00 Sym.group:    0
1.0
   15.772223     0.000000     0.000000
    0.000000    15.772223     0.000000
    0.000000     0.000000    15.772223
   W
  19
Direct
    0.499198     0.499981     0.499928 
    0.541304     0.378094     0.383902 
    0.541274     0.621924     0.383885 
    0.458834     0.378084     0.615952 
    0.458931     0.622013     0.616033 
    0.384091     0.377890     0.458677 
    0.423869     0.500000     0.343406 
    0.384020     0.622055     0.458639 
    0.575994     0.500031     0.656699 
    0.615925     0.622062     0.541340 
    0.343673     0.499951     0.575302 
    0.615938     0.377940     0.541345 
    0.656340     0.500007     0.424698 
    0.426068     0.499964     0.711809 
    0.574176     0.499988     0.288390 
    0.711589     0.500008     0.574188 
    0.288571     0.499998     0.425794 
    0.500094     0.723493     0.500010 
    0.500112     0.276518     0.500001 
EA3692 15.922 15.978 14.592 90.00 90.00 90.00 Sym.group:    0
1.0
   15.922443     0.000000     0.000000
    0.000000    15.978188     0.000000
    0.000000     0.000000    14.591931
   W
  20
Direct
    0.479760     0.559392     0.337050 
    0.370352     0.505986     0.509616 
    0.549567     0.686941     0.566735 
    0.391904     0.631371     0.613876 
    0.618416     0.649761     0.422198 
    0.337949     0.449903     0.350518 
    0.332503     0.593522     0.344890 
    0.439204     0.672809     0.457004 
    0.351529     0.461479     0.681845 
    0.696732     0.550257     0.532951 
    0.493134     0.268897     0.465618 
    0.363336     0.329643     0.499219 
    0.750043     0.436080     0.447445 
    0.477339     0.538096     0.704856 
    0.632813     0.497187     0.367325 
    0.487862     0.409255     0.399876 
    0.617640     0.379996     0.514477 
    0.466012     0.386357     0.604214 
    0.613115     0.459069     0.656911 
    0.530790     0.534000     0.523375 
EA4085 14.537 14.610 10.908 90.00 90.00 90.00 Sym.group:    0
1.0
   14.537024     0.000000     0.000000
    0.000000    14.610489     0.000000
    0.000000     0.000000    10.908354
   W
  16
Direct
    0.652960     0.453965     0.621729 
    0.502834     0.339838     0.621437 
    0.347565     0.447434     0.621059 
    0.401934     0.628581     0.620485 
    0.592015     0.630795     0.622503 
    0.726366     0.578719     0.501252 
    0.643625     0.308554     0.499738 
    0.363872     0.305380     0.497859 
    0.271597     0.568731     0.496268 
    0.493506     0.737906     0.498268 
    0.589530     0.625403     0.379381 
    0.649210     0.455199     0.378568 
    0.504203     0.346774     0.376942 
    0.354420     0.449657     0.375749 
    0.406713     0.623102     0.374939 
    0.499650     0.499963     0.513822 
EA4133 17.491 15.081 14.162 90.00 90.00 90.00 Sym.group:    0
1.0
   17.491467     0.000000     0.000000
    0.000000    15.081123     0.000000
    0.000000     0.000000    14.162413
   W
  20
Direct
    0.577120     0.426537     0.401287 
    0.535694     0.476743     0.577413 
    0.409637     0.364075     0.582251 
    0.551794     0.309027     0.558131 
    0.478517     0.306998     0.418619 
    0.732425     0.570866     0.523708 
    0.622598     0.627183     0.615375 
    0.667044     0.474195     0.654756 
    0.684690     0.394380     0.516355 
    0.697349     0.521715     0.376406 
    0.302123     0.558006     0.454593 
    0.475565     0.638588     0.567484 
    0.588200     0.607144     0.440072 
    0.425291     0.658599     0.403423 
    0.436448     0.492117     0.437278 
    0.514917     0.551762     0.302777 
    0.340126     0.689675     0.545119 
    0.333243     0.366453     0.443256 
    0.261801     0.434758     0.565223 
    0.365414     0.531179     0.616474 
EA4364 16.839 15.906 13.346 90.00 90.00 90.00 Sym.group:    0
1.0
   16.838959     0.000000     0.000000
    0.000000    15.905864     0.000000
    0.000000     0.000000    13.345927
   W
  20
Direct
    0.742566     0.489654     0.483860 
    0.684854     0.629315     0.417458 
    0.533835     0.665592     0.386794 
    0.597053     0.680096     0.547146 
    0.680121     0.482417     0.636677 
    0.582997     0.518127     0.466642 
    0.454418     0.523098     0.364157 
    0.641833     0.372619     0.480916 
    0.528936     0.369716     0.337495 
    0.548660     0.562653     0.652808 
    0.552190     0.394236     0.619764 
    0.291869     0.497041     0.411979 
    0.426692     0.498323     0.551877 
    0.408656     0.327543     0.581203 
    0.284095     0.427337     0.559186 
    0.303488     0.594221     0.573059 
    0.385998     0.652077     0.442450 
    0.443129     0.670885     0.601710 
    0.516790     0.274977     0.473006 
    0.391819     0.370074     0.411814 
EA4596 16.013 14.558 14.087 90.00 90.00 90.00 Sym.group:    0
1.0
   16.013121     0.000000     0.000000
    0.000000    14.557666     0.000000
    0.000000     0.000000    14.086853
   W
  20
Direct
    0.392581     0.541628     0.390599 
    0.633470     0.385726     0.358412 
    0.395328     0.389141     0.519258 
    0.633130     0.428936     0.665601 
    0.394748     0.573119     0.591711 
    0.629930     0.683393     0.472416 
    0.317966     0.394721     0.363949 
    0.697166     0.368654     0.516726 
    0.317760     0.442279     0.664435 
    0.688347     0.563648     0.589956 
    0.311509     0.663446     0.473180 
    0.688265     0.535814     0.399265 
    0.478668     0.680378     0.470995 
    0.552116     0.570622     0.332415 
    0.479094     0.392810     0.354655 
    0.554411     0.327059     0.524704 
    0.477903     0.438324     0.672578 
    0.551227     0.618459     0.638137 
    0.260559     0.498285     0.500553 
    0.545822     0.503556     0.500455 
EA4928 16.036 15.831 12.192 90.00 90.00 90.00 Sym.group:    0
1.0
   16.036473     0.000000     0.000000
    0.000000    15.831130     0.000000
    0.000000     0.000000    12.192104
   W
  18
Direct
    0.360502     0.530962     0.388563 
    0.426890     0.373773     0.388500 
    0.593266     0.392010     0.387584 
    0.632219     0.557516     0.386398 
    0.489824     0.644662     0.387493 
    0.360221     0.531027     0.611534 
    0.426844     0.373508     0.611448 
    0.593566     0.391848     0.611928 
    0.632397     0.557372     0.613762 
    0.489836     0.644838     0.612427 
    0.615188     0.690644     0.500153 
    0.357870     0.667821     0.500215 
    0.298148     0.409079     0.500002 
    0.521801     0.278674     0.500152 
    0.712122     0.451372     0.499860 
    0.494599     0.502225     0.268712 
    0.494379     0.502166     0.731044 
    0.500328     0.500503     0.500225 
EA5122 14.392 14.600 15.180 90.00 90.00 90.00 Sym.group:    0
1.0
   14.392404     0.000000     0.000000
    0.000000    14.600292     0.000000
    0.000000     0.000000    15.180266
   W
  19
Direct
    0.506219     0.500359     0.498913 
    0.331331     0.493754     0.425330 
    0.677382     0.507429     0.577367 
    0.492249     0.315056     0.524679 
    0.507677     0.685404     0.475086 
    0.473127     0.574820     0.335589 
    0.466166     0.384601     0.360886 
    0.357620     0.608650     0.561657 
    0.351618     0.420461     0.588768 
    0.641720     0.393764     0.439457 
    0.530293     0.609889     0.636416 
    0.526341     0.427427     0.662517 
    0.648404     0.579828     0.410965 
    0.391528     0.529385     0.707536 
    0.599438     0.468782     0.292678 
    0.651685     0.335161     0.592585 
    0.348534     0.666602     0.408404 
    0.664328     0.674696     0.546677 
    0.334336     0.323932     0.454491 
EA5393 15.858 15.844 14.877 90.00 90.00 90.00 Sym.group:    0
1.0
   15.857964     0.000000     0.000000
    0.000000    15.843594     0.000000
    0.000000     0.000000    14.877232
   W
  18
Direct
    0.559538     0.368295     0.410289 
    0.644455     0.513233     0.409678 
    0.526432     0.639178     0.405071 
    0.371761     0.572059     0.411020 
    0.389325     0.408712     0.408123 
    0.557417     0.366055     0.591392 
    0.643470     0.520151     0.591285 
    0.529123     0.643446     0.588679 
    0.377637     0.574010     0.594572 
    0.393306     0.402482     0.591258 
    0.278412     0.481609     0.507478 
    0.446939     0.284242     0.493982 
    0.695927     0.393208     0.506488 
    0.660024     0.653741     0.493403 
    0.408158     0.702021     0.498896 
    0.509008     0.489014     0.310383 
    0.509871     0.487322     0.688243 
    0.499197     0.501222     0.499758 
EA5537 14.443 14.294 12.308 90.00 90.00 90.00 Sym.group:    0
1.0
   14.443020     0.000000     0.000000
    0.000000    14.293722     0.000000
    0.000000     0.000000    12.307546
   W
  20
Direct
    0.499752     0.500024     0.610647 
    0.500063     0.499930     0.388822 
    0.343674     0.413093     0.325267 
    0.496523     0.318513     0.324610 
    0.652214     0.405489     0.325285 
    0.656826     0.586985     0.324602 
    0.503634     0.681322     0.325062 
    0.347796     0.594467     0.325004 
    0.344166     0.413481     0.675220 
    0.495964     0.318449     0.675120 
    0.651639     0.405746     0.674903 
    0.657327     0.586835     0.674669 
    0.503589     0.680744     0.675230 
    0.347394     0.594776     0.674767 
    0.687261     0.494824     0.499971 
    0.597281     0.661655     0.500492 
    0.410114     0.667478     0.499848 
    0.312827     0.505167     0.500166 
    0.402515     0.338446     0.500273 
    0.589439     0.332577     0.500042 
EA5769 14.556 14.402 13.795 90.00 90.00 90.00 Sym.group:    0
1.0
   14.556026     0.000000     0.000000
    0.000000    14.402005     0.000000
    0.000000     0.000000    13.794710
   W
  20
Direct
    0.500128     0.500571     0.601550 
    0.499525     0.499339     0.400289 
    0.455747     0.682680     0.345050 
    0.341054     0.545638     0.335891 
    0.364586     0.367782     0.352298 
    0.536832     0.336010     0.338372 
    0.678812     0.442072     0.349599 
    0.618369     0.609615     0.331586 
    0.464083     0.664761     0.661822 
    0.321305     0.559315     0.649269 
    0.380099     0.389096     0.666546 
    0.543680     0.317915     0.654563 
    0.658748     0.455095     0.665846 
    0.636889     0.632241     0.647536 
    0.446165     0.319714     0.505115 
    0.624949     0.364417     0.501376 
    0.679423     0.542017     0.499667 
    0.553593     0.677891     0.493963 
    0.374531     0.636136     0.498704 
    0.321486     0.457695     0.500960 
EA6189 15.994 15.726 12.195 90.00 90.00 90.00 Sym.group:    0
1.0
   15.994002     0.000000     0.000000
    0.000000    15.726084     0.000000
    0.000000     0.000000    12.194512
   W
  16
Direct
    0.302771     0.593706     0.499860 
    0.526668     0.717938     0.494526 
    0.713396     0.542988     0.500439 
    0.605124     0.306640     0.497867 
    0.350515     0.337381     0.502893 
    0.358526     0.472800     0.610705 
    0.429347     0.630343     0.608047 
    0.599280     0.610455     0.608524 
    0.631359     0.435929     0.608846 
    0.481606     0.353935     0.609013 
    0.598339     0.604062     0.387436 
    0.628797     0.439620     0.389938 
    0.481086     0.358371     0.391440 
    0.360450     0.471506     0.393232 
    0.431430     0.623012     0.387732 
    0.501306     0.501316     0.509504 
EA6251 16.964 15.811 14.111 90.00 90.00 90.00 Sym.group:    0
1.0
   16.963958     0.000000     0.000000
    0.000000    15.810947     0.000000
    0.000000     0.000000    14.110751
   W
  20
Direct
    0.498731     0.516704     0.605093 
    0.618468     0.458816     0.348568 
    0.580190     0.610754     0.312450 
    0.436875     0.633076     0.333232 
    0.657424     0.486257     0.648313 
    0.593191     0.643038     0.637655 
    0.444861     0.677516     0.626897 
    0.369677     0.593795     0.503348 
    0.633391     0.571689     0.486544 
    0.513721     0.678690     0.475464 
    0.491253     0.505603     0.418244 
    0.722618     0.445681     0.511612 
    0.400602     0.388356     0.519110 
    0.503912     0.365748     0.657386 
    0.352125     0.460314     0.373436 
    0.582645     0.383366     0.513513 
    0.490297     0.341586     0.367003 
    0.352051     0.505756     0.644008 
    0.491919     0.259065     0.509567 
    0.266050     0.474189     0.508556 
EA6482 17.131 15.719 14.311 90.00 90.00 90.00 Sym.group:    0
1.0
   17.130895     0.000000     0.000000
    0.000000    15.718674     0.000000
    0.000000     0.000000    14.310746
   W
  20
Direct
    0.274208     0.550820     0.424325 
    0.378901     0.609432     0.519768 
    0.297123     0.464180     0.566863 
    0.378517     0.537879     0.684289 
    0.378339     0.446839     0.401031 
    0.510197     0.524724     0.443126 
    0.548311     0.657203     0.341460 
    0.409159     0.618372     0.351554 
    0.638439     0.621352     0.500434 
    0.509360     0.712864     0.482437 
    0.661618     0.571155     0.660495 
    0.513257     0.587765     0.615341 
    0.440396     0.428994     0.579580 
    0.526984     0.282064     0.567892 
    0.594082     0.443328     0.579743 
    0.731304     0.501846     0.531011 
    0.406793     0.298279     0.478622 
    0.646991     0.463426     0.401475 
    0.515315     0.359171     0.396648 
    0.640707     0.320305     0.473906 
EA6903 16.722 15.331 13.321 90.00 90.00 90.00 Sym.group:    0
1.0
   16.721598     0.000000     0.000000
    0.000000    15.330658     0.000000
    0.000000     0.000000    13.321491
   W
  17
Direct
    0.495126     0.409904     0.409575 
    0.644464     0.456859     0.565209 
    0.722498     0.541348     0.418513 
    0.567329     0.299445     0.534963 
    0.657947     0.401078     0.397903 
    0.544800     0.381995     0.675398 
    0.627850     0.624487     0.545504 
    0.581587     0.560458     0.386335 
    0.504060     0.706292     0.466598 
    0.500578     0.672451     0.636495 
    0.281952     0.526677     0.426421 
    0.318643     0.475253     0.586798 
    0.427763     0.554310     0.376212 
    0.377648     0.628072     0.533570 
    0.341278     0.388344     0.408995 
    0.417473     0.358288     0.565576 
    0.489004     0.514739     0.565933 
EA6974 17.436 16.109 14.163 90.00 90.00 90.00 Sym.group:    0
1.0
   17.436295     0.000000     0.000000
    0.000000    16.108516     0.000000
    0.000000     0.000000    14.162882
   W
  20
Direct
    0.625282     0.403266     0.536847 
    0.542489     0.587756     0.317930 
    0.694869     0.553535     0.471202 
    0.476357     0.460109     0.438987 
    0.543544     0.309613     0.400974 
    0.406132     0.597933     0.401976 
    0.614477     0.457716     0.374124 
    0.556453     0.594687     0.504641 
    0.625032     0.544383     0.655596 
    0.737723     0.478063     0.604423 
    0.521667     0.716598     0.385130 
    0.381813     0.554047     0.573057 
    0.260125     0.470380     0.570892 
    0.444106     0.704302     0.523860 
    0.393234     0.334237     0.410614 
    0.368459     0.379708     0.570879 
    0.311874     0.469507     0.415999 
    0.487513     0.623004     0.669902 
    0.503905     0.300516     0.553833 
    0.504944     0.460641     0.619134 
EA7184 14.584 16.583 15.079 90.00 90.00 90.00 Sym.group:    0
1.0
   14.583710     0.000000     0.000000
    0.000000    16.583134     0.000000
    0.000000     0.000000    15.078647
   W
  20
Direct
    0.370983     0.666887     0.556935 
    0.241024     0.460637     0.503056 
    0.396444     0.391299     0.572035 
    0.294947     0.547183     0.619775 
    0.622529     0.473369     0.576186 
    0.568209     0.318537     0.532347 
    0.529787     0.392116     0.685412 
    0.459732     0.525238     0.666974 
    0.365967     0.429043     0.397627 
    0.424455     0.294544     0.453835 
    0.437420     0.566141     0.328185 
    0.294612     0.589161     0.436374 
    0.456274     0.531776     0.499246 
    0.479195     0.673867     0.414450 
    0.800799     0.538685     0.396133 
    0.763161     0.564300     0.542857 
    0.630427     0.570277     0.410598 
    0.602093     0.627269     0.552586 
    0.546455     0.416864     0.415198 
    0.715489     0.422807     0.440190 
EA7457 16.778 15.752 13.819 90.00 90.00 90.00 Sym.group:    0
1.0
   16.777592     0.000000     0.000000
    0.000000    15.751551     0.000000
    0.000000     0.000000    13.819124
   W
  20
Direct
    0.294035     0.472925     0.544720 
    0.313767     0.578585     0.407574 
    0.445597     0.509511     0.493648 
    0.413051     0.416464     0.647033 
    0.396899     0.277324     0.588150 
    0.453934     0.567467     0.330218 
    0.362454     0.361983     0.452545 
    0.491009     0.400232     0.343924 
    0.624168     0.351719     0.374908 
    0.519615     0.349223     0.518101 
    0.341665     0.610666     0.608438 
    0.490730     0.621932     0.611678 
    0.382923     0.694527     0.471424 
    0.537116     0.659330     0.444291 
    0.649870     0.621361     0.595598 
    0.686634     0.636734     0.424271 
    0.671551     0.375250     0.548509 
    0.607103     0.503679     0.432598 
    0.738083     0.514518     0.540241 
    0.579796     0.476572     0.622132 
EA7712 16.801 15.658 13.786 90.00 90.00 90.00 Sym.group:    0
1.0
   16.801440     0.000000     0.000000
    0.000000    15.658168     0.000000
    0.000000     0.000000    13.785749
   W
  20
Direct
    0.709159     0.534074     0.550319 
    0.684443     0.425607     0.408361 
    0.553193     0.487298     0.492776 
    0.591880     0.585047     0.640963 
    0.613755     0.721486     0.569445 
    0.543511     0.425062     0.332697 
    0.630760     0.629382     0.436765 
    0.498920     0.592636     0.333182 
    0.367267     0.644185     0.375222 
    0.482603     0.651084     0.508780 
    0.659571     0.395218     0.609645 
    0.509279     0.380565     0.619497 
    0.617778     0.307870     0.476849 
    0.463131     0.337418     0.454107 
    0.347616     0.380136     0.602743 
    0.314568     0.354175     0.436392 
    0.334652     0.635952     0.550512 
    0.389379     0.494772     0.437418 
    0.266032     0.493367     0.542034 
    0.422500     0.524667     0.622292 
EA7915 13.657 13.863 12.618 90.00 90.00 90.00 Sym.group:    0
1.0
   13.657391     0.000000     0.000000
    0.000000    13.862803     0.000000
    0.000000     0.000000    12.618038
   W
  20
Direct
    0.678835     0.567105     0.500089 
    0.649104     0.378637     0.499814 
    0.469123     0.314707     0.500360 
    0.320943     0.432900     0.499929 
    0.351545     0.621145     0.499794 
    0.529966     0.685466     0.499868 
    0.316865     0.494669     0.683114 
    0.402529     0.652215     0.685242 
    0.583370     0.655967     0.687711 
    0.683319     0.505858     0.683791 
    0.597660     0.347215     0.685062 
    0.416812     0.343856     0.688214 
    0.316651     0.494303     0.316542 
    0.402215     0.652561     0.314037 
    0.583597     0.655928     0.313095 
    0.683324     0.506041     0.316536 
    0.597694     0.347695     0.315021 
    0.416585     0.343971     0.311302 
    0.499793     0.499947     0.605350 
    0.500071     0.499816     0.395129 
EA8235 18.059 15.363 13.452 90.00 90.00 90.00 Sym.group:    0
1.0
   18.058606     0.000000     0.000000
    0.000000    15.363134     0.000000
    0.000000     0.000000    13.451812
   W
  19
Direct
    0.518734     0.506625     0.364980 
    0.373872     0.470545     0.404181 
    0.264343     0.405617     0.470336 
    0.386364     0.411640     0.611502 
    0.355938     0.303450     0.486209 
    0.490310     0.371906     0.470174 
    0.741215     0.494688     0.434147 
    0.687297     0.447870     0.586638 
    0.637021     0.402322     0.396696 
    0.608395     0.319512     0.546723 
    0.626275     0.577480     0.461215 
    0.538205     0.676851     0.358341 
    0.526051     0.709918     0.527921 
    0.595468     0.563588     0.642221 
    0.536385     0.416305     0.658771 
    0.325212     0.547355     0.547839 
    0.400006     0.686356     0.578638 
    0.478998     0.537252     0.546126 
    0.409906     0.650721     0.407342 
EA8463 17.858 15.310 13.056 90.00 90.00 90.00 Sym.group:    0
1.0
   17.858227     0.000000     0.000000
    0.000000    15.309547     0.000000
    0.000000     0.000000    13.056015
   W
  19
Direct
    0.520512     0.474549     0.368509 
    0.371724     0.517118     0.392393 
    0.258412     0.586177     0.449263 
    0.378869     0.591528     0.600962 
    0.349714     0.691118     0.464283 
    0.483436     0.622295     0.449871 
    0.743690     0.504242     0.436635 
    0.686084     0.573484     0.579085 
    0.634515     0.585416     0.377350 
    0.603452     0.689420     0.512096 
    0.629511     0.422254     0.480479 
    0.552121     0.301867     0.388896 
    0.534428     0.293139     0.564979 
    0.596347     0.464125     0.660471 
    0.533608     0.607096     0.647412 
    0.320961     0.450858     0.543066 
    0.403800     0.322770     0.602803 
    0.477809     0.466991     0.556886 
    0.421007     0.335553     0.424561 
EA8677 17.293 15.628 14.305 90.00 90.00 90.00 Sym.group:    0
1.0
   17.293139     0.000000     0.000000
    0.000000    15.628230     0.000000
    0.000000     0.000000    14.304586
   W
  19
Direct
    0.253721     0.468029     0.491097 
    0.367204     0.529464     0.393571 
    0.426579     0.394134     0.338339 
    0.390523     0.394910     0.510198 
    0.318633     0.478066     0.637555 
    0.521991     0.688290     0.600058 
    0.438636     0.553562     0.560209 
    0.296537     0.603612     0.539216 
    0.509831     0.305047     0.557326 
    0.507018     0.510556     0.294950 
    0.688706     0.407321     0.427370 
    0.736896     0.494071     0.545027 
    0.540174     0.436728     0.454508 
    0.638114     0.379924     0.588993 
    0.505220     0.423588     0.658679 
    0.597387     0.548456     0.582329 
    0.651708     0.560684     0.417354 
    0.610685     0.706467     0.486816 
    0.500440     0.617091     0.416404 
EA8977 15.495 14.746 14.027 90.00 90.00 90.00 Sym.group:    0
1.0
   15.494572     0.000000     0.000000
    0.000000    14.746386     0.000000
    0.000000     0.000000    14.026588
   W
  18
Direct
    0.527009     0.591336     0.360800 
    0.500513     0.337767     0.540239 
    0.352450     0.374498     0.402593 
    0.303672     0.534714     0.520084 
    0.389343     0.643197     0.609166 
    0.341870     0.379194     0.583453 
    0.409328     0.490592     0.688086 
    0.464077     0.503674     0.505589 
    0.575882     0.489478     0.636007 
    0.362756     0.530005     0.351851 
    0.506901     0.390195     0.362935 
    0.671639     0.656914     0.425107 
    0.640460     0.313643     0.421009 
    0.637190     0.484122     0.454703 
    0.553356     0.663753     0.535603 
    0.699033     0.589343     0.578964 
    0.653516     0.343348     0.585194 
    0.411005     0.684227     0.438617 
EA9142 16.777 15.527 15.013 90.00 90.00 90.00 Sym.group:    0
1.0
   16.777378     0.000000     0.000000
    0.000000    15.526799     0.000000
    0.000000     0.000000    15.012764
   W
  19
Direct
    0.431137     0.678055     0.448423 
    0.353359     0.475890     0.570232 
    0.422205     0.360439     0.422783 
    0.327414     0.645421     0.559606 
    0.384521     0.296078     0.555579 
    0.330172     0.545243     0.427082 
    0.469683     0.602144     0.599616 
    0.493276     0.409737     0.586851 
    0.478744     0.517784     0.443824 
    0.281533     0.376101     0.472198 
    0.573382     0.631829     0.381562 
    0.565560     0.706859     0.524305 
    0.568438     0.512472     0.695511 
    0.558205     0.454320     0.314991 
    0.591808     0.381367     0.451053 
    0.679294     0.514768     0.371983 
    0.650202     0.407447     0.636959 
    0.615079     0.552692     0.536867 
    0.725987     0.431355     0.500572 
EA9347 16.332 15.238 14.354 90.00 90.00 90.00 Sym.group:    0
1.0
   16.332417     0.000000     0.000000
    0.000000    15.237660     0.000000
    0.000000     0.000000    14.354303
   W
  19
Direct
    0.535676     0.362514     0.335341 
    0.648503     0.419095     0.428945 
    0.728920     0.517724     0.536165 
    0.652200     0.416593     0.624123 
    0.538395     0.336871     0.534180 
    0.407186     0.340652     0.438939 
    0.522943     0.508200     0.295517 
    0.620627     0.584945     0.418302 
    0.610680     0.597923     0.601033 
    0.352853     0.525414     0.596429 
    0.294357     0.389999     0.533835 
    0.407028     0.350510     0.633522 
    0.505682     0.476112     0.660636 
    0.500263     0.493092     0.489356 
    0.357718     0.504743     0.414378 
    0.326790     0.651528     0.488125 
    0.460102     0.643575     0.400529 
    0.570264     0.725204     0.492117 
    0.459814     0.655306     0.578525 
EA9595 14.307 14.370 14.275 90.00 90.00 90.00 Sym.group:    0
1.0
   14.307181     0.000000     0.000000
    0.000000    14.370333     0.000000
    0.000000     0.000000    14.274781
   W
  18
Direct
    0.655957     0.542868     0.410028 
    0.588954     0.373990     0.412935 
    0.407576     0.371660     0.407984 
    0.335019     0.554059     0.395093 
    0.519643     0.658070     0.399089 
    0.657344     0.542730     0.592687 
    0.594954     0.367946     0.592643 
    0.400333     0.365610     0.596742 
    0.333181     0.557351     0.604489 
    0.516460     0.667946     0.597887 
    0.501760     0.249989     0.503801 
    0.268914     0.431436     0.501502 
    0.377773     0.688615     0.499995 
    0.661193     0.693388     0.502364 
    0.738460     0.418165     0.501002 
    0.477656     0.500711     0.681246 
    0.470609     0.508809     0.302352 
    0.494215     0.506656     0.498162 
EA9706 15.624 15.192 14.458 90.00 90.00 90.00 Sym.group:    0
1.0
   15.624199     0.000000     0.000000
    0.000000    15.192297     0.000000
    0.000000     0.000000    14.457575
   W
  20
Direct
    0.534659     0.627249     0.378628 
    0.565532     0.656188     0.554396 
    0.564657     0.488745     0.479361 
    0.702858     0.601505     0.452289 
    0.586191     0.386301     0.337552 
    0.689518     0.550699     0.601516 
    0.656277     0.382640     0.593979 
    0.578160     0.299849     0.475600 
    0.710023     0.432395     0.446024 
    0.400996     0.643067     0.648011 
    0.355401     0.616381     0.356929 
    0.287687     0.444358     0.458386 
    0.335160     0.476162     0.642808 
    0.433636     0.713145     0.472914 
    0.446380     0.501026     0.317780 
    0.327090     0.333653     0.565620 
    0.513214     0.548547     0.674744 
    0.477596     0.390589     0.607274 
    0.426596     0.365783     0.429224 
    0.408367     0.541722     0.506966 
EA9982 16.086 15.691 14.530 90.00 90.00 90.00 Sym.group:    0
1.0
   16.086278     0.000000     0.000000
    0.000000    15.691494     0.000000
    0.000000     0.000000    14.530060
   W
  18
Direct
    0.635004     0.465480     0.406151 
    0.507029     0.365634     0.402099 
    0.369918     0.449946     0.410497 
    0.402351     0.618344     0.406993 
    0.588138     0.622378     0.407330 
    0.643363     0.453138     0.587285 
    0.512248     0.349416     0.582734 
    0.360255     0.438271     0.590847 
    0.394891     0.613982     0.607159 
    0.591736     0.620302     0.606492 
    0.385467     0.306260     0.494180 
    0.286336     0.555275     0.509843 
    0.494379     0.702440     0.510908 
    0.709900     0.576382     0.507618 
    0.638892     0.324600     0.488700 
    0.487685     0.501177     0.675319 
    0.491015     0.529213     0.304423 
    0.501391     0.507763     0.501422 
EA10104 14.715 15.698 14.016 90.00 90.00 90.00 Sym.group:    0
1.0
   14.714929     0.000000     0.000000
    0.000000    15.697805     0.000000
    0.000000     0.000000    14.015599
   W
  20
Direct
    0.490163     0.367843     0.411340 
    0.323032     0.443471     0.400750 
    0.363530     0.644045     0.439164 
    0.490469     0.357889     0.587602 
    0.312110     0.418730     0.602560 
    0.353436     0.596163     0.642342 
    0.351816     0.305228     0.485857 
    0.243758     0.548420     0.526098 
    0.436481     0.470285     0.706813 
    0.435475     0.509721     0.509493 
    0.663323     0.382537     0.528544 
    0.586053     0.518446     0.603599 
    0.760059     0.505473     0.601042 
    0.671097     0.379652     0.363472 
    0.591258     0.510729     0.406612 
    0.773807     0.508755     0.440211 
    0.675302     0.626357     0.505745 
    0.489647     0.679661     0.543158 
    0.444539     0.555993     0.317474 
    0.544644     0.670599     0.378126 
EA10422 14.440 14.549 14.345 90.00 90.00 90.00 Sym.group:    0
1.0
   14.439999     0.000000     0.000000
    0.000000    14.549135     0.000000
    0.000000     0.000000    14.345416
   W
  17
Direct
    0.681696     0.499775     0.504399 
    0.322524     0.601915     0.556386 
    0.324164     0.490856     0.393114 
    0.325378     0.406748     0.541568 
    0.654491     0.634903     0.611149 
    0.652294     0.340642     0.570841 
    0.659062     0.523728     0.329835 
    0.579160     0.380937     0.403653 
    0.573617     0.476557     0.653152 
    0.580252     0.639391     0.441387 
    0.399486     0.342896     0.391172 
    0.402020     0.664186     0.430731 
    0.391891     0.498645     0.675804 
    0.488394     0.334620     0.564684 
    0.488924     0.646504     0.609524 
    0.491397     0.516184     0.322975 
    0.485249     0.501512     0.499627 
EA10551 16.449 15.425 14.529 90.00 90.00 90.00 Sym.group:    0
1.0
   16.449255     0.000000     0.000000
    0.000000    15.425036     0.000000
    0.000000     0.000000    14.528716
   W
  19
Direct
    0.330703     0.654249     0.543159 
    0.486456     0.651625     0.542340 
    0.559986     0.558137     0.664568 
    0.643514     0.663733     0.553240 
    0.667533     0.490482     0.586020 
    0.712092     0.576786     0.445589 
    0.404544     0.609401     0.390621 
    0.570965     0.610757     0.388781 
    0.391875     0.532962     0.635237 
    0.278165     0.526166     0.490361 
    0.465194     0.265872     0.550496 
    0.491512     0.343440     0.405013 
    0.369562     0.463385     0.365339 
    0.634974     0.441646     0.406977 
    0.501469     0.400012     0.654610 
    0.600538     0.340736     0.542565 
    0.376274     0.396477     0.534668 
    0.511197     0.483775     0.302440 
    0.503446     0.490362     0.497978 
EA10712 16.435 15.143 14.313 90.00 90.00 90.00 Sym.group:    0
1.0
   16.435400     0.000000     0.000000
    0.000000    15.142727     0.000000
    0.000000     0.000000    14.312703
   W
  20
Direct
    0.429447     0.487925     0.331609 
    0.484545     0.477730     0.515164 
    0.282245     0.454711     0.435281 
    0.602859     0.708409     0.418325 
    0.319913     0.591948     0.381766 
    0.467367     0.552660     0.683069 
    0.458797     0.642753     0.444376 
    0.579234     0.605813     0.570435 
    0.708251     0.633636     0.485818 
    0.445616     0.696042     0.609220 
    0.349933     0.573014     0.560164 
    0.591545     0.547001     0.374803 
    0.562533     0.372365     0.376270 
    0.518557     0.303016     0.543488 
    0.612130     0.426744     0.626768 
    0.404777     0.352703     0.411170 
    0.356804     0.401195     0.580367 
    0.481284     0.384746     0.687118 
    0.658726     0.316744     0.499684 
    0.685438     0.470845     0.465104 
EA10915 17.200 15.072 14.543 90.00 90.00 90.00 Sym.group:    0
1.0
   17.200449     0.000000     0.000000
    0.000000    15.072078     0.000000
    0.000000     0.000000    14.543310
   W
  20
Direct
    0.626849     0.588934     0.515834 
    0.667287     0.330411     0.522095 
    0.722828     0.449632     0.438304 
    0.565881     0.392253     0.416852 
    0.724475     0.488613     0.594241 
    0.460066     0.325331     0.515507 
    0.589479     0.438163     0.608899 
    0.432526     0.433946     0.653430 
    0.499081     0.588549     0.660001 
    0.316605     0.358560     0.555008 
    0.335933     0.530012     0.596751 
    0.270898     0.465863     0.452623 
    0.394476     0.397048     0.391681 
    0.542751     0.719029     0.555419 
    0.509063     0.668315     0.403699 
    0.602887     0.548378     0.349052 
    0.373941     0.582962     0.411821 
    0.405897     0.675485     0.562707 
    0.476243     0.507790     0.297107 
    0.482835     0.510728     0.498969 
EA11117 16.228 14.889 14.702 90.00 90.00 90.00 Sym.group:    0
1.0
   16.227940     0.000000     0.000000
    0.000000    14.889453     0.000000
    0.000000     0.000000    14.701991
   W
  20
Direct
    0.581743     0.272915     0.549360 
    0.648555     0.391818     0.455033 
    0.533613     0.506760     0.512563 
    0.691284     0.536522     0.337904 
    0.569788     0.625625     0.375576 
    0.577040     0.437340     0.312732 
    0.476756     0.357222     0.448925 
    0.319954     0.413184     0.402949 
    0.296042     0.571538     0.391620 
    0.445919     0.516579     0.358481 
    0.283684     0.529166     0.546949 
    0.560240     0.578713     0.675312 
    0.418233     0.634515     0.488710 
    0.413963     0.532667     0.641658 
    0.336335     0.375768     0.558948 
    0.457599     0.695661     0.644333 
    0.584589     0.678221     0.542665 
    0.483345     0.375163     0.627532 
    0.690050     0.557959     0.500906 
    0.631267     0.412667     0.627844 
EA11408 16.036 16.082 14.808 90.00 90.00 90.00 Sym.group:    0
1.0
   16.035812     0.000000     0.000000
    0.000000    16.081779     0.000000
    0.000000     0.000000    14.807650
   W
  18
Direct
    0.474357     0.357451     0.593854 
    0.628822     0.427068     0.589569 
    0.611648     0.594290     0.592287 
    0.438852     0.635999     0.590065 
    0.351515     0.484062     0.591492 
    0.472291     0.361871     0.410800 
    0.618774     0.429426     0.406006 
    0.604541     0.594737     0.410200 
    0.444534     0.628220     0.410268 
    0.362203     0.481205     0.410087 
    0.341869     0.346652     0.506912 
    0.592705     0.300400     0.500752 
    0.719297     0.519279     0.497136 
    0.553153     0.714124     0.506624 
    0.306931     0.606959     0.498205 
    0.492683     0.507795     0.305965 
    0.484888     0.511313     0.679580 
    0.500938     0.499150     0.500198 
EA11611 16.093 15.674 14.741 90.00 90.00 90.00 Sym.group:    0
1.0
   16.092803     0.000000     0.000000
    0.000000    15.673664     0.000000
    0.000000     0.000000    14.740904
   W
  18
Direct
    0.358556     0.487436     0.596536 
    0.443578     0.636351     0.595408 
    0.604968     0.599483     0.594199 
    0.630204     0.419216     0.586056 
    0.468584     0.346928     0.585933 
    0.358135     0.491454     0.411979 
    0.442160     0.635030     0.410530 
    0.602196     0.599505     0.410653 
    0.619503     0.430093     0.407474 
    0.465427     0.363614     0.406837 
    0.328535     0.358577     0.502645 
    0.313096     0.617885     0.507207 
    0.541132     0.722775     0.504490 
    0.717753     0.531990     0.502387 
    0.586627     0.289112     0.491870 
    0.507462     0.494041     0.305965 
    0.513614     0.474490     0.679982 
    0.498469     0.502018     0.499847 
EA11696 15.178 15.408 14.249 90.00 90.00 90.00 Sym.group:    0
1.0
   15.178202     0.000000     0.000000
    0.000000    15.407935     0.000000
    0.000000     0.000000    14.248553
   W
  20
Direct
    0.502911     0.564985     0.313039 
    0.351787     0.594139     0.357355 
    0.399568     0.432012     0.343938 
    0.289199     0.510685     0.662108 
    0.304806     0.605314     0.524109 
    0.483219     0.499628     0.488553 
    0.310498     0.443333     0.492570 
    0.412415     0.416915     0.642923 
    0.409585     0.312376     0.496613 
    0.556044     0.347132     0.574076 
    0.543845     0.360515     0.392391 
    0.603615     0.671877     0.576225 
    0.440420     0.590230     0.636286 
    0.613883     0.668488     0.410224 
    0.460686     0.673922     0.465535 
    0.690397     0.541202     0.516477 
    0.577498     0.506904     0.650778 
    0.702551     0.362067     0.467302 
    0.641392     0.490222     0.366498 
    0.705681     0.408056     0.622999 
EA11909 16.118 15.232 14.097 90.00 90.00 90.00 Sym.group:    0
1.0
   16.117946     0.000000     0.000000
    0.000000    15.232119     0.000000
    0.000000     0.000000    14.097419
   W
  20
Direct
    0.475089     0.616727     0.354343 
    0.320674     0.573949     0.388034 
    0.437502     0.451336     0.323333 
    0.316453     0.404680     0.636004 
    0.270494     0.528548     0.539137 
    0.501487     0.505543     0.491105 
    0.353111     0.402695     0.456576 
    0.461350     0.357447     0.594180 
    0.475773     0.305456     0.422822 
    0.606013     0.354302     0.515087 
    0.588401     0.418937     0.351531 
    0.533737     0.650416     0.642352 
    0.415625     0.527587     0.656413 
    0.539737     0.708939     0.483412 
    0.398387     0.641099     0.526691 
    0.657464     0.592167     0.546152 
    0.574477     0.480114     0.654617 
    0.729070     0.458136     0.437148 
    0.628591     0.576462     0.379653 
    0.716564     0.445460     0.601409 
EA12096 15.630 14.622 16.300 90.00 90.00 90.00 Sym.group:    0
1.0
   15.630111     0.000000     0.000000
    0.000000    14.621533     0.000000
    0.000000     0.000000    16.299923
   W
  20
Direct
    0.376729     0.640748     0.537877 
    0.263851     0.562131     0.419954 
    0.242876     0.544880     0.560505 
    0.386251     0.468112     0.579500 
    0.539950     0.687712     0.500034 
    0.276059     0.395897     0.476778 
    0.511909     0.587100     0.630120 
    0.400755     0.288131     0.532465 
    0.512671     0.367832     0.609570 
    0.524698     0.320676     0.444979 
    0.401240     0.432620     0.404810 
    0.413091     0.604605     0.395089 
    0.657018     0.342655     0.529871 
    0.655754     0.504736     0.601005 
    0.639407     0.438059     0.380291 
    0.685879     0.595129     0.468839 
    0.651363     0.678177     0.601585 
    0.759175     0.442090     0.474607 
    0.570528     0.601528     0.360801 
    0.530796     0.497178     0.491321 
EA12353 16.420 15.034 14.700 90.00 90.00 90.00 Sym.group:    0
1.0
   16.420211     0.000000     0.000000
    0.000000    15.034050     0.000000
    0.000000     0.000000    14.700338
   W
  19
Direct
    0.490172     0.471420     0.299647 
    0.620097     0.465011     0.621436 
    0.632240     0.442108     0.377064 
    0.579996     0.640813     0.633324 
    0.556930     0.602016     0.343807 
    0.655825     0.577816     0.494261 
    0.610807     0.339648     0.497704 
    0.539592     0.706637     0.500098 
    0.735222     0.438951     0.507958 
    0.416406     0.619442     0.403954 
    0.468943     0.352631     0.421407 
    0.350739     0.467321     0.419578 
    0.419737     0.636401     0.583822 
    0.462965     0.341762     0.605326 
    0.344351     0.474244     0.593722 
    0.291518     0.606135     0.503368 
    0.341980     0.324189     0.519741 
    0.478012     0.492242     0.676647 
    0.504468     0.501214     0.497138 
EA12509 17.165 14.752 13.640 90.00 90.00 90.00 Sym.group:    0
1.0
   17.164929     0.000000     0.000000
    0.000000    14.751627     0.000000
    0.000000     0.000000    13.640403
   W
  20
Direct
    0.401960     0.647292     0.536098 
    0.288585     0.567261     0.412578 
    0.273809     0.581031     0.580516 
    0.393320     0.477408     0.596325 
    0.550308     0.692209     0.488390 
    0.291780     0.405167     0.496281 
    0.517113     0.590276     0.650426 
    0.395543     0.290425     0.542957 
    0.502588     0.373505     0.634926 
    0.510491     0.324509     0.442633 
    0.397388     0.426322     0.388548 
    0.426232     0.599026     0.367079 
    0.633796     0.339239     0.544757 
    0.643043     0.495563     0.610731 
    0.622768     0.422908     0.359373 
    0.678576     0.578027     0.457176 
    0.641849     0.670175     0.614820 
    0.735664     0.421194     0.458901 
    0.573711     0.596773     0.333220 
    0.521477     0.501692     0.484265 
EA12705 17.091 15.116 13.575 90.00 90.00 90.00 Sym.group:    0
1.0
   17.090593     0.000000     0.000000
    0.000000    15.116026     0.000000
    0.000000     0.000000    13.574639
   W
  20
Direct
    0.594729     0.644612     0.530348 
    0.712002     0.565917     0.413669 
    0.724144     0.587462     0.582416 
    0.608805     0.479570     0.596865 
    0.447670     0.686927     0.477999 
    0.710224     0.408811     0.497666 
    0.483094     0.591969     0.649068 
    0.608186     0.295708     0.546124 
    0.501048     0.377003     0.637621 
    0.490649     0.326439     0.446126 
    0.602645     0.426705     0.390129 
    0.573201     0.592036     0.362170 
    0.367266     0.342756     0.547459 
    0.357821     0.497352     0.612424 
    0.375464     0.422583     0.362178 
    0.319573     0.574925     0.455752 
    0.358078     0.667252     0.610536 
    0.262617     0.423387     0.467863 
    0.424525     0.588422     0.328712 
    0.478260     0.500161     0.484875 
EA12904 16.344 14.702 14.129 90.00 90.00 90.00 Sym.group:    0
1.0
   16.343532     0.000000     0.000000
    0.000000    14.701937     0.000000
    0.000000     0.000000    14.129140
   W
  20
Direct
    0.472398     0.309819     0.454194 
    0.353011     0.356431     0.595388 
    0.316842     0.329452     0.439714 
    0.334460     0.648112     0.552658 
    0.501935     0.577687     0.319929 
    0.329626     0.625451     0.389547 
    0.277590     0.494235     0.505307 
    0.402208     0.472737     0.419214 
    0.477162     0.650763     0.474384 
    0.429701     0.523606     0.609436 
    0.658860     0.472868     0.339420 
    0.628747     0.634100     0.371179 
    0.508801     0.668802     0.657798 
    0.717787     0.505974     0.486903 
    0.631853     0.641024     0.553411 
    0.557929     0.486134     0.486167 
    0.637054     0.334859     0.458810 
    0.510151     0.356148     0.606514 
    0.668408     0.385337     0.609898 
    0.585477     0.526461     0.670132 
EA13140 16.168 14.480 13.508 90.00 90.00 90.00 Sym.group:    0
1.0
   16.168343     0.000000     0.000000
    0.000000    14.480045     0.000000
    0.000000     0.000000    13.507556
   W
  19
Direct
    0.600770     0.614292     0.341155 
    0.476273     0.693173     0.436095 
    0.507983     0.667924     0.621118 
    0.645251     0.667672     0.489943 
    0.368799     0.696717     0.571808 
    0.516360     0.526843     0.477690 
    0.687817     0.383994     0.623738 
    0.692004     0.497549     0.478256 
    0.604596     0.526121     0.639121 
    0.638520     0.309964     0.481398 
    0.350275     0.575522     0.445100 
    0.610389     0.423062     0.352714 
    0.427126     0.473623     0.325240 
    0.318860     0.387918     0.398589 
    0.370099     0.335532     0.578987 
    0.479975     0.347058     0.435378 
    0.518512     0.387185     0.616873 
    0.277989     0.459125     0.557771 
    0.408400     0.526724     0.629025 
EA13445 14.316 14.374 11.465 90.00 90.00 90.00 Sym.group:    0
1.0
   14.316183     0.000000     0.000000
    0.000000    14.374038     0.000000
    0.000000     0.000000    11.464938
   W
  17
Direct
    0.393967     0.275314     0.485898 
    0.683129     0.330605     0.483731 
    0.718930     0.620264     0.483355 
    0.450839     0.743293     0.486464 
    0.252005     0.529810     0.485210 
    0.352881     0.419094     0.374080 
    0.531980     0.336086     0.374072 
    0.666297     0.480206     0.372423 
    0.571299     0.651326     0.374735 
    0.376586     0.614527     0.374213 
    0.501720     0.499919     0.741452 
    0.499976     0.500121     0.464697 
    0.387430     0.604654     0.600835 
    0.365418     0.426734     0.600566 
    0.528854     0.349544     0.599809 
    0.653534     0.480343     0.598463 
    0.565154     0.638162     0.599994 
EA13590 15.153 15.325 12.893 90.00 90.00 90.00 Sym.group:    0
1.0
   15.152584     0.000000     0.000000
    0.000000    15.324501     0.000000
    0.000000     0.000000    12.892635
   W
  18
Direct
    0.372546     0.580539     0.605854 
    0.538875     0.643591     0.606397 
    0.651077     0.508988     0.606180 
    0.556411     0.360706     0.606350 
    0.383229     0.405704     0.605414 
    0.372309     0.580610     0.394235 
    0.538970     0.643566     0.393630 
    0.651284     0.508993     0.393835 
    0.556490     0.360508     0.393690 
    0.382835     0.405495     0.394781 
    0.678147     0.645828     0.499901 
    0.695858     0.378379     0.499897 
    0.442406     0.278818     0.499918 
    0.267719     0.487327     0.499934 
    0.416289     0.712304     0.499941 
    0.497537     0.499957     0.282271 
    0.497632     0.499801     0.717803 
    0.500387     0.498887     0.499969 
EA13751 14.805 14.805 12.802 90.00 90.00 90.00 Sym.group:    0
1.0
   14.805244     0.000000     0.000000
    0.000000    14.805244     0.000000
    0.000000     0.000000    12.801618
   W
  19
Direct
    0.371571     0.560297     0.361478 
    0.439842     0.371965     0.361611 
    0.628209     0.440199     0.361981 
    0.559778     0.628168     0.361761 
    0.371810     0.560273     0.638455 
    0.439695     0.371401     0.638493 
    0.628002     0.440338     0.638028 
    0.560481     0.628540     0.638237 
    0.267990     0.609441     0.499959 
    0.390402     0.267542     0.499978 
    0.732203     0.390477     0.499925 
    0.609793     0.732019     0.499936 
    0.557980     0.323602     0.500043 
    0.676588     0.558111     0.499909 
    0.442023     0.676247     0.500045 
    0.323864     0.441696     0.500078 
    0.499993     0.500001     0.253222 
    0.500144     0.499871     0.746812 
    0.499634     0.499811     0.500049 
EA13953 14.754 14.114 14.571 90.00 90.00 90.00 Sym.group:    0
1.0
   14.754193     0.000000     0.000000
    0.000000    14.114420     0.000000
    0.000000     0.000000    14.570714
   W
  19
Direct
    0.576955     0.476675     0.672187 
    0.320297     0.475828     0.480709 
    0.607639     0.545817     0.353316 
    0.680921     0.528640     0.514961 
    0.413572     0.522425     0.336331 
    0.402135     0.452995     0.657410 
    0.660328     0.688670     0.440654 
    0.467471     0.606933     0.711480 
    0.309649     0.639755     0.410630 
    0.506602     0.314330     0.662890 
    0.696054     0.399754     0.392574 
    0.358322     0.355172     0.356416 
    0.425250     0.321478     0.511651 
    0.528269     0.371007     0.369857 
    0.612654     0.346614     0.533459 
    0.485588     0.666591     0.434013 
    0.375165     0.630308     0.569023 
    0.572700     0.658940     0.587084 
    0.500431     0.498068     0.505352 
EA14122 16.399 15.711 14.498 90.00 90.00 90.00 Sym.group:    0
1.0
   16.398735     0.000000     0.000000
    0.000000    15.711210     0.000000
    0.000000     0.000000    14.498100
   W
  20
Direct
    0.344092     0.378287     0.471436 
    0.445856     0.302854     0.592019 
    0.592868     0.372172     0.385210 
    0.702412     0.480979     0.378467 
    0.601183     0.490938     0.511760 
    0.461619     0.459361     0.389972 
    0.589138     0.320334     0.553863 
    0.462037     0.287503     0.429494 
    0.587069     0.537106     0.307332 
    0.504259     0.604527     0.635300 
    0.330055     0.557215     0.409315 
    0.351592     0.645938     0.578024 
    0.649837     0.530012     0.679500 
    0.272988     0.512975     0.555176 
    0.543308     0.425645     0.668827 
    0.636089     0.652799     0.586641 
    0.368752     0.703431     0.428376 
    0.641393     0.639890     0.414710 
    0.421828     0.479142     0.565862 
    0.493624     0.618889     0.458713 
EA14312 16.409 15.611 14.500 90.00 90.00 90.00 Sym.group:    0
1.0
   16.408601     0.000000     0.000000
    0.000000    15.610902     0.000000
    0.000000     0.000000    14.499551
   W
  20
Direct
    0.342593     0.379867     0.472839 
    0.443889     0.301444     0.592052 
    0.589213     0.369110     0.386298 
    0.701252     0.476272     0.378006 
    0.601118     0.488621     0.512247 
    0.460686     0.458812     0.391473 
    0.587834     0.317445     0.554197 
    0.459694     0.284943     0.430623 
    0.586599     0.535044     0.308061 
    0.506304     0.606742     0.634646 
    0.332573     0.562277     0.409223 
    0.352936     0.646687     0.579932 
    0.648557     0.530295     0.678328 
    0.272152     0.516214     0.553241 
    0.540790     0.424712     0.667717 
    0.639198     0.653499     0.582389 
    0.372354     0.707639     0.431406 
    0.643344     0.639855     0.412194 
    0.421840     0.480791     0.566229 
    0.497075     0.619730     0.458901 
EA14566 16.370 15.639 14.024 90.00 90.00 90.00 Sym.group:    0
1.0
   16.369937     0.000000     0.000000
    0.000000    15.638825     0.000000
    0.000000     0.000000    14.024375
   W
  19
Direct
    0.433579     0.355886     0.536127 
    0.412689     0.419086     0.370928 
    0.490590     0.667417     0.611924 
    0.288920     0.437765     0.495286 
    0.356620     0.579589     0.587196 
    0.339050     0.435332     0.655726 
    0.341907     0.567717     0.418627 
    0.494279     0.487565     0.652739 
    0.442678     0.698798     0.462386 
    0.587589     0.393352     0.496363 
    0.617317     0.397514     0.673404 
    0.502178     0.291269     0.396304 
    0.724280     0.457028     0.579077 
    0.625731     0.565786     0.601423 
    0.565362     0.442382     0.318830 
    0.592771     0.659602     0.444012 
    0.524736     0.585734     0.305029 
    0.490989     0.529789     0.476706 
    0.668737     0.528387     0.417914 
EA14766 16.938 15.295 13.733 90.00 90.00 90.00 Sym.group:    0
1.0
   16.937564     0.000000     0.000000
    0.000000    15.294861     0.000000
    0.000000     0.000000    13.732912
   W
  19
Direct
    0.566336     0.398194     0.529495 
    0.585971     0.417507     0.354301 
    0.455865     0.510559     0.393120 
    0.448069     0.302993     0.555822 
    0.337141     0.402905     0.443424 
    0.461310     0.320040     0.388712 
    0.393034     0.644288     0.501895 
    0.278539     0.543231     0.551455 
    0.305529     0.556339     0.385506 
    0.329256     0.394994     0.615982 
    0.439850     0.495670     0.581977 
    0.740123     0.552422     0.529660 
    0.501488     0.663557     0.371794 
    0.547463     0.706731     0.528710 
    0.600195     0.553312     0.612002 
    0.721248     0.414663     0.449660 
    0.613903     0.564089     0.428519 
    0.697965     0.418662     0.620204 
    0.476718     0.639843     0.657761 
EA14905 14.551 15.704 16.006 90.00 90.00 90.00 Sym.group:    0
1.0
   14.551188     0.000000     0.000000
    0.000000    15.704228     0.000000
    0.000000     0.000000    16.005785
   W
  20
Direct
    0.488944     0.506938     0.487687 
    0.548427     0.600664     0.339049 
    0.330988     0.427522     0.461930 
    0.444449     0.613426     0.637710 
    0.316873     0.531438     0.574289 
    0.345367     0.606470     0.426346 
    0.494903     0.674578     0.476104 
    0.344236     0.697137     0.556186 
    0.415193     0.506444     0.320536 
    0.311953     0.349810     0.598828 
    0.621223     0.465182     0.656368 
    0.678827     0.583186     0.443463 
    0.613961     0.614119     0.577412 
    0.595029     0.447206     0.371068 
    0.744176     0.418179     0.442675 
    0.606720     0.377120     0.532644 
    0.751568     0.494902     0.568811 
    0.452796     0.426746     0.631697 
    0.450313     0.360499     0.373957 
    0.444054     0.298435     0.523241 
EA15121 15.739 15.223 14.752 90.00 90.00 90.00 Sym.group:    0
1.0
   15.738816     0.000000     0.000000
    0.000000    15.222829     0.000000
    0.000000     0.000000    14.752055
   W
  20
Direct
    0.491839     0.518769     0.485702 
    0.543879     0.628570     0.344941 
    0.356441     0.408130     0.428078 
    0.441226     0.584834     0.649704 
    0.321934     0.511435     0.554874 
    0.357843     0.612503     0.423329 
    0.482464     0.687189     0.497534 
    0.340784     0.681265     0.579607 
    0.432431     0.520920     0.308967 
    0.336286     0.306286     0.556256 
    0.585141     0.459371     0.677586 
    0.660735     0.609053     0.461171 
    0.599699     0.625176     0.606558 
    0.608142     0.471224     0.365910 
    0.734072     0.452300     0.460357 
    0.593020     0.381435     0.528785 
    0.713675     0.504856     0.609191 
    0.447120     0.406583     0.614208 
    0.487765     0.364342     0.356778 
    0.465506     0.265761     0.490465 
EA15350 16.254 15.154 14.768 90.00 90.00 90.00 Sym.group:    0
1.0
   16.254254     0.000000     0.000000
    0.000000    15.154375     0.000000
    0.000000     0.000000    14.767948
   W
  19
Direct
    0.529376     0.483827     0.298570 
    0.412542     0.335770     0.535037 
    0.396720     0.425170     0.372305 
    0.430972     0.593646     0.610797 
    0.469589     0.618502     0.369420 
    0.517264     0.321739     0.408542 
    0.316265     0.460578     0.624292 
    0.403490     0.712661     0.493098 
    0.279284     0.403050     0.482275 
    0.500186     0.488403     0.486933 
    0.343748     0.561752     0.469471 
    0.543448     0.712238     0.519347 
    0.616491     0.591087     0.427389 
    0.735011     0.506207     0.514496 
    0.703469     0.471546     0.661189 
    0.594726     0.573103     0.603609 
    0.637540     0.419243     0.399813 
    0.606835     0.388342     0.568198 
    0.463042     0.433136     0.655220 
EA15522 15.894 15.935 14.645 90.00 90.00 90.00 Sym.group:    0
1.0
   15.893501     0.000000     0.000000
    0.000000    15.935032     0.000000
    0.000000     0.000000    14.645418
   W
  20
Direct
    0.498972     0.516707     0.482036 
    0.561971     0.603689     0.328432 
    0.346402     0.445218     0.437984 
    0.474253     0.594315     0.640775 
    0.334919     0.557613     0.555592 
    0.390977     0.629917     0.410429 
    0.524194     0.681196     0.487398 
    0.386387     0.707718     0.562125 
    0.442669     0.519397     0.301182 
    0.291422     0.372764     0.572126 
    0.570716     0.454053     0.689203 
    0.676167     0.556695     0.454445 
    0.627892     0.603040     0.598653 
    0.601289     0.445488     0.354879 
    0.711151     0.399287     0.462083 
    0.559735     0.369936     0.531039 
    0.698880     0.458454     0.613374 
    0.428701     0.427199     0.623759 
    0.467112     0.365935     0.379933 
    0.406195     0.291378     0.514552 
EA15713 16.631 15.116 13.087 90.00 90.00 90.00 Sym.group:    0
1.0
   16.631102     0.000000     0.000000
    0.000000    15.116426     0.000000
    0.000000     0.000000    13.086920
   W
  20
Direct
    0.601874     0.315825     0.440684 
    0.526030     0.577127     0.583203 
    0.622430     0.703403     0.603769 
    0.572113     0.412521     0.617891 
    0.685539     0.528901     0.560502 
    0.645484     0.658866     0.438062 
    0.730631     0.429047     0.425391 
    0.515374     0.623949     0.353775 
    0.578885     0.477456     0.420722 
    0.705455     0.348599     0.572179 
    0.307173     0.366133     0.414949 
    0.461859     0.374696     0.344477 
    0.305349     0.341979     0.586007 
    0.280687     0.509609     0.519124 
    0.338719     0.661060     0.434162 
    0.449731     0.332884     0.520383 
    0.414950     0.511243     0.437792 
    0.409328     0.467045     0.627114 
    0.362071     0.642938     0.600120 
    0.486320     0.716719     0.499693 
EA15921 16.470 14.933 13.407 90.00 90.00 90.00 Sym.group:    0
1.0
   16.469580     0.000000     0.000000
    0.000000    14.932890     0.000000
    0.000000     0.000000    13.406848
   W
  20
Direct
    0.353746     0.339214     0.546779 
    0.291905     0.594418     0.513155 
    0.277179     0.438051     0.442315 
    0.416423     0.689675     0.515224 
    0.355808     0.577604     0.350037 
    0.402460     0.418250     0.348080 
    0.502069     0.399949     0.650342 
    0.343402     0.477529     0.642895 
    0.462194     0.607174     0.659001 
    0.440248     0.504085     0.504535 
    0.516909     0.617097     0.390684 
    0.642160     0.338440     0.598663 
    0.646220     0.311696     0.423532 
    0.710724     0.458143     0.477852 
    0.714236     0.628296     0.558986 
    0.503391     0.328106     0.485368 
    0.593899     0.517551     0.574397 
    0.576183     0.455823     0.375661 
    0.678245     0.609857     0.396502 
    0.572601     0.689045     0.545989 
EA16135 17.537 15.681 14.047 90.00 90.00 90.00 Sym.group:    0
1.0
   17.537008     0.000000     0.000000
    0.000000    15.681337     0.000000
    0.000000     0.000000    14.046879
   W
  20
Direct
    0.464204     0.270370     0.488280 
    0.411741     0.540603     0.638425 
    0.486156     0.390372     0.595814 
    0.463907     0.552813     0.324825 
    0.391592     0.626155     0.481607 
    0.503849     0.380956     0.378875 
    0.334019     0.413930     0.620326 
    0.275422     0.536012     0.540672 
    0.380326     0.436581     0.453353 
    0.313182     0.544010     0.366090 
    0.595867     0.290919     0.506839 
    0.735238     0.508030     0.492387 
    0.645749     0.614214     0.552701 
    0.638316     0.423823     0.409763 
    0.629063     0.439643     0.590273 
    0.631642     0.588703     0.383020 
    0.551782     0.560955     0.689036 
    0.513813     0.681876     0.402693 
    0.511925     0.678078     0.593930 
    0.522206     0.521956     0.491096 
EA16306 14.067 16.628 14.985 90.00 90.00 90.00 Sym.group:    0
1.0
   14.066923     0.000000     0.000000
    0.000000    16.627915     0.000000
    0.000000     0.000000    14.985303
   W
  20
Direct
    0.514467     0.502196     0.314755 
    0.366553     0.457882     0.379798 
    0.544533     0.371854     0.428540 
    0.525072     0.301057     0.574960 
    0.324413     0.498998     0.650168 
    0.227228     0.471810     0.516378 
    0.246209     0.573859     0.411132 
    0.382041     0.386395     0.530005 
    0.731008     0.367619     0.435471 
    0.423486     0.614922     0.390372 
    0.491912     0.431064     0.660341 
    0.337000     0.611297     0.548870 
    0.800859     0.481172     0.509210 
    0.659931     0.574847     0.555357 
    0.643845     0.415140     0.574365 
    0.676561     0.502746     0.398535 
    0.600050     0.649704     0.416423 
    0.494677     0.584528     0.657860 
    0.512555     0.687012     0.542274 
    0.497602     0.515898     0.505184 
EA16656 15.140 14.377 14.428 90.00 90.00 90.00 Sym.group:    0
1.0
   15.139745     0.000000     0.000000
    0.000000    14.376739     0.000000
    0.000000     0.000000    14.427506
   W
  17
Direct
    0.602873     0.360392     0.455842 
    0.369085     0.326829     0.484649 
    0.322304     0.483356     0.443186 
    0.703150     0.492098     0.442960 
    0.590697     0.650744     0.432480 
    0.592320     0.510822     0.330847 
    0.498996     0.503754     0.496463 
    0.420972     0.662552     0.437554 
    0.418142     0.545562     0.318730 
    0.458196     0.380932     0.356971 
    0.375811     0.422571     0.629640 
    0.495776     0.672454     0.605566 
    0.511078     0.331910     0.600798 
    0.505392     0.518378     0.682495 
    0.348893     0.592065     0.580114 
    0.637064     0.439511     0.622013 
    0.649251     0.606071     0.579693 
EA16725 17.635 14.294 14.784 90.00 90.00 90.00 Sym.group:    0
1.0
   17.634632     0.000000     0.000000
    0.000000    14.294095     0.000000
    0.000000     0.000000    14.784114
   W
  20
Direct
    0.732923     0.462563     0.563643 
    0.579424     0.596834     0.425721 
    0.503873     0.660060     0.566408 
    0.487854     0.317662     0.502428 
    0.580014     0.415259     0.386595 
    0.457359     0.369326     0.651111 
    0.662472     0.614437     0.562712 
    0.702213     0.498424     0.413017 
    0.573805     0.471683     0.585423 
    0.649200     0.340456     0.510255 
    0.573807     0.616427     0.693512 
    0.272402     0.517541     0.542036 
    0.337268     0.511551     0.387831 
    0.408389     0.532064     0.639921 
    0.350009     0.653324     0.523250 
    0.349724     0.377381     0.538822 
    0.417839     0.654254     0.382997 
    0.428024     0.375541     0.342255 
    0.481393     0.517747     0.296607 
    0.452007     0.497468     0.485455 
EA16978 16.188 16.121 14.374 90.00 90.00 90.00 Sym.group:    0
1.0
   16.187684     0.000000     0.000000
    0.000000    16.121422     0.000000
    0.000000     0.000000    14.373959
   W
  20
Direct
    0.679340     0.336757     0.474880 
    0.678243     0.673440     0.518284 
    0.318018     0.650006     0.457551 
    0.329404     0.329002     0.549705 
    0.461187     0.429739     0.580328 
    0.625272     0.430295     0.592073 
    0.537961     0.584932     0.569313 
    0.379954     0.582814     0.594997 
    0.420872     0.369814     0.421020 
    0.574911     0.457840     0.423101 
    0.573144     0.620315     0.406481 
    0.423254     0.534168     0.422881 
    0.446888     0.711711     0.485477 
    0.328543     0.445346     0.669848 
    0.546335     0.288935     0.512361 
    0.678425     0.571304     0.650085 
    0.434133     0.665814     0.328760 
    0.288851     0.460885     0.507444 
    0.562155     0.318644     0.350327 
    0.713106     0.538242     0.485083 
EA17173 12.359 12.427 12.773 90.00 90.00 90.00 Sym.group:    0
1.0
   12.358688     0.000000     0.000000
    0.000000    12.426660     0.000000
    0.000000     0.000000    12.773291
   W
  20
Direct
    0.392338     0.499589     0.499922 
    0.607098     0.500293     0.500102 
    0.687500     0.301109     0.501616 
    0.692198     0.400030     0.329699 
    0.688197     0.597650     0.330181 
    0.690430     0.699289     0.500404 
    0.688949     0.601294     0.669601 
    0.689718     0.400372     0.669749 
    0.311296     0.300799     0.500714 
    0.309932     0.399617     0.329163 
    0.312031     0.598485     0.330132 
    0.309119     0.699876     0.499358 
    0.310943     0.601172     0.669689 
    0.309471     0.399724     0.669245 
    0.499298     0.546521     0.700504 
    0.499516     0.344350     0.637251 
    0.500538     0.301141     0.438767 
    0.500832     0.453583     0.300536 
    0.499737     0.656872     0.362007 
    0.500859     0.698234     0.561361 
EA17359 15.968 15.881 13.693 90.00 90.00 90.00 Sym.group:    0
1.0
   15.967996     0.000000     0.000000
    0.000000    15.881167     0.000000
    0.000000     0.000000    13.692776
   W
  20
Direct
    0.304023     0.353112     0.472074 
    0.322011     0.679931     0.528413 
    0.700217     0.636733     0.469620 
    0.660982     0.310743     0.529412 
    0.528845     0.421011     0.572919 
    0.366735     0.443589     0.601948 
    0.470742     0.588846     0.577967 
    0.632838     0.556574     0.602505 
    0.567149     0.369030     0.402217 
    0.422852     0.471627     0.416886 
    0.433780     0.635916     0.410540 
    0.582066     0.536418     0.417950 
    0.574068     0.707721     0.508059 
    0.666714     0.410419     0.666685 
    0.433468     0.294940     0.506824 
    0.332257     0.588557     0.667311 
    0.581154     0.679881     0.339452 
    0.711147     0.443530     0.491049 
    0.418801     0.328474     0.336183 
    0.290152     0.542948     0.481987 
EA17726 14.473 14.621 10.502 90.00 90.00 90.00 Sym.group:    0
1.0
   14.473334     0.000000     0.000000
    0.000000    14.620568     0.000000
    0.000000     0.000000    10.501885
   W
  16
Direct
    0.577525     0.365517     0.625465 
    0.654444     0.531753     0.626468 
    0.519579     0.659952     0.629747 
    0.354075     0.562772     0.630263 
    0.396293     0.385042     0.627194 
    0.654232     0.529903     0.372617 
    0.578276     0.365030     0.376315 
    0.395929     0.383964     0.374416 
    0.353027     0.561267     0.369839 
    0.517282     0.656230     0.366384 
    0.265161     0.451834     0.500416 
    0.473233     0.261360     0.501534 
    0.721198     0.403015     0.502950 
    0.658276     0.677782     0.496741 
    0.382802     0.700539     0.499622 
    0.498666     0.504041     0.500029 
EA17810 16.860 14.856 13.556 90.00 90.00 90.00 Sym.group:    0
1.0
   16.860155     0.000000     0.000000
    0.000000    14.855753     0.000000
    0.000000     0.000000    13.555904
   W
  19
Direct
    0.520642     0.342926     0.362112 
    0.702425     0.400762     0.538021 
    0.593278     0.461222     0.631356 
    0.725432     0.558957     0.564537 
    0.643411     0.652639     0.427143 
    0.584619     0.484290     0.438751 
    0.573394     0.631352     0.574057 
    0.727430     0.515580     0.396573 
    0.459087     0.365483     0.648330 
    0.556292     0.312181     0.531466 
    0.432534     0.478162     0.366679 
    0.282189     0.444462     0.391156 
    0.288937     0.441855     0.565054 
    0.321495     0.594584     0.442708 
    0.398740     0.349734     0.482505 
    0.435534     0.704963     0.556704 
    0.327003     0.597066     0.618063 
    0.483641     0.647679     0.407637 
    0.443919     0.516102     0.557149 
EA18043 14.471 16.043 16.048 90.00 90.00 90.00 Sym.group:    0
1.0
   14.470936     0.000000     0.000000
    0.000000    16.043210     0.000000
    0.000000     0.000000    16.047696
   W
  18
Direct
    0.692887     0.588358     0.379559 
    0.545949     0.649231     0.443225 
    0.411365     0.628980     0.554195 
    0.694289     0.361729     0.521113 
    0.711374     0.672620     0.497250 
    0.737570     0.523673     0.519274 
    0.623310     0.432083     0.626875 
    0.586501     0.590840     0.583876 
    0.584241     0.484192     0.449569 
    0.574197     0.332550     0.402116 
    0.529029     0.317009     0.537971 
    0.407753     0.553490     0.417240 
    0.448753     0.473329     0.571566 
    0.408711     0.395057     0.440014 
    0.249378     0.470124     0.399633 
    0.293280     0.528532     0.627297 
    0.259361     0.415630     0.535639 
    0.242050     0.582575     0.493588 
EA18242 16.466 14.751 13.197 90.00 90.00 90.00 Sym.group:    0
1.0
   16.465695     0.000000     0.000000
    0.000000    14.750959     0.000000
    0.000000     0.000000    13.197488
   W
  18
Direct
    0.321712     0.411474     0.360908 
    0.447364     0.337794     0.427489 
    0.570605     0.352323     0.559595 
    0.343759     0.664713     0.527097 
    0.304640     0.324715     0.509267 
    0.293364     0.489279     0.530107 
    0.402237     0.581651     0.653051 
    0.422350     0.404097     0.601691 
    0.427908     0.522413     0.437619 
    0.446749     0.689025     0.380714 
    0.489406     0.712427     0.544121 
    0.574171     0.435574     0.395397 
    0.546342     0.525541     0.586227 
    0.584159     0.611121     0.431940 
    0.715199     0.518128     0.374697 
    0.679165     0.452016     0.651091 
    0.712800     0.574472     0.542571 
    0.718068     0.393237     0.486417 
EA18385 14.336 15.391 16.073 90.00 90.00 90.00 Sym.group:    0
1.0
   14.335777     0.000000     0.000000
    0.000000    15.391382     0.000000
    0.000000     0.000000    16.072643
   W
  19
Direct
    0.620412     0.582229     0.420819 
    0.758969     0.502560     0.486403 
    0.568404     0.325949     0.526478 
    0.633535     0.409227     0.414536 
    0.711620     0.402766     0.583954 
    0.429061     0.342757     0.422640 
    0.384382     0.327018     0.571636 
    0.338101     0.465873     0.365683 
    0.497207     0.479251     0.318535 
    0.484085     0.488074     0.491555 
    0.456696     0.627061     0.386371 
    0.371831     0.476030     0.645036 
    0.338442     0.580910     0.497530 
    0.416662     0.728748     0.510954 
    0.278804     0.423624     0.509307 
    0.575671     0.712737     0.509255 
    0.462151     0.613010     0.618374 
    0.544528     0.438950     0.638647 
    0.629439     0.573227     0.582285 
EA18591 16.356 15.726 14.647 90.00 90.00 90.00 Sym.group:    0
1.0
   16.356313     0.000000     0.000000
    0.000000    15.725862     0.000000
    0.000000     0.000000    14.646707
   W
  19
Direct
    0.607880     0.573765     0.408899 
    0.719720     0.471805     0.457892 
    0.538411     0.318241     0.510858 
    0.593981     0.402796     0.387397 
    0.675759     0.371156     0.561209 
    0.414447     0.365536     0.405667 
    0.382345     0.340368     0.571376 
    0.350443     0.499340     0.361076 
    0.484999     0.499891     0.300447 
    0.483123     0.490431     0.494352 
    0.469550     0.641604     0.397331 
    0.397701     0.476188     0.669415 
    0.370302     0.599656     0.521630 
    0.459366     0.731566     0.539808 
    0.302582     0.454471     0.520914 
    0.594254     0.695234     0.521097 
    0.490866     0.602650     0.643484 
    0.539211     0.420421     0.643043 
    0.625061     0.544879     0.584107 
EA18756 16.109 15.755 14.511 90.00 90.00 90.00 Sym.group:    0
1.0
   16.109202     0.000000     0.000000
    0.000000    15.754755     0.000000
    0.000000     0.000000    14.511144
   W
  20
Direct
    0.466146     0.693794     0.465339 
    0.566046     0.569215     0.373366 
    0.394821     0.583074     0.350023 
    0.336559     0.645637     0.507508 
    0.315268     0.421285     0.390882 
    0.452184     0.449663     0.312802 
    0.429992     0.505119     0.501912 
    0.351318     0.555622     0.651947 
    0.314697     0.409052     0.558113 
    0.467869     0.655663     0.632358 
    0.716347     0.473468     0.427001 
    0.708098     0.619181     0.422348 
    0.586179     0.579399     0.548025 
    0.736323     0.546356     0.573899 
    0.421301     0.324258     0.438604 
    0.565881     0.416865     0.443404 
    0.577927     0.280957     0.528451 
    0.462814     0.356707     0.600020 
    0.634077     0.418724     0.598976 
    0.496155     0.495958     0.675024 
EA18956 16.183 15.248 13.937 90.00 90.00 90.00 Sym.group:    0
1.0
   16.183112     0.000000     0.000000
    0.000000    15.247691     0.000000
    0.000000     0.000000    13.936985
   W
  20
Direct
    0.368448     0.394315     0.378665 
    0.402123     0.583952     0.345533 
    0.683185     0.427760     0.358440 
    0.671656     0.355172     0.503470 
    0.526045     0.392146     0.385806 
    0.424109     0.272106     0.458315 
    0.526450     0.353936     0.572371 
    0.585497     0.558368     0.380759 
    0.719911     0.528858     0.495665 
    0.497474     0.486235     0.683700 
    0.656545     0.467818     0.639343 
    0.346920     0.509917     0.676864 
    0.486450     0.676275     0.440229 
    0.318688     0.672337     0.455019 
    0.400134     0.641248     0.603166 
    0.662241     0.679287     0.456588 
    0.582836     0.607637     0.581895 
    0.463334     0.504928     0.504483 
    0.370922     0.370209     0.581212 
    0.307028     0.517499     0.498476 
EA19165 16.589 15.354 14.127 90.00 90.00 90.00 Sym.group:    0
1.0
   16.589460     0.000000     0.000000
    0.000000    15.353938     0.000000
    0.000000     0.000000    14.127395
   W
  20
Direct
    0.292547     0.520810     0.524262 
    0.349019     0.522185     0.327769 
    0.331285     0.648879     0.417480 
    0.500276     0.491069     0.318169 
    0.411346     0.429575     0.463846 
    0.471757     0.638275     0.391048 
    0.343277     0.431933     0.651140 
    0.420043     0.589428     0.576146 
    0.432402     0.306904     0.608091 
    0.486582     0.475610     0.680358 
    0.460925     0.273110     0.450134 
    0.567577     0.371198     0.569718 
    0.570649     0.617622     0.668777 
    0.666328     0.615113     0.502191 
    0.707565     0.438616     0.454885 
    0.544312     0.518649     0.496491 
    0.652000     0.535497     0.345699 
    0.540058     0.706394     0.534480 
    0.583703     0.366389     0.395284 
    0.668349     0.502744     0.624031 
EA19362 16.022 15.390 14.506 90.00 90.00 90.00 Sym.group:    0
1.0
   16.022426     0.000000     0.000000
    0.000000    15.389894     0.000000
    0.000000     0.000000    14.506353
   W
  20
Direct
    0.286342     0.478982     0.518478 
    0.351065     0.423596     0.341773 
    0.340203     0.326352     0.463789 
    0.502766     0.467992     0.326386 
    0.406313     0.558369     0.442023 
    0.484950     0.339069     0.436531 
    0.328269     0.595717     0.615253 
    0.417437     0.429392     0.594168 
    0.421619     0.709319     0.549360 
    0.479013     0.565753     0.663485 
    0.456884     0.709234     0.393387 
    0.564726     0.643900     0.534661 
    0.572556     0.431514     0.692586 
    0.671984     0.392886     0.535691 
    0.710956     0.556526     0.442402 
    0.544454     0.485420     0.504417 
    0.657510     0.434153     0.366034 
    0.545840     0.309627     0.594422 
    0.583337     0.609944     0.367741 
    0.673777     0.532254     0.617415 
EA19607 16.601 16.492 15.644 90.00 90.00 90.00 Sym.group:    0
1.0
   16.601462     0.000000     0.000000
    0.000000    16.491669     0.000000
    0.000000     0.000000    15.644133
   W
  19
Direct
    0.499714     0.496573     0.498663 
    0.372258     0.392422     0.503401 
    0.609543     0.374480     0.508532 
    0.397034     0.620850     0.489325 
    0.619591     0.604076     0.496760 
    0.371912     0.514310     0.613391 
    0.488733     0.386352     0.626469 
    0.620787     0.496087     0.620524 
    0.512702     0.620818     0.377195 
    0.629312     0.482003     0.386974 
    0.505442     0.632611     0.607307 
    0.378877     0.500018     0.378767 
    0.492870     0.370312     0.388171 
    0.482778     0.282078     0.514232 
    0.516431     0.727678     0.487480 
    0.494347     0.514958     0.707452 
    0.506893     0.490424     0.293488 
    0.276684     0.513935     0.493519 
    0.724088     0.480016     0.508350 
EA19768 16.342 16.132 14.329 90.00 90.00 90.00 Sym.group:    0
1.0
   16.342042     0.000000     0.000000
    0.000000    16.131889     0.000000
    0.000000     0.000000    14.329313
   W
  20
Direct
    0.504652     0.503258     0.711626 
    0.607509     0.457872     0.590443 
    0.550611     0.608728     0.587121 
    0.671546     0.682659     0.484153 
    0.660146     0.526077     0.428689 
    0.697605     0.369976     0.449271 
    0.711491     0.574709     0.581040 
    0.589837     0.392899     0.342508 
    0.583118     0.307799     0.510584 
    0.399131     0.611893     0.350621 
    0.282356     0.431051     0.577495 
    0.398533     0.542348     0.597221 
    0.455567     0.394086     0.586591 
    0.414048     0.689122     0.520838 
    0.332423     0.313249     0.515261 
    0.344961     0.469206     0.431469 
    0.297438     0.619540     0.464203 
    0.538644     0.658488     0.411408 
    0.502291     0.504202     0.444474 
    0.458094     0.342839     0.414984 
EA19965 16.793 15.187 14.449 90.00 90.00 90.00 Sym.group:    0
1.0
   16.793188     0.000000     0.000000
    0.000000    15.187475     0.000000
    0.000000     0.000000    14.448517
   W
  20
Direct
    0.500730     0.462187     0.678952 
    0.291706     0.452923     0.429864 
    0.376904     0.331956     0.399466 
    0.489966     0.347723     0.543573 
    0.347053     0.357458     0.573579 
    0.501189     0.625714     0.634512 
    0.478315     0.676020     0.472272 
    0.385229     0.513368     0.556866 
    0.360051     0.669160     0.609407 
    0.339548     0.656043     0.447263 
    0.635722     0.632987     0.471675 
    0.531213     0.504616     0.490153 
    0.555933     0.607504     0.335280 
    0.410121     0.518163     0.367624 
    0.650138     0.485451     0.352680 
    0.619393     0.367026     0.670104 
    0.642377     0.379809     0.504804 
    0.638567     0.522763     0.619591 
    0.736213     0.508728     0.476951 
    0.509633     0.380400     0.365385 
EA20232 15.339 15.341 14.190 90.00 90.00 90.00 Sym.group:    0
1.0
   15.338690     0.000000     0.000000
    0.000000    15.340683     0.000000
    0.000000     0.000000    14.190327
   W
  18
Direct
    0.276795     0.456414     0.498556 
    0.391599     0.698701     0.500463 
    0.654677     0.665638     0.500128 
    0.704482     0.401551     0.500596 
    0.471174     0.274371     0.498599 
    0.498180     0.496217     0.299260 
    0.503662     0.503466     0.700360 
    0.645378     0.528734     0.403046 
    0.573269     0.370257     0.401723 
    0.397655     0.389117     0.402301 
    0.364363     0.564116     0.402847 
    0.518932     0.649696     0.403192 
    0.647064     0.528186     0.598833 
    0.570368     0.371602     0.598936 
    0.398751     0.391821     0.595388 
    0.363744     0.560934     0.596668 
    0.519095     0.648704     0.598161 
    0.500813     0.500477     0.500942 
EA20386 15.698 15.153 14.500 90.00 90.00 90.00 Sym.group:    0
1.0
   15.698333     0.000000     0.000000
    0.000000    15.153296     0.000000
    0.000000     0.000000    14.500018
   W
  19
Direct
    0.462186     0.449971     0.682514 
    0.399353     0.581921     0.599471 
    0.485792     0.342116     0.553653 
    0.320826     0.413603     0.589257 
    0.363208     0.301168     0.460591 
    0.389396     0.634440     0.418233 
    0.270903     0.556247     0.508913 
    0.383879     0.458976     0.435965 
    0.527225     0.367196     0.367675 
    0.475283     0.541367     0.303454 
    0.491610     0.704221     0.533074 
    0.660421     0.623376     0.519902 
    0.566039     0.619728     0.650330 
    0.562130     0.642973     0.374506 
    0.718476     0.470305     0.504470 
    0.633016     0.339511     0.487660 
    0.623874     0.459735     0.644845 
    0.632788     0.486748     0.359737 
    0.533594     0.506399     0.505750 
EA20540 15.991 14.874 15.029 90.00 90.00 90.00 Sym.group:    0
1.0
   15.991241     0.000000     0.000000
    0.000000    14.873781     0.000000
    0.000000     0.000000    15.028824
   W
  20
Direct
    0.696606     0.526130     0.429689 
    0.544387     0.255792     0.465504 
    0.450791     0.320708     0.355825 
    0.639278     0.380241     0.526248 
    0.568779     0.420328     0.377672 
    0.457822     0.375777     0.537578 
    0.556358     0.593943     0.327868 
    0.462097     0.683326     0.408820 
    0.267789     0.526494     0.456592 
    0.325409     0.367245     0.454456 
    0.417846     0.503892     0.393039 
    0.536332     0.536167     0.511755 
    0.570542     0.421441     0.662913 
    0.570043     0.588458     0.694303 
    0.684067     0.544841     0.586377 
    0.516261     0.693621     0.575777 
    0.629451     0.671845     0.451273 
    0.295832     0.455326     0.591683 
    0.434197     0.520393     0.657155 
    0.376113     0.614032     0.535477 
EA20743 16.830 14.842 14.716 90.00 90.00 90.00 Sym.group:    0
1.0
   16.830201     0.000000     0.000000
    0.000000    14.841604     0.000000
    0.000000     0.000000    14.715501
   W
  20
Direct
    0.535200     0.661892     0.431764 
    0.574655     0.356355     0.442993 
    0.583455     0.514618     0.364896 
    0.711491     0.407582     0.457872 
    0.691299     0.593730     0.427050 
    0.639431     0.690940     0.546127 
    0.454449     0.408897     0.325528 
    0.425189     0.588096     0.331120 
    0.374544     0.634491     0.485437 
    0.616047     0.513804     0.563168 
    0.332722     0.472999     0.409892 
    0.506239     0.641666     0.608434 
    0.421045     0.311599     0.442625 
    0.502966     0.358482     0.604960 
    0.372904     0.550520     0.649849 
    0.660330     0.359491     0.598156 
    0.353065     0.404732     0.579328 
    0.260417     0.538525     0.537120 
    0.514278     0.496432     0.695801 
    0.470276     0.495151     0.497882 
EA20955 16.307 16.085 14.970 90.00 90.00 90.00 Sym.group:    0
1.0
   16.307471     0.000000     0.000000
    0.000000    16.085056     0.000000
    0.000000     0.000000    14.970368
   W
  20
Direct
    0.413780     0.309403     0.525228 
    0.454508     0.525520     0.297101 
    0.543860     0.358741     0.631826 
    0.328397     0.589201     0.351009 
    0.347178     0.450494     0.417632 
    0.516775     0.431632     0.445811 
    0.400705     0.345165     0.674597 
    0.439201     0.373619     0.322829 
    0.764528     0.518943     0.448297 
    0.714206     0.596113     0.562376 
    0.619497     0.559931     0.413246 
    0.561556     0.289921     0.492014 
    0.665480     0.427906     0.520529 
    0.571281     0.523950     0.598293 
    0.459104     0.628692     0.652058 
    0.412497     0.476238     0.582134 
    0.463934     0.591906     0.453774 
    0.578688     0.671282     0.532574 
    0.415097     0.726191     0.558155 
    0.329729     0.605150     0.520519 
EA21153 17.013 15.007 14.789 90.00 90.00 90.00 Sym.group:    0
1.0
   17.013488     0.000000     0.000000
    0.000000    15.007420     0.000000
    0.000000     0.000000    14.789143
   W
  20
Direct
    0.463740     0.652951     0.413256 
    0.422428     0.353953     0.468758 
    0.414045     0.499373     0.366776 
    0.287601     0.410774     0.478258 
    0.308627     0.585432     0.421946 
    0.365545     0.694467     0.527121 
    0.537652     0.389576     0.340908 
    0.569378     0.563509     0.318242 
    0.624886     0.625320     0.461639 
    0.389053     0.524515     0.562009 
    0.662218     0.456882     0.407203 
    0.500150     0.654319     0.587952 
    0.572248     0.304416     0.470099 
    0.499134     0.377071     0.624266 
    0.629993     0.565225     0.633583 
    0.344060     0.378692     0.621872 
    0.647468     0.411138     0.585644 
    0.740122     0.533319     0.520130 
    0.490503     0.525410     0.693584 
    0.531148     0.493658     0.496756 
EA21343 17.312 15.178 14.268 90.00 90.00 90.00 Sym.group:    0
1.0
   17.311933     0.000000     0.000000
    0.000000    15.178429     0.000000
    0.000000     0.000000    14.268349
   W
  20
Direct
    0.721021     0.371157     0.525870 
    0.545722     0.735025     0.510829 
    0.599882     0.387006     0.411174 
    0.585198     0.586590     0.438254 
    0.635605     0.483352     0.590041 
    0.637211     0.667932     0.599779 
    0.519459     0.591951     0.633820 
    0.709485     0.493008     0.421103 
    0.582609     0.330125     0.578295 
    0.470145     0.635732     0.342406 
    0.279121     0.591432     0.507617 
    0.369400     0.498283     0.411409 
    0.421800     0.640596     0.508431 
    0.497606     0.483614     0.305735 
    0.463018     0.389419     0.660373 
    0.453405     0.347057     0.361106 
    0.383544     0.349653     0.517259 
    0.263374     0.439971     0.542306 
    0.368726     0.508533     0.625891 
    0.493670     0.469566     0.508299 
EA21701 15.815 14.483 13.372 90.00 90.00 90.00 Sym.group:    0
1.0
   15.815117     0.000000     0.000000
    0.000000    14.482842     0.000000
    0.000000     0.000000    13.372048
   W
  16
Direct
    0.496883     0.491493     0.473772 
    0.519622     0.453196     0.673800 
    0.362603     0.552482     0.584189 
    0.391035     0.372180     0.407371 
    0.560748     0.325781     0.552070 
    0.575061     0.358426     0.375682 
    0.394722     0.376602     0.586648 
    0.271468     0.456773     0.471686 
    0.645595     0.526809     0.398540 
    0.507739     0.629971     0.605838 
    0.645999     0.663594     0.520796 
    0.522448     0.661013     0.411220 
    0.650608     0.497142     0.587141 
    0.388567     0.700953     0.495980 
    0.700612     0.372182     0.470537 
    0.366292     0.561402     0.384729 
EA21829 15.705 15.543 14.547 90.00 90.00 90.00 Sym.group:    0
1.0
   15.704693     0.000000     0.000000
    0.000000    15.542549     0.000000
    0.000000     0.000000    14.547203
   W
  18
Direct
    0.700696     0.403661     0.502402 
    0.633817     0.658630     0.501076 
    0.377609     0.696519     0.496976 
    0.278345     0.451413     0.494509 
    0.469405     0.272300     0.499790 
    0.503077     0.650748     0.596338 
    0.363168     0.558105     0.587894 
    0.402625     0.394854     0.588428 
    0.567161     0.371324     0.593323 
    0.651094     0.528047     0.602522 
    0.506586     0.652936     0.403179 
    0.366174     0.558637     0.407035 
    0.403433     0.393611     0.408296 
    0.570570     0.366578     0.409773 
    0.655545     0.526767     0.401607 
    0.522103     0.507411     0.693311 
    0.524660     0.502282     0.312901 
    0.503929     0.506176     0.500640 
EA22001 16.161 15.514 14.502 90.00 90.00 90.00 Sym.group:    0
1.0
   16.161089     0.000000     0.000000
    0.000000    15.514280     0.000000
    0.000000     0.000000    14.502137
   W
  19
Direct
    0.651644     0.463620     0.392259 
    0.665841     0.650773     0.572320 
    0.515778     0.557471     0.356100 
    0.524789     0.666535     0.500302 
    0.373972     0.640418     0.572904 
    0.550581     0.559309     0.643852 
    0.651603     0.623099     0.403908 
    0.385096     0.650517     0.399260 
    0.706972     0.507755     0.539772 
    0.409297     0.539894     0.701568 
    0.600995     0.292078     0.442687 
    0.355447     0.506142     0.347838 
    0.367730     0.363196     0.491898 
    0.290679     0.525296     0.490599 
    0.448392     0.392875     0.644837 
    0.582772     0.407364     0.559343 
    0.488995     0.384518     0.392745 
    0.479966     0.262078     0.532985 
    0.449452     0.507063     0.514822 
EA22141 14.735 15.008 16.276 90.00 90.00 90.00 Sym.group:    0
1.0
   14.735379     0.000000     0.000000
    0.000000    15.008116     0.000000
    0.000000     0.000000    16.275664
   W
  20
Direct
    0.210961     0.462036     0.460584 
    0.386947     0.514751     0.398862 
    0.316937     0.498782     0.569738 
    0.257307     0.607034     0.452533 
    0.360438     0.363348     0.471655 
    0.414768     0.370078     0.616635 
    0.578765     0.667698     0.635811 
    0.506353     0.484539     0.511104 
    0.422712     0.643967     0.536570 
    0.557243     0.744315     0.518100 
    0.460175     0.542704     0.654023 
    0.536074     0.619343     0.401189 
    0.520521     0.371660     0.388895 
    0.521293     0.501323     0.293795 
    0.654207     0.587984     0.515367 
    0.655298     0.476547     0.397044 
    0.768610     0.459937     0.546186 
    0.697277     0.340875     0.477068 
    0.545895     0.309686     0.539819 
    0.628219     0.433395     0.615018 
EA22348 15.958 15.553 14.686 90.00 90.00 90.00 Sym.group:    0
1.0
   15.958264     0.000000     0.000000
    0.000000    15.553075     0.000000
    0.000000     0.000000    14.685980
   W
  20
Direct
    0.322992     0.424652     0.524607 
    0.288887     0.567574     0.493258 
    0.343362     0.516751     0.667264 
    0.545828     0.697347     0.502989 
    0.409416     0.630637     0.400215 
    0.453387     0.550253     0.548558 
    0.562708     0.656735     0.349005 
    0.385053     0.361901     0.373161 
    0.309585     0.491200     0.345905 
    0.475528     0.500744     0.345765 
    0.685895     0.655040     0.460536 
    0.606095     0.516814     0.458911 
    0.620981     0.596376     0.613689 
    0.628410     0.290812     0.527696 
    0.715528     0.404836     0.490415 
    0.599088     0.356996     0.382373 
    0.450370     0.412727     0.680116 
    0.603373     0.427143     0.621066 
    0.505114     0.555210     0.715428 
    0.488402     0.386255     0.499044 
EA22564 16.082 15.579 15.055 90.00 90.00 90.00 Sym.group:    0
1.0
   16.082102     0.000000     0.000000
    0.000000    15.578870     0.000000
    0.000000     0.000000    15.055270
   W
  20
Direct
    0.337128     0.402117     0.479002 
    0.288834     0.542205     0.458435 
    0.364526     0.451598     0.321428 
    0.530101     0.691190     0.447022 
    0.384840     0.641709     0.543588 
    0.458310     0.533592     0.436203 
    0.531864     0.695417     0.604403 
    0.382744     0.394084     0.642862 
    0.296945     0.517098     0.621891 
    0.460962     0.541249     0.637130 
    0.666066     0.681757     0.512575 
    0.601111     0.538887     0.543341 
    0.626736     0.574807     0.378982 
    0.635795     0.302051     0.548964 
    0.714606     0.426831     0.566068 
    0.588750     0.401869     0.664362 
    0.480689     0.364594     0.353950 
    0.625859     0.409304     0.422401 
    0.526431     0.497965     0.285455 
    0.497709     0.391678     0.531939 
EA22818 17.192 15.257 14.102 90.00 90.00 90.00 Sym.group:    0
1.0
   17.192404     0.000000     0.000000
    0.000000    15.257189     0.000000
    0.000000     0.000000    14.102213
   W
  20
Direct
    0.594938     0.448448     0.322313 
    0.719742     0.416702     0.446263 
    0.319700     0.409542     0.625567 
    0.458066     0.425313     0.653924 
    0.684881     0.383568     0.605456 
    0.458280     0.302883     0.535343 
    0.391786     0.442580     0.473657 
    0.489278     0.352716     0.359430 
    0.564289     0.409794     0.507451 
    0.622713     0.522688     0.643040 
    0.736292     0.544255     0.539826 
    0.620753     0.569819     0.443753 
    0.506400     0.705131     0.428724 
    0.370803     0.643025     0.456998 
    0.255470     0.525856     0.499882 
    0.330040     0.533086     0.342997 
    0.478262     0.542674     0.363920 
    0.335425     0.569141     0.626791 
    0.583621     0.682195     0.568022 
    0.479262     0.570583     0.556644 
EA23051 16.836 15.373 14.578 90.00 90.00 90.00 Sym.group:    0
1.0
   16.836340     0.000000     0.000000
    0.000000    15.373057     0.000000
    0.000000     0.000000    14.577976
   W
  20
Direct
    0.643507     0.569495     0.535322 
    0.500433     0.636548     0.556390 
    0.596204     0.675434     0.403834 
    0.629913     0.530622     0.347994 
    0.372249     0.569519     0.444556 
    0.533906     0.491895     0.666871 
    0.458035     0.697858     0.391944 
    0.605602     0.627830     0.683698 
    0.671062     0.446573     0.642520 
    0.277051     0.430305     0.508720 
    0.571538     0.330048     0.591729 
    0.408542     0.381451     0.579683 
    0.383948     0.536658     0.622350 
    0.257575     0.576011     0.545192 
    0.481947     0.293008     0.456664 
    0.515443     0.473063     0.487892 
    0.653077     0.390547     0.473921 
    0.556140     0.380254     0.343182 
    0.390887     0.409799     0.395463 
    0.492941     0.553085     0.322078 
EA23340 16.391 16.180 15.737 90.00 90.00 90.00 Sym.group:    0
1.0
   16.391227     0.000000     0.000000
    0.000000    16.179565     0.000000
    0.000000     0.000000    15.737327
   W
  19
Direct
    0.507613     0.506045     0.502961 
    0.429519     0.536707     0.653673 
    0.571738     0.460795     0.348730 
    0.402341     0.622917     0.432825 
    0.600004     0.381576     0.567410 
    0.600085     0.539149     0.632403 
    0.501362     0.660183     0.563481 
    0.421332     0.372826     0.587545 
    0.337240     0.494590     0.518458 
    0.574095     0.619366     0.408298 
    0.497014     0.352096     0.443731 
    0.396672     0.459259     0.366082 
    0.674942     0.502290     0.478324 
    0.654377     0.647832     0.540336 
    0.335009     0.349908     0.458165 
    0.518666     0.420155     0.698364 
    0.471875     0.573464     0.299677 
    0.347199     0.640567     0.577034 
    0.658916     0.360275     0.422500 
EA23650 14.286 14.286 10.639 90.00 90.00 90.00 Sym.group:    0
1.0
   14.286090     0.000000     0.000000
    0.000000    14.286090     0.000000
    0.000000     0.000000    10.639111
   W
  16
Direct
    0.581176     0.366095     0.628557 
    0.653501     0.536028     0.630094 
    0.512316     0.656850     0.627217 
    0.354696     0.561146     0.630353 
    0.398041     0.380349     0.626718 
    0.653908     0.533045     0.373770 
    0.581776     0.362411     0.371738 
    0.396014     0.380717     0.371102 
    0.355071     0.563326     0.371289 
    0.517305     0.658776     0.372497 
    0.263032     0.448081     0.498544 
    0.475671     0.258598     0.499601 
    0.725272     0.404109     0.500289 
    0.659383     0.681242     0.500056 
    0.373545     0.707909     0.500776 
    0.499291     0.501321     0.497399 
EA23818 14.607 15.249 14.302 90.00 90.00 90.00 Sym.group:    0
1.0
   14.607135     0.000000     0.000000
    0.000000    15.249429     0.000000
    0.000000     0.000000    14.301719
   W
  17
Direct
    0.482559     0.661822     0.413676 
    0.596621     0.390859     0.414103 
    0.648559     0.550635     0.410844 
    0.656793     0.547643     0.604607 
    0.619988     0.681083     0.516576 
    0.738073     0.441845     0.508836 
    0.493665     0.534693     0.318936 
    0.604658     0.378257     0.594932 
    0.420632     0.367858     0.596338 
    0.344216     0.528280     0.607096 
    0.485716     0.652461     0.615376 
    0.342738     0.531171     0.421247 
    0.420543     0.380801     0.416970 
    0.347384     0.670672     0.522410 
    0.520115     0.268281     0.501800 
    0.275249     0.407667     0.514699 
    0.502490     0.505970     0.521553 
EA23978 15.515 14.687 14.597 90.00 90.00 90.00 Sym.group:    0
1.0
   15.515320     0.000000     0.000000
    0.000000    14.686916     0.000000
    0.000000     0.000000    14.597074
   W
  18
Direct
    0.269858     0.499552     0.511589 
    0.362471     0.364399     0.489249 
    0.364088     0.490377     0.644651 
    0.365473     0.633162     0.524937 
    0.359361     0.509910     0.369993 
    0.558449     0.520857     0.312242 
    0.561010     0.315506     0.478068 
    0.570075     0.480736     0.684405 
    0.565157     0.683166     0.512097 
    0.664557     0.381462     0.590447 
    0.659909     0.557573     0.566452 
    0.662199     0.618246     0.397625 
    0.654920     0.442141     0.421715 
    0.469316     0.616697     0.645655 
    0.466943     0.635774     0.385425 
    0.460395     0.383487     0.356546 
    0.474942     0.365646     0.610771 
    0.510877     0.501310     0.498133 
EA24146 16.003 15.559 13.798 90.00 90.00 90.00 Sym.group:    0
1.0
   16.003066     0.000000     0.000000
    0.000000    15.559222     0.000000
    0.000000     0.000000    13.798099
   W
  19
Direct
    0.671024     0.407833     0.525176 
    0.578567     0.276693     0.497495 
    0.560919     0.401868     0.379121 
    0.440044     0.367492     0.507940 
    0.688877     0.515419     0.387678 
    0.544126     0.563784     0.337954 
    0.275821     0.415984     0.448246 
    0.401800     0.445213     0.339701 
    0.550855     0.359542     0.635606 
    0.434305     0.508709     0.672606 
    0.539173     0.639809     0.640421 
    0.688959     0.564830     0.585411 
    0.646812     0.652458     0.461398 
    0.540524     0.509968     0.527258 
    0.312764     0.407669     0.608181 
    0.473215     0.666359     0.476149 
    0.394795     0.601792     0.329319 
    0.367721     0.539377     0.502057 
    0.389698     0.655200     0.638286 
EA24292 16.548 14.569 14.464 90.00 90.00 90.00 Sym.group:    0
1.0
   16.547856     0.000000     0.000000
    0.000000    14.568915     0.000000
    0.000000     0.000000    14.464288
   W
  20
Direct
    0.577443     0.310889     0.535810 
    0.690905     0.379098     0.444000 
    0.507299     0.411989     0.656919 
    0.577644     0.493078     0.429966 
    0.405158     0.332353     0.553427 
    0.489045     0.337392     0.411083 
    0.290016     0.449937     0.548835 
    0.322844     0.411900     0.385015 
    0.322274     0.585756     0.410585 
    0.441053     0.476874     0.311450 
    0.718327     0.618650     0.572518 
    0.405112     0.528584     0.678292 
    0.449494     0.674808     0.535393 
    0.610750     0.664144     0.457860 
    0.733370     0.546995     0.430987 
    0.310250     0.619376     0.577091 
    0.472988     0.632206     0.368775 
    0.561507     0.570097     0.600625 
    0.433679     0.499556     0.501858 
    0.680842     0.456319     0.589510 
EA24492 15.117 14.948 11.991 90.00 90.00 90.00 Sym.group:    0
1.0
   15.116795     0.000000     0.000000
    0.000000    14.948272     0.000000
    0.000000     0.000000    11.990636
   W
  20
Direct
    0.415328     0.355053     0.672446 
    0.325388     0.510555     0.673993 
    0.422155     0.644818     0.694539 
    0.585945     0.648586     0.671639 
    0.671486     0.488620     0.673399 
    0.580585     0.351582     0.692612 
    0.416526     0.353907     0.327925 
    0.325358     0.511373     0.326277 
    0.421162     0.646521     0.306580 
    0.585513     0.650129     0.327982 
    0.670922     0.488829     0.326140 
    0.581357     0.350916     0.306187 
    0.659588     0.587252     0.499258 
    0.653499     0.402418     0.500720 
    0.499593     0.316275     0.500166 
    0.339583     0.414183     0.499408 
    0.346493     0.596106     0.500384 
    0.500776     0.683925     0.499843 
    0.499646     0.499544     0.611105 
    0.499096     0.499407     0.389397 
EA24853 16.325 15.048 15.097 90.00 90.00 90.00 Sym.group:    0
1.0
   16.324859     0.000000     0.000000
    0.000000    15.048135     0.000000
    0.000000     0.000000    15.096553
   W
  16
Direct
    0.498620     0.414537     0.343665 
    0.643972     0.525124     0.393839 
    0.584046     0.489878     0.636691 
    0.477201     0.280086     0.489713 
    0.655046     0.621015     0.529265 
    0.580372     0.400863     0.491664 
    0.479098     0.353737     0.629653 
    0.369782     0.651985     0.517953 
    0.509907     0.630822     0.623959 
    0.282468     0.534170     0.531456 
    0.374056     0.558318     0.380343 
    0.513611     0.561845     0.301032 
    0.507573     0.557796     0.475158 
    0.400605     0.424596     0.480669 
    0.407585     0.510336     0.627721 
    0.716057     0.484890     0.547218 
EA24896 17.420 14.916 13.542 90.00 90.00 90.00 Sym.group:    0
1.0
   17.419728     0.000000     0.000000
    0.000000    14.915890     0.000000
    0.000000     0.000000    13.542176
   W
  20
Direct
    0.253319     0.447368     0.472564 
    0.335527     0.560255     0.381327 
    0.449049     0.489943     0.472172 
    0.514087     0.355309     0.598465 
    0.503165     0.327822     0.425684 
    0.358444     0.363404     0.562966 
    0.725369     0.465581     0.375311 
    0.359785     0.375160     0.384967 
    0.575606     0.478891     0.372983 
    0.654655     0.409046     0.650267 
    0.648434     0.363579     0.478813 
    0.435327     0.476772     0.676099 
    0.325224     0.553880     0.577708 
    0.738772     0.506139     0.540232 
    0.362585     0.695710     0.479211 
    0.491840     0.648433     0.408792 
    0.579935     0.525598     0.566348 
    0.457942     0.638129     0.605126 
    0.655415     0.612171     0.432236 
    0.575521     0.706812     0.538727 
EA25143 15.548 15.175 14.701 90.00 90.00 90.00 Sym.group:    0
1.0
   15.548398     0.000000     0.000000
    0.000000    15.174720     0.000000
    0.000000     0.000000    14.701184
   W
  19
Direct
    0.516230     0.690828     0.525372 
    0.310198     0.390848     0.475545 
    0.357487     0.432835     0.323701 
    0.371145     0.322051     0.611212 
    0.372627     0.494191     0.593338 
    0.408739     0.549314     0.430119 
    0.399879     0.711175     0.420471 
    0.461485     0.627729     0.661737 
    0.341638     0.662147     0.565178 
    0.585022     0.587476     0.396652 
    0.675544     0.618155     0.555839 
    0.737275     0.555062     0.430873 
    0.683377     0.439131     0.579757 
    0.630399     0.424049     0.423158 
    0.472136     0.373506     0.464151 
    0.516668     0.365899     0.643063 
    0.507923     0.447281     0.307235 
    0.611436     0.296465     0.535930 
    0.540794     0.511857     0.556668 
EA25454 15.529 15.529 15.529 90.00 90.00 90.00 Sym.group:    0
1.0
   15.528705     0.000000     0.000000
    0.000000    15.528705     0.000000
    0.000000     0.000000    15.528705
   W
  17
Direct
    0.498211     0.499167     0.500515 
    0.561494     0.335721     0.569499 
    0.624730     0.378788     0.432221 
    0.437037     0.663335     0.571337 
    0.372106     0.620787     0.434781 
    0.534042     0.575566     0.664668 
    0.683776     0.533419     0.458353 
    0.574537     0.506312     0.327851 
    0.319396     0.467843     0.458562 
    0.424985     0.492805     0.327362 
    0.617030     0.643913     0.543031 
    0.463646     0.425382     0.664288 
    0.390269     0.355749     0.540111 
    0.641641     0.473251     0.601953 
    0.355910     0.532132     0.600646 
    0.474739     0.357854     0.399280 
    0.526449     0.637975     0.405540 
EA25544 16.027 16.091 14.681 90.00 90.00 90.00 Sym.group:    0
1.0
   16.027469     0.000000     0.000000
    0.000000    16.091449     0.000000
    0.000000     0.000000    14.681125
   W
  20
Direct
    0.583610     0.568952     0.607435 
    0.571977     0.303064     0.579072 
    0.558385     0.657662     0.476062 
    0.665251     0.445172     0.542540 
    0.571708     0.416298     0.680289 
    0.310514     0.620348     0.566409 
    0.446949     0.657040     0.628046 
    0.303460     0.471339     0.527244 
    0.437474     0.365844     0.559709 
    0.431313     0.505668     0.644206 
    0.728514     0.598205     0.526890 
    0.338639     0.547698     0.392646 
    0.694954     0.649264     0.389072 
    0.472287     0.522048     0.472647 
    0.397698     0.683447     0.454656 
    0.376667     0.377057     0.387181 
    0.472960     0.464780     0.308404 
    0.627482     0.517409     0.398544 
    0.457823     0.257023     0.439756 
    0.552330     0.371683     0.419190 
EA25776 16.497 15.785 14.624 90.00 90.00 90.00 Sym.group:    0
1.0
   16.496797     0.000000     0.000000
    0.000000    15.784928     0.000000
    0.000000     0.000000    14.623822
   W
  20
Direct
    0.615763     0.489362     0.610867 
    0.439652     0.297921     0.584416 
    0.651668     0.585563     0.479936 
    0.583684     0.355831     0.523855 
    0.506915     0.385140     0.688336 
    0.452586     0.713912     0.568133 
    0.573561     0.652593     0.624684 
    0.340446     0.598262     0.535109 
    0.371709     0.434635     0.573198 
    0.466698     0.543657     0.650956 
    0.725884     0.422694     0.500321 
    0.408029     0.640589     0.397691 
    0.727206     0.499788     0.367424 
    0.501858     0.534699     0.481236 
    0.541264     0.700903     0.440259 
    0.318369     0.488847     0.402733 
    0.440484     0.496082     0.310422 
    0.593458     0.439559     0.379454 
    0.298377     0.347414     0.460960 
    0.442388     0.372549     0.420008 
EA26018 16.816 15.449 14.591 90.00 90.00 90.00 Sym.group:    0
1.0
   16.816407     0.000000     0.000000
    0.000000    15.448644     0.000000
    0.000000     0.000000    14.591439
   W
  20
Direct
    0.608986     0.551151     0.611435 
    0.397404     0.688624     0.578758 
    0.665677     0.458605     0.482504 
    0.539404     0.655002     0.509416 
    0.479803     0.623667     0.685652 
    0.510558     0.282083     0.579401 
    0.610027     0.376870     0.632120 
    0.373201     0.366994     0.545708 
    0.364893     0.533183     0.573621 
    0.482866     0.456849     0.657629 
    0.690871     0.640934     0.484277 
    0.443370     0.334286     0.408355 
    0.716472     0.557427     0.358821 
    0.511752     0.468199     0.486129 
    0.587989     0.315234     0.449358 
    0.316577     0.453253     0.405572 
    0.440750     0.473110     0.314891 
    0.574732     0.575514     0.365360 
    0.272014     0.588580     0.459104 
    0.412656     0.600438     0.411888 
EA26223 16.807 15.431 14.658 90.00 90.00 90.00 Sym.group:    0
1.0
   16.806681     0.000000     0.000000
    0.000000    15.431483     0.000000
    0.000000     0.000000    14.658017
   W
  20
Direct
    0.393651     0.556352     0.610859 
    0.603323     0.689528     0.570241 
    0.333299     0.459217     0.488336 
    0.461393     0.655797     0.504102 
    0.523801     0.626554     0.681300 
    0.489212     0.291773     0.587771 
    0.387518     0.384083     0.640228 
    0.629663     0.367312     0.544173 
    0.635197     0.533188     0.571478 
    0.518849     0.460243     0.660779 
    0.308327     0.639519     0.479272 
    0.556235     0.330074     0.413078 
    0.280602     0.551235     0.360531 
    0.489198     0.466786     0.487080 
    0.409053     0.317123     0.458156 
    0.683843     0.450832     0.402731 
    0.557090     0.467103     0.315076 
    0.423804     0.570708     0.364139 
    0.728165     0.586522     0.453794 
    0.587778     0.596054     0.406878 
EA26414 16.091 15.733 15.020 90.00 90.00 90.00 Sym.group:    0
1.0
   16.090710     0.000000     0.000000
    0.000000    15.732881     0.000000
    0.000000     0.000000    15.020339
   W
  20
Direct
    0.570815     0.447339     0.686748 
    0.566056     0.500758     0.342920 
    0.425345     0.442002     0.295497 
    0.547686     0.335003     0.581453 
    0.655841     0.367086     0.446044 
    0.689834     0.533787     0.434434 
    0.696953     0.427568     0.575813 
    0.653588     0.668760     0.507444 
    0.561006     0.516332     0.531300 
    0.496612     0.370708     0.420834 
    0.512167     0.673886     0.572532 
    0.404997     0.701076     0.458605 
    0.421079     0.545017     0.431295 
    0.553040     0.656428     0.394833 
    0.274741     0.505525     0.516436 
    0.406710     0.287006     0.526020 
    0.410925     0.445186     0.578826 
    0.334644     0.396137     0.424197 
    0.351575     0.616568     0.589530 
    0.466388     0.563829     0.685239 
EA26622 16.104 15.527 15.112 90.00 90.00 90.00 Sym.group:    0
1.0
   16.104025     0.000000     0.000000
    0.000000    15.527404     0.000000
    0.000000     0.000000    15.112108
   W
  20
Direct
    0.557107     0.565474     0.686707 
    0.539393     0.540428     0.341390 
    0.384479     0.529775     0.307125 
    0.479912     0.664168     0.595371 
    0.573885     0.698474     0.455140 
    0.674576     0.566650     0.422467 
    0.648428     0.653332     0.574915 
    0.715041     0.422366     0.480299 
    0.566683     0.507859     0.524570 
    0.431603     0.618160     0.435960 
    0.600661     0.344237     0.555528 
    0.508113     0.276891     0.441272 
    0.440685     0.427162     0.427100 
    0.607018     0.392997     0.378795 
    0.301467     0.395344     0.538964 
    0.324367     0.641756     0.551119 
    0.405672     0.504165     0.589275 
    0.295244     0.517252     0.442242 
    0.430262     0.321415     0.574619 
    0.515406     0.412097     0.677142 
EA26815 16.759 16.699 13.879 90.00 90.00 90.00 Sym.group:    0
1.0
   16.759160     0.000000     0.000000
    0.000000    16.698717     0.000000
    0.000000     0.000000    13.878553
   W
  20
Direct
    0.551851     0.358225     0.589919 
    0.443715     0.405721     0.357515 
    0.414023     0.426065     0.577628 
    0.334432     0.358770     0.454363 
    0.269255     0.495678     0.539918 
    0.696049     0.358524     0.525997 
    0.582225     0.354164     0.410011 
    0.459567     0.282554     0.482027 
    0.329880     0.516059     0.683791 
    0.647432     0.476384     0.620202 
    0.687302     0.485341     0.438703 
    0.415577     0.592076     0.569301 
    0.381609     0.685980     0.427038 
    0.372308     0.529928     0.409166 
    0.482551     0.618187     0.340727 
    0.611742     0.629981     0.431008 
    0.532167     0.496599     0.479651 
    0.506646     0.720135     0.498571 
    0.567466     0.613524     0.608696 
    0.714201     0.596106     0.555766 
EA27061 15.702 15.711 14.892 90.00 90.00 90.00 Sym.group:    0
1.0
   15.702048     0.000000     0.000000
    0.000000    15.710964     0.000000
    0.000000     0.000000    14.891823
   W
  19
Direct
    0.419831     0.484017     0.635359 
    0.445888     0.700995     0.488790 
    0.467619     0.637386     0.645811 
    0.335341     0.589276     0.525153 
    0.687458     0.501524     0.614491 
    0.568157     0.524178     0.710113 
    0.550486     0.560931     0.526385 
    0.297927     0.431395     0.542291 
    0.555632     0.393277     0.605251 
    0.411132     0.317884     0.559122 
    0.576090     0.526344     0.338318 
    0.537430     0.366412     0.329670 
    0.705993     0.552396     0.452848 
    0.587808     0.665264     0.395811 
    0.641399     0.411634     0.457399 
    0.302022     0.506353     0.391015 
    0.448079     0.443191     0.442818 
    0.428891     0.601761     0.369437 
    0.532814     0.285784     0.469920 
EA27196 14.489 15.680 14.319 90.00 90.00 90.00 Sym.group:    0
1.0
   14.489227     0.000000     0.000000
    0.000000    15.679688     0.000000
    0.000000     0.000000    14.318701
   W
  20
Direct
    0.391215     0.473838     0.354661 
    0.401648     0.345911     0.463085 
    0.469378     0.627842     0.336975 
    0.529138     0.380063     0.332217 
    0.577137     0.521246     0.287088 
    0.590220     0.356896     0.506905 
    0.662405     0.611709     0.421343 
    0.709546     0.447324     0.426948 
    0.534851     0.505118     0.474634 
    0.248185     0.459234     0.471172 
    0.282961     0.362595     0.583798 
    0.444644     0.425389     0.613139 
    0.313595     0.535178     0.633913 
    0.530256     0.680892     0.500946 
    0.384988     0.678642     0.628808 
    0.369878     0.591731     0.486283 
    0.515075     0.576938     0.642054 
    0.750846     0.422829     0.584957 
    0.689309     0.570157     0.579310 
    0.604727     0.426466     0.671764 
EA27449 14.118 14.709 13.120 90.00 90.00 90.00 Sym.group:    0
1.0
   14.118393     0.000000     0.000000
    0.000000    14.708892     0.000000
    0.000000     0.000000    13.120453
   W
  19
Direct
    0.294024     0.487202     0.652247 
    0.620136     0.332777     0.652208 
    0.592140     0.680411     0.654972 
    0.409152     0.318595     0.346704 
    0.379976     0.665600     0.347066 
    0.705492     0.512823     0.347836 
    0.561338     0.410223     0.336565 
    0.544160     0.595830     0.337734 
    0.384123     0.492192     0.336964 
    0.438889     0.589662     0.664037 
    0.615863     0.508247     0.663304 
    0.454604     0.405165     0.661262 
    0.485378     0.689210     0.498890 
    0.664041     0.607855     0.499903 
    0.335707     0.392145     0.498816 
    0.321555     0.582734     0.500564 
    0.678371     0.417118     0.499813 
    0.514955     0.311166     0.501024 
    0.500096     0.501044     0.500091 
EA27617 14.489 14.157 14.154 90.00 90.00 90.00 Sym.group:    0
1.0
   14.489384     0.000000     0.000000
    0.000000    14.156883     0.000000
    0.000000     0.000000    14.154184
   W
  20
Direct
    0.489450     0.575552     0.665954 
    0.495854     0.684399     0.518482 
    0.508070     0.609239     0.350613 
    0.509871     0.426520     0.332586 
    0.502979     0.316799     0.479869 
    0.493792     0.390175     0.647569 
    0.347533     0.370730     0.371177 
    0.338553     0.328319     0.541634 
    0.332496     0.454571     0.661498 
    0.331455     0.624452     0.609831 
    0.342833     0.667963     0.439132 
    0.349024     0.537945     0.319888 
    0.669282     0.497929     0.335059 
    0.661962     0.652268     0.417726 
    0.651880     0.658055     0.595917 
    0.649959     0.508468     0.684548 
    0.657079     0.350041     0.600892 
    0.665752     0.346397     0.427744 
    0.592724     0.501364     0.505750 
    0.409451     0.498815     0.494134 
EA27802 15.387 14.909 15.271 90.00 90.00 90.00 Sym.group:    0
1.0
   15.386815     0.000000     0.000000
    0.000000    14.908877     0.000000
    0.000000     0.000000    15.271294
   W
  20
Direct
    0.513509     0.510041     0.475570 
    0.391429     0.391175     0.424399 
    0.400919     0.628158     0.586692 
    0.349596     0.452887     0.560305 
    0.615891     0.667380     0.450451 
    0.498053     0.630913     0.347417 
    0.240543     0.585996     0.533372 
    0.357608     0.592269     0.424897 
    0.453745     0.728767     0.457888 
    0.240426     0.471798     0.426182 
    0.412311     0.300871     0.586628 
    0.580830     0.342124     0.566982 
    0.669676     0.485946     0.591524 
    0.561821     0.633665     0.599287 
    0.690904     0.510361     0.430790 
    0.583462     0.368298     0.403222 
    0.477097     0.248924     0.460432 
    0.722688     0.357935     0.487374 
    0.738770     0.624739     0.544042 
    0.500721     0.467753     0.642543 
EA28011 15.378 15.919 14.928 90.00 90.00 90.00 Sym.group:    0
1.0
   15.378173     0.000000     0.000000
    0.000000    15.919482     0.000000
    0.000000     0.000000    14.927518
   W
  20
Direct
    0.489837     0.337200     0.410134 
    0.571696     0.602124     0.373969 
    0.606570     0.446497     0.353374 
    0.491242     0.497684     0.484134 
    0.327062     0.449512     0.538366 
    0.401159     0.598252     0.371966 
    0.364716     0.437752     0.373085 
    0.358482     0.622302     0.530024 
    0.472475     0.357292     0.577583 
    0.347412     0.305249     0.471453 
    0.253754     0.543276     0.422965 
    0.486407     0.713756     0.472775 
    0.505327     0.662776     0.630105 
    0.414623     0.538136     0.656906 
    0.724676     0.523626     0.418112 
    0.726390     0.507176     0.576466 
    0.576969     0.493796     0.640958 
    0.625633     0.629861     0.525852 
    0.642878     0.388015     0.508869 
    0.612690     0.345721     0.662903 
EA28222 14.213 14.331 14.235 90.00 90.00 90.00 Sym.group:    0
1.0
   14.213339     0.000000     0.000000
    0.000000    14.330793     0.000000
    0.000000     0.000000    14.234797
   W
  20
Direct
    0.508337     0.330956     0.558446 
    0.511049     0.465676     0.677759 
    0.499969     0.638842     0.619014 
    0.491185     0.675216     0.439482 
    0.489990     0.536370     0.320111 
    0.498271     0.365063     0.377102 
    0.329955     0.625316     0.391955 
    0.328662     0.457218     0.338189 
    0.338686     0.330032     0.451957 
    0.345381     0.364317     0.623648 
    0.346508     0.525103     0.680363 
    0.336776     0.660778     0.564257 
    0.654964     0.679590     0.507419 
    0.668970     0.579925     0.650736 
    0.677453     0.409561     0.635861 
    0.666663     0.330076     0.481968 
    0.656335     0.424451     0.335028 
    0.650667     0.599552     0.348314 
    0.593493     0.503787     0.493840 
    0.406683     0.498171     0.504550 
EA28414 14.061 14.439 14.336 90.00 90.00 90.00 Sym.group:    0
1.0
   14.060620     0.000000     0.000000
    0.000000    14.439297     0.000000
    0.000000     0.000000    14.335768
   W
  20
Direct
    0.485991     0.527393     0.676302 
    0.458876     0.665260     0.562754 
    0.472333     0.636017     0.384783 
    0.515272     0.472104     0.322164 
    0.542277     0.333484     0.437512 
    0.527407     0.361007     0.616034 
    0.366674     0.377282     0.347745 
    0.380394     0.294733     0.500537 
    0.350581     0.383896     0.647167 
    0.310755     0.550722     0.636663 
    0.298972     0.634016     0.487357 
    0.327560     0.546274     0.340310 
    0.658635     0.574961     0.340308 
    0.623784     0.700693     0.454532 
    0.629110     0.662235     0.620336 
    0.662925     0.499522     0.672879 
    0.694076     0.369827     0.560852 
    0.694110     0.411996     0.391307 
    0.592556     0.519826     0.504694 
    0.407711     0.478755     0.495761 
EA28630 14.126 14.411 14.410 90.00 90.00 90.00 Sym.group:    0
1.0
   14.125899     0.000000     0.000000
    0.000000    14.411058     0.000000
    0.000000     0.000000    14.409643
   W
  20
Direct
    0.491859     0.571570     0.681899 
    0.491091     0.670151     0.525630 
    0.492518     0.620035     0.347602 
    0.506529     0.436657     0.338097 
    0.512421     0.308058     0.471409 
    0.506767     0.393060     0.637100 
    0.346679     0.363944     0.394642 
    0.365166     0.313409     0.561473 
    0.335880     0.462234     0.659026 
    0.341479     0.634311     0.623682 
    0.328755     0.643216     0.441766 
    0.348940     0.526169     0.313904 
    0.662664     0.529724     0.338171 
    0.637306     0.681342     0.420924 
    0.653334     0.641086     0.601464 
    0.648063     0.492081     0.689008 
    0.671046     0.358330     0.564080 
    0.657593     0.354041     0.389607 
    0.600176     0.506631     0.500713 
    0.401736     0.493954     0.499802 
EA28917 15.698 15.700 14.628 90.00 90.00 90.00 Sym.group:    0
1.0
   15.697745     0.000000     0.000000
    0.000000    15.699611     0.000000
    0.000000     0.000000    14.627779
   W
  18
Direct
    0.722563     0.461513     0.495024 
    0.598128     0.682992     0.491505 
    0.365457     0.647568     0.498368 
    0.294814     0.406286     0.498097 
    0.527442     0.278204     0.491828 
    0.498806     0.499001     0.332580 
    0.425857     0.362646     0.406566 
    0.605158     0.386716     0.406060 
    0.644901     0.562874     0.401148 
    0.481778     0.654517     0.385678 
    0.338820     0.522706     0.403737 
    0.497461     0.515779     0.497697 
    0.635150     0.557689     0.594125 
    0.483864     0.642835     0.620799 
    0.353620     0.520774     0.601707 
    0.434684     0.379404     0.586648 
    0.594814     0.401499     0.586255 
    0.496684     0.516996     0.702176 
EA29027 16.340 15.137 14.325 90.00 90.00 90.00 Sym.group:    0
1.0
   16.339511     0.000000     0.000000
    0.000000    15.137172     0.000000
    0.000000     0.000000    14.325448
   W
  20
Direct
    0.602387     0.466585     0.539875 
    0.506180     0.558004     0.667569 
    0.643523     0.628327     0.588725 
    0.748235     0.517612     0.574038 
    0.579767     0.636303     0.433310 
    0.712651     0.546288     0.425165 
    0.488850     0.687937     0.575522 
    0.345894     0.645848     0.586969 
    0.451291     0.531607     0.495240 
    0.443650     0.621496     0.328276 
    0.560193     0.484806     0.352603 
    0.466566     0.358612     0.454934 
    0.415250     0.464532     0.311817 
    0.614656     0.337544     0.395650 
    0.604602     0.304921     0.553213 
    0.351647     0.482729     0.630387 
    0.322558     0.601222     0.420797 
    0.476257     0.375646     0.629519 
    0.349793     0.314893     0.571828 
    0.316048     0.435088     0.464565 
EA29220 15.468 15.647 13.984 90.00 90.00 90.00 Sym.group:    0
1.0
   15.467923     0.000000     0.000000
    0.000000    15.647201     0.000000
    0.000000     0.000000    13.984356
   W
  20
Direct
    0.504054     0.660392     0.553397 
    0.386648     0.551404     0.616030 
    0.442744     0.631509     0.363447 
    0.603606     0.512774     0.327721 
    0.296950     0.382737     0.408401 
    0.320301     0.533689     0.451724 
    0.301992     0.411724     0.586506 
    0.596963     0.655008     0.398527 
    0.350161     0.684087     0.490907 
    0.432590     0.448159     0.344565 
    0.574951     0.558455     0.687376 
    0.648535     0.678328     0.642641 
    0.671399     0.566708     0.521385 
    0.504797     0.504520     0.491333 
    0.423511     0.326389     0.490368 
    0.631006     0.418336     0.580302 
    0.713421     0.431675     0.416394 
    0.465966     0.409832     0.638906 
    0.552801     0.281897     0.575007 
    0.577603     0.352379     0.415066 
EA29417 16.688 16.278 14.344 90.00 90.00 90.00 Sym.group:    0
1.0
   16.688151     0.000000     0.000000
    0.000000    16.277710     0.000000
    0.000000     0.000000    14.343841
   W
  20
Direct
    0.604450     0.617248     0.533903 
    0.465225     0.604266     0.619718 
    0.520630     0.632439     0.367196 
    0.565429     0.449033     0.322986 
    0.278060     0.535265     0.444951 
    0.387493     0.635622     0.469440 
    0.315983     0.551113     0.609397 
    0.651863     0.565783     0.370705 
    0.499570     0.729194     0.501496 
    0.406614     0.502626     0.359233 
    0.600299     0.497634     0.674594 
    0.717796     0.544409     0.616967 
    0.656567     0.453590     0.491368 
    0.501643     0.497715     0.491059 
    0.345025     0.413783     0.506746 
    0.555863     0.360103     0.570767 
    0.609672     0.323298     0.403114 
    0.434596     0.447044     0.645451 
    0.418091     0.299717     0.581327 
    0.465130     0.340122     0.419586 
EA29655 15.518 15.869 15.791 90.00 90.00 90.00 Sym.group:    0
1.0
   15.518079     0.000000     0.000000
    0.000000    15.868654     0.000000
    0.000000     0.000000    15.790587
   W
  19
Direct
    0.338345     0.497772     0.590832 
    0.447702     0.354979     0.594699 
    0.482021     0.506585     0.511287 
    0.459121     0.486985     0.694710 
    0.593987     0.685581     0.587358 
    0.605195     0.511211     0.617223 
    0.455044     0.630536     0.642886 
    0.344375     0.641457     0.534545 
    0.489916     0.677088     0.472796 
    0.727754     0.459956     0.525023 
    0.674635     0.457253     0.387093 
    0.593184     0.367786     0.525333 
    0.455236     0.270859     0.470674 
    0.368568     0.400783     0.443293 
    0.524849     0.390182     0.381699 
    0.642994     0.591438     0.477405 
    0.407857     0.458364     0.292182 
    0.362995     0.560435     0.395595 
    0.526223     0.550750     0.355369 
EA29943 14.871 15.028 12.849 90.00 90.00 90.00 Sym.group:    0
1.0
   14.870806     0.000000     0.000000
    0.000000    15.027588     0.000000
    0.000000     0.000000    12.848764
   W
  17
Direct
    0.623475     0.594420     0.390114 
    0.447512     0.645198     0.389668 
    0.343707     0.494356     0.389545 
    0.456259     0.350340     0.389853 
    0.628606     0.412671     0.389931 
    0.636484     0.409767     0.590751 
    0.628513     0.600042     0.590365 
    0.444693     0.653076     0.590882 
    0.335643     0.495040     0.590511 
    0.454879     0.343867     0.590656 
    0.567111     0.730967     0.488760 
    0.299975     0.634772     0.488685 
    0.308637     0.353071     0.488686 
    0.582859     0.274763     0.489414 
    0.742198     0.508192     0.488376 
    0.499605     0.499722     0.674065 
    0.499846     0.499736     0.479735 
EA30111 16.041 16.128 12.966 90.00 90.00 90.00 Sym.group:    0
1.0
   16.041021     0.000000     0.000000
    0.000000    16.128481     0.000000
    0.000000     0.000000    12.966455
   W
  18
Direct
    0.637588     0.476404     0.607897 
    0.564440     0.628226     0.603550 
    0.399547     0.600896     0.605728 
    0.376908     0.436778     0.605690 
    0.522857     0.359294     0.606123 
    0.374434     0.437035     0.392680 
    0.400286     0.598557     0.396254 
    0.564869     0.621312     0.395150 
    0.640090     0.476710     0.394495 
    0.523280     0.362781     0.392551 
    0.653197     0.345916     0.499455 
    0.694877     0.593000     0.503076 
    0.466741     0.713463     0.499092 
    0.285441     0.534468     0.500236 
    0.404183     0.309163     0.497665 
    0.496817     0.504463     0.719536 
    0.494590     0.502048     0.279229 
    0.499856     0.499489     0.501592 
EA30347 15.126 15.218 12.618 90.00 90.00 90.00 Sym.group:    0
1.0
   15.126226     0.000000     0.000000
    0.000000    15.217531     0.000000
    0.000000     0.000000    12.618344
   W
  17
Direct
    0.600137     0.378904     0.386555 
    0.413977     0.368568     0.385600 
    0.347720     0.538963     0.385274 
    0.490660     0.655899     0.384751 
    0.647239     0.556002     0.385837 
    0.491792     0.646756     0.590031 
    0.637574     0.554221     0.591448 
    0.593567     0.388313     0.591687 
    0.420794     0.376080     0.590154 
    0.357594     0.536628     0.591138 
    0.628754     0.696955     0.485190 
    0.728198     0.439881     0.486819 
    0.512226     0.265367     0.486335 
    0.278516     0.413817     0.485515 
    0.352136     0.682701     0.485755 
    0.500247     0.499832     0.474306 
    0.498869     0.501112     0.713606 
EA30428 16.554 14.988 15.171 90.00 90.00 90.00 Sym.group:    0
1.0
   16.553623     0.000000     0.000000
    0.000000    14.988067     0.000000
    0.000000     0.000000    15.171092
   W
  20
Direct
    0.445769     0.681924     0.461925 
    0.336327     0.577941     0.411363 
    0.390429     0.431800     0.324702 
    0.316446     0.674962     0.541565 
    0.452622     0.609375     0.616429 
    0.332498     0.510823     0.575707 
    0.318433     0.391551     0.445216 
    0.421204     0.479335     0.712358 
    0.421972     0.368195     0.583760 
    0.552046     0.459465     0.626056 
    0.560446     0.619312     0.368745 
    0.604848     0.596281     0.528281 
    0.722710     0.475197     0.590365 
    0.760648     0.606365     0.536279 
    0.693192     0.537711     0.409872 
    0.554003     0.288881     0.559249 
    0.625240     0.406834     0.475046 
    0.476025     0.323371     0.424427 
    0.549423     0.459494     0.336626 
    0.465718     0.501182     0.472027 
EA30721 15.957 15.290 14.396 90.00 90.00 90.00 Sym.group:    0
1.0
   15.956809     0.000000     0.000000
    0.000000    15.289599     0.000000
    0.000000     0.000000    14.396477
   W
  18
Direct
    0.335091     0.449092     0.499290 
    0.354435     0.494411     0.665116 
    0.370959     0.622353     0.560645 
    0.373629     0.574663     0.375440 
    0.352501     0.416364     0.329067 
    0.572185     0.289657     0.552704 
    0.458611     0.356273     0.440459 
    0.461590     0.374682     0.621605 
    0.494111     0.551340     0.680758 
    0.504647     0.689370     0.587260 
    0.624528     0.568505     0.384983 
    0.497920     0.670012     0.415552 
    0.488844     0.489191     0.309609 
    0.615238     0.399397     0.429924 
    0.617491     0.441675     0.604767 
    0.646064     0.606372     0.545527 
    0.733138     0.486772     0.498005 
    0.499018     0.519872     0.499287 
EA30919 17.410 17.210 14.842 90.00 90.00 90.00 Sym.group:    0
1.0
   17.410441     0.000000     0.000000
    0.000000    17.209915     0.000000
    0.000000     0.000000    14.841625
   W
  18
Direct
    0.496927     0.494019     0.667905 
    0.497793     0.498667     0.299154 
    0.492240     0.373485     0.407710 
    0.377660     0.468571     0.407615 
    0.434204     0.608627     0.408426 
    0.581430     0.597911     0.410212 
    0.617032     0.453646     0.408983 
    0.491917     0.357708     0.590966 
    0.631857     0.447582     0.591240 
    0.589038     0.609282     0.593024 
    0.424097     0.619310     0.592889 
    0.363291     0.464339     0.591838 
    0.370143     0.343733     0.504700 
    0.312953     0.577946     0.504914 
    0.513037     0.704003     0.506756 
    0.695508     0.552511     0.507098 
    0.610610     0.327986     0.503550 
    0.500262     0.500674     0.503018 
EA31102 14.319 14.207 12.813 90.00 90.00 90.00 Sym.group:    0
1.0
   14.318881     0.000000     0.000000
    0.000000    14.206579     0.000000
    0.000000     0.000000    12.813395
   W
  18
Direct
    0.414765     0.639468     0.606881 
    0.606137     0.625512     0.607581 
    0.651033     0.437018     0.608478 
    0.488124     0.335991     0.606954 
    0.340840     0.462095     0.606507 
    0.498430     0.499732     0.273672 
    0.499541     0.499620     0.713844 
    0.628301     0.290530     0.502318 
    0.341255     0.312301     0.501514 
    0.274166     0.595263     0.501947 
    0.518557     0.745584     0.501672 
    0.737349     0.558198     0.501706 
    0.600867     0.619017     0.393026 
    0.645793     0.439330     0.393335 
    0.488312     0.343212     0.392995 
    0.347197     0.463282     0.393671 
    0.418897     0.633798     0.391912 
    0.500437     0.500050     0.501987 
EA31314 15.050 14.359 14.370 90.00 90.00 90.00 Sym.group:    0
1.0
   15.050083     0.000000     0.000000
    0.000000    14.358722     0.000000
    0.000000     0.000000    14.369979
   W
  18
Direct
    0.476908     0.582899     0.312359 
    0.496150     0.678981     0.615021 
    0.616126     0.561084     0.631983 
    0.629560     0.499525     0.382927 
    0.583786     0.655237     0.464288 
    0.618634     0.321243     0.384731 
    0.725470     0.578767     0.507521 
    0.650832     0.416355     0.535679 
    0.527421     0.373851     0.662089 
    0.499709     0.313475     0.499709 
    0.328972     0.551369     0.556262 
    0.376074     0.373469     0.626387 
    0.331033     0.556813     0.354021 
    0.473440     0.414805     0.349758 
    0.401028     0.670899     0.462680 
    0.336011     0.408367     0.460307 
    0.436841     0.535734     0.686137 
    0.492006     0.507126     0.508142 
EA31503 15.626 15.859 14.867 90.00 90.00 90.00 Sym.group:    0
1.0
   15.625899     0.000000     0.000000
    0.000000    15.859053     0.000000
    0.000000     0.000000    14.867491
   W
  18
Direct
    0.644320     0.470162     0.591358 
    0.510689     0.352949     0.592547 
    0.360363     0.444487     0.590034 
    0.400999     0.607288     0.593371 
    0.576282     0.621596     0.592393 
    0.508998     0.503995     0.308124 
    0.502281     0.489008     0.686765 
    0.282136     0.552232     0.495709 
    0.478319     0.720098     0.508839 
    0.705758     0.587924     0.493911 
    0.647947     0.332260     0.505375 
    0.381123     0.312436     0.499573 
    0.513433     0.357101     0.410287 
    0.369272     0.445183     0.405830 
    0.406174     0.611891     0.409401 
    0.572811     0.626156     0.408386 
    0.640474     0.464730     0.408063 
    0.498622     0.500505     0.500032 
EA31710 15.767 15.888 14.891 90.00 90.00 90.00 Sym.group:    0
1.0
   15.767012     0.000000     0.000000
    0.000000    15.887579     0.000000
    0.000000     0.000000    14.890858
   W
  18
Direct
    0.396561     0.603249     0.593279 
    0.359066     0.432814     0.584870 
    0.520351     0.350765     0.587150 
    0.645770     0.472694     0.592298 
    0.570431     0.622658     0.597613 
    0.505337     0.507366     0.306856 
    0.481147     0.483968     0.680583 
    0.657008     0.343341     0.499282 
    0.701437     0.597329     0.506511 
    0.474286     0.718091     0.512543 
    0.279564     0.544076     0.498489 
    0.395115     0.303517     0.494179 
    0.374251     0.442805     0.404249 
    0.521257     0.364780     0.406416 
    0.643638     0.478350     0.410037 
    0.569949     0.628694     0.414318 
    0.403732     0.605407     0.411435 
    0.501098     0.500098     0.499891 
EA31885 15.833 15.400 14.500 90.00 90.00 90.00 Sym.group:    0
1.0
   15.832790     0.000000     0.000000
    0.000000    15.399917     0.000000
    0.000000     0.000000    14.499966
   W
  19
Direct
    0.299456     0.571201     0.575236 
    0.466616     0.279388     0.518809 
    0.439446     0.562187     0.349227 
    0.285578     0.416651     0.520353 
    0.559078     0.455644     0.307873 
    0.288987     0.532769     0.409898 
    0.585490     0.357841     0.440057 
    0.415555     0.423991     0.613789 
    0.417017     0.400900     0.424793 
    0.565543     0.367067     0.617159 
    0.684148     0.596882     0.556766 
    0.706176     0.445927     0.537686 
    0.578835     0.634046     0.398036 
    0.447024     0.582515     0.642677 
    0.404486     0.653500     0.479636 
    0.543946     0.686775     0.552016 
    0.601866     0.513857     0.669799 
    0.681652     0.510129     0.383403 
    0.529104     0.508729     0.502787 
EA32176 13.901 13.775 11.378 90.00 90.00 90.00 Sym.group:    0
1.0
   13.901022     0.000000     0.000000
    0.000000    13.775317     0.000000
    0.000000     0.000000    11.377863
   W
  16
Direct
    0.603373     0.635902     0.382643 
    0.402398     0.640620     0.383636 
    0.336156     0.452286     0.384990 
    0.493135     0.328184     0.383812 
    0.660489     0.440577     0.383088 
    0.505938     0.751627     0.499648 
    0.263538     0.584553     0.502480 
    0.348296     0.300066     0.502185 
    0.641183     0.292475     0.501539 
    0.741256     0.570501     0.500382 
    0.599964     0.628704     0.617377 
    0.410563     0.634054     0.618513 
    0.345907     0.454642     0.619829 
    0.495543     0.339885     0.619888 
    0.652019     0.445976     0.618797 
    0.500244     0.499949     0.481194 
EA32207 14.369 15.840 14.850 90.00 90.00 90.00 Sym.group:    0
1.0
   14.368998     0.000000     0.000000
    0.000000    15.840302     0.000000
    0.000000     0.000000    14.849956
   W
  20
Direct
    0.502766     0.310797     0.464920 
    0.348309     0.399722     0.547805 
    0.217645     0.436117     0.448023 
    0.341476     0.561162     0.513712 
    0.253527     0.543417     0.352023 
    0.567478     0.419800     0.356031 
    0.388593     0.425230     0.385778 
    0.419625     0.576023     0.355069 
    0.499015     0.662465     0.488263 
    0.670483     0.679292     0.509981 
    0.652124     0.372555     0.513962 
    0.624876     0.575974     0.386127 
    0.704935     0.526172     0.534012 
    0.733369     0.443650     0.385054 
    0.404501     0.657620     0.635413 
    0.578781     0.605137     0.634841 
    0.440189     0.508329     0.665907 
    0.500024     0.359105     0.635751 
    0.520367     0.494115     0.510549 
    0.631919     0.443317     0.676783 
EA32476 16.544 15.587 14.318 90.00 90.00 90.00 Sym.group:    0
1.0
   16.544410     0.000000     0.000000
    0.000000    15.586762     0.000000
    0.000000     0.000000    14.317826
   W
  19
Direct
    0.709303     0.596871     0.463407 
    0.622779     0.613803     0.597743 
    0.554633     0.648878     0.440188 
    0.444125     0.647845     0.578951 
    0.622463     0.512355     0.365493 
    0.445162     0.549517     0.351428 
    0.406175     0.699023     0.422086 
    0.334087     0.569859     0.473028 
    0.283457     0.426476     0.532717 
    0.339266     0.423008     0.376746 
    0.422376     0.360073     0.535388 
    0.571161     0.300982     0.525579 
    0.487267     0.387960     0.380062 
    0.644382     0.357453     0.400288 
    0.383253     0.497192     0.638240 
    0.659933     0.456539     0.543565 
    0.515035     0.551006     0.703390 
    0.541018     0.399067     0.657814 
    0.514124     0.502091     0.513886 
EA32664 16.170 15.508 14.231 90.00 90.00 90.00 Sym.group:    0
1.0
   16.170141     0.000000     0.000000
    0.000000    15.508165     0.000000
    0.000000     0.000000    14.231069
   W
  19
Direct
    0.704028     0.606878     0.463909 
    0.617448     0.623316     0.598011 
    0.548545     0.658335     0.436561 
    0.441480     0.643789     0.594056 
    0.616068     0.514294     0.368029 
    0.436144     0.555972     0.349956 
    0.398699     0.701866     0.437567 
    0.334346     0.563295     0.483467 
    0.281275     0.416626     0.527054 
    0.339562     0.419089     0.371267 
    0.429711     0.359574     0.527015 
    0.584493     0.295648     0.514557 
    0.494901     0.392483     0.374595 
    0.658773     0.363318     0.396833 
    0.382772     0.482952     0.644954 
    0.659882     0.459348     0.543522 
    0.517494     0.541181     0.707056 
    0.546792     0.391761     0.647617 
    0.507591     0.510273     0.513971 
EA32858 17.420 15.726 13.610 90.00 90.00 90.00 Sym.group:    0
1.0
   17.419822     0.000000     0.000000
    0.000000    15.726415     0.000000
    0.000000     0.000000    13.609861
   W
  19
Direct
    0.605772     0.631221     0.529767 
    0.547732     0.540061     0.694421 
    0.484355     0.502777     0.500200 
    0.525149     0.367877     0.613468 
    0.637746     0.472277     0.565816 
    0.721275     0.460537     0.386563 
    0.739005     0.567167     0.496892 
    0.581076     0.381861     0.423674 
    0.481374     0.275646     0.472246 
    0.607255     0.541914     0.375376 
    0.382111     0.378308     0.542943 
    0.430868     0.398952     0.366381 
    0.432605     0.464829     0.703326 
    0.379438     0.558144     0.366797 
    0.492933     0.654432     0.414271 
    0.293024     0.439494     0.415677 
    0.364426     0.687988     0.476870 
    0.340827     0.538719     0.550338 
    0.453030     0.637797     0.604975 
EA32995 15.246 15.420 13.688 90.00 90.00 90.00 Sym.group:    0
1.0
   15.245926     0.000000     0.000000
    0.000000    15.420129     0.000000
    0.000000     0.000000    13.688024
   W
  20
Direct
    0.502748     0.676610     0.500183 
    0.654837     0.586123     0.500422 
    0.651604     0.409020     0.500094 
    0.498292     0.324331     0.499055 
    0.345670     0.414976     0.499899 
    0.345104     0.592887     0.499761 
    0.413013     0.358335     0.342067 
    0.329325     0.503252     0.342218 
    0.419160     0.645577     0.339816 
    0.588206     0.644740     0.343569 
    0.667376     0.496155     0.343998 
    0.582251     0.351149     0.339499 
    0.413014     0.357240     0.657598 
    0.330336     0.503094     0.657841 
    0.418864     0.646513     0.659397 
    0.588220     0.643251     0.657632 
    0.667618     0.495894     0.656423 
    0.581524     0.352206     0.661400 
    0.501055     0.499039     0.401282 
    0.501780     0.499608     0.597846 
EA33241 16.034 14.477 14.284 90.00 90.00 90.00 Sym.group:    0
1.0
   16.034462     0.000000     0.000000
    0.000000    14.477272     0.000000
    0.000000     0.000000    14.284022
   W
  19
Direct
    0.705046     0.626892     0.543016 
    0.663332     0.330496     0.504838 
    0.624626     0.485396     0.595642 
    0.497380     0.344779     0.441262 
    0.621399     0.351501     0.345757 
    0.510268     0.658737     0.389312 
    0.613121     0.504411     0.419939 
    0.661654     0.669569     0.396059 
    0.420495     0.459314     0.335953 
    0.304319     0.543714     0.417862 
    0.380289     0.673982     0.494958 
    0.311320     0.507592     0.582976 
    0.411655     0.636420     0.652709 
    0.333369     0.368188     0.431498 
    0.391612     0.363676     0.597087 
    0.480343     0.479957     0.678724 
    0.552744     0.660216     0.553783 
    0.463323     0.514927     0.504574 
    0.553707     0.320234     0.614052 
EA33453 16.669 15.075 14.991 90.00 90.00 90.00 Sym.group:    0
1.0
   16.669084     0.000000     0.000000
    0.000000    15.075404     0.000000
    0.000000     0.000000    14.990701
   W
  19
Direct
    0.501866     0.516208     0.485610 
    0.377465     0.616190     0.435939 
    0.384565     0.397360     0.564769 
    0.608380     0.388970     0.561263 
    0.630218     0.606837     0.432013 
    0.616412     0.431448     0.385528 
    0.498631     0.453007     0.682154 
    0.387442     0.569926     0.612688 
    0.507010     0.673803     0.550444 
    0.617736     0.558868     0.609811 
    0.492966     0.325685     0.453662 
    0.377857     0.440888     0.388519 
    0.500110     0.544226     0.318264 
    0.713074     0.488392     0.496940 
    0.288173     0.507164     0.506697 
    0.504987     0.691940     0.388315 
    0.493259     0.298800     0.619216 
    0.506549     0.610660     0.709251 
    0.493298     0.379627     0.298920 
EA33651 14.748 14.802 15.784 90.00 90.00 90.00 Sym.group:    0
1.0
   14.748137     0.000000     0.000000
    0.000000    14.802065     0.000000
    0.000000     0.000000    15.784262
   W
  19
Direct
    0.489454     0.490891     0.494284 
    0.396514     0.473214     0.348508 
    0.532024     0.664272     0.456980 
    0.591024     0.530652     0.629338 
    0.469602     0.320945     0.556176 
    0.423774     0.462402     0.655781 
    0.682191     0.566989     0.486742 
    0.574519     0.530365     0.346609 
    0.544445     0.358712     0.397151 
    0.641079     0.388146     0.541502 
    0.456530     0.644049     0.606758 
    0.355707     0.611859     0.458714 
    0.323293     0.439837     0.509484 
    0.562426     0.368615     0.681432 
    0.440670     0.633242     0.322983 
    0.383902     0.319677     0.417259 
    0.626166     0.690997     0.586545 
    0.701061     0.430488     0.397344 
    0.305620     0.574650     0.606408 
EA33783 15.473 17.439 14.219 90.00 90.00 90.00 Sym.group:    0
1.0
   15.473148     0.000000     0.000000
    0.000000    17.438951     0.000000
    0.000000     0.000000    14.218877
   W
  20
Direct
    0.299686     0.591501     0.493388 
    0.535295     0.685964     0.435469 
    0.298344     0.521078     0.340917 
    0.681950     0.431718     0.382995 
    0.237058     0.444707     0.465249 
    0.778382     0.491161     0.493041 
    0.631475     0.569438     0.416725 
    0.378398     0.402365     0.375418 
    0.525170     0.435442     0.453241 
    0.442319     0.564863     0.416322 
    0.590384     0.635577     0.589459 
    0.432749     0.666179     0.566329 
    0.739207     0.619935     0.529582 
    0.511974     0.300308     0.528583 
    0.632715     0.492749     0.573162 
    0.662366     0.355651     0.527832 
    0.522657     0.386198     0.648504 
    0.372163     0.386778     0.549778 
    0.284097     0.494260     0.617830 
    0.443609     0.524128     0.596174 
EA34002 17.664 15.885 13.366 90.00 90.00 90.00 Sym.group:    0
1.0
   17.663996     0.000000     0.000000
    0.000000    15.885484     0.000000
    0.000000     0.000000    13.366127
   W
  20
Direct
    0.664477     0.617035     0.511694 
    0.455818     0.702925     0.428832 
    0.677400     0.552231     0.345466 
    0.350995     0.412520     0.365641 
    0.733958     0.463643     0.476893 
    0.259107     0.465581     0.483264 
    0.380246     0.566698     0.408454 
    0.621671     0.412148     0.367028 
    0.487561     0.427636     0.444863 
    0.544607     0.578626     0.412462 
    0.408695     0.641489     0.589176 
    0.541755     0.686850     0.574107 
    0.279431     0.606114     0.530388 
    0.507399     0.277028     0.518354 
    0.386942     0.479503     0.574661 
    0.372210     0.329197     0.520246 
    0.488732     0.362449     0.651305 
    0.619297     0.384695     0.554522 
    0.680033     0.506062     0.638990 
    0.539665     0.527571     0.603652 
EA34278 15.212 15.596 14.542 90.00 90.00 90.00 Sym.group:    0
1.0
   15.212009     0.000000     0.000000
    0.000000    15.595971     0.000000
    0.000000     0.000000    14.542046
   W
  18
Direct
    0.568326     0.384269     0.602546 
    0.643785     0.624353     0.439635 
    0.683322     0.450913     0.473272 
    0.761305     0.578199     0.532112 
    0.572087     0.316481     0.443306 
    0.411107     0.338614     0.497510 
    0.496934     0.484048     0.484338 
    0.469907     0.378997     0.337468 
    0.593668     0.494224     0.339638 
    0.466932     0.612188     0.372597 
    0.329935     0.474804     0.548978 
    0.342831     0.627567     0.613590 
    0.321137     0.637775     0.456502 
    0.348527     0.494411     0.384311 
    0.416112     0.372046     0.664231 
    0.620807     0.555877     0.610340 
    0.459018     0.523262     0.665275 
    0.494260     0.651970     0.534351 
EA34403 17.046 16.641 13.034 90.00 90.00 90.00 Sym.group:    0
1.0
   17.045961     0.000000     0.000000
    0.000000    16.640743     0.000000
    0.000000     0.000000    13.034220
   W
  20
Direct
    0.572503     0.726370     0.503180 
    0.339200     0.675545     0.502831 
    0.265465     0.446399     0.517312 
    0.427406     0.273677     0.502948 
    0.661386     0.325160     0.499910 
    0.734903     0.553688     0.516257 
    0.653064     0.455640     0.412406 
    0.619294     0.606172     0.413414 
    0.466629     0.647365     0.406365 
    0.346372     0.544862     0.414223 
    0.380205     0.394831     0.413200 
    0.532714     0.352625     0.403766 
    0.346673     0.549112     0.605247 
    0.383345     0.390563     0.605069 
    0.535636     0.343041     0.596605 
    0.653497     0.450212     0.603673 
    0.617070     0.608811     0.604989 
    0.464689     0.656473     0.598897 
    0.499826     0.499630     0.344291 
    0.500123     0.499824     0.535419 
EA34707 15.619 14.699 15.098 90.00 90.00 90.00 Sym.group:    0
1.0
   15.618895     0.000000     0.000000
    0.000000    14.699025     0.000000
    0.000000     0.000000    15.098443
   W
  17
Direct
    0.667558     0.553600     0.538237 
    0.418838     0.644245     0.461679 
    0.561549     0.678339     0.561873 
    0.547314     0.563427     0.681125 
    0.483576     0.568504     0.323599 
    0.588616     0.656122     0.393850 
    0.643478     0.493500     0.388309 
    0.388358     0.297608     0.456295 
    0.643866     0.355512     0.487338 
    0.280318     0.565010     0.512092 
    0.368909     0.470521     0.409046 
    0.512962     0.377752     0.389203 
    0.627156     0.428551     0.634939 
    0.397245     0.587841     0.619119 
    0.359869     0.424604     0.571784 
    0.501106     0.331533     0.561929 
    0.509282     0.503329     0.509582 
EA34775 15.298 16.702 13.674 90.00 90.00 90.00 Sym.group:    0
1.0
   15.298231     0.000000     0.000000
    0.000000    16.702374     0.000000
    0.000000     0.000000    13.673926
   W
  20
Direct
    0.637672     0.668759     0.507632 
    0.531488     0.641376     0.352393 
    0.712073     0.538530     0.569306 
    0.579679     0.519579     0.453296 
    0.752096     0.388802     0.565775 
    0.580139     0.606845     0.653177 
    0.622031     0.342962     0.476322 
    0.609876     0.416753     0.329452 
    0.588527     0.442704     0.616933 
    0.744748     0.453191     0.413117 
    0.476731     0.667810     0.510182 
    0.312544     0.630968     0.476642 
    0.406244     0.538774     0.391413 
    0.311581     0.403198     0.384641 
    0.265751     0.542274     0.613889 
    0.305024     0.405176     0.567018 
    0.431365     0.523025     0.582035 
    0.448872     0.366350     0.635589 
    0.459403     0.389605     0.458498 
    0.224154     0.513321     0.442690 
EA34998 17.436 14.663 13.788 90.00 90.00 90.00 Sym.group:    0
1.0
   17.436393     0.000000     0.000000
    0.000000    14.663280     0.000000
    0.000000     0.000000    13.787570
   W
  20
Direct
    0.399270     0.706994     0.513179 
    0.493173     0.669196     0.361140 
    0.317648     0.565764     0.566678 
    0.430312     0.533063     0.446075 
    0.271145     0.400247     0.561747 
    0.436777     0.626904     0.652690 
    0.375578     0.340080     0.462005 
    0.387863     0.429701     0.319909 
    0.418046     0.442736     0.608965 
    0.275702     0.479801     0.412266 
    0.541460     0.684660     0.518565 
    0.680459     0.624630     0.489464 
    0.588524     0.537578     0.399044 
    0.656406     0.370880     0.386088 
    0.710624     0.515030     0.621132 
    0.657682     0.367518     0.565190 
    0.564513     0.515202     0.583072 
    0.526522     0.337086     0.626218 
    0.522837     0.372793     0.453350 
    0.745459     0.480135     0.453224 
EA35250 15.041 14.580 13.924 90.00 90.00 90.00 Sym.group:    0
1.0
   15.040620     0.000000     0.000000
    0.000000    14.580365     0.000000
    0.000000     0.000000    13.923579
   W
  19
Direct
    0.321895     0.516547     0.513744 
    0.682601     0.501015     0.488144 
    0.612984     0.667033     0.486858 
    0.335148     0.346040     0.461205 
    0.399434     0.677047     0.508877 
    0.650896     0.333632     0.543093 
    0.479179     0.650836     0.360058 
    0.504399     0.351717     0.414140 
    0.531027     0.651802     0.635889 
    0.484274     0.353994     0.588509 
    0.665665     0.360556     0.370428 
    0.313813     0.618321     0.365968 
    0.322861     0.376368     0.633364 
    0.694457     0.606341     0.630822 
    0.586928     0.502113     0.329129 
    0.404576     0.477059     0.346093 
    0.414578     0.511716     0.670141 
    0.593348     0.473150     0.654239 
    0.501938     0.524713     0.499298 
EA35519 16.382 15.430 13.974 90.00 90.00 90.00 Sym.group:    0
1.0
   16.381702     0.000000     0.000000
    0.000000    15.430301     0.000000
    0.000000     0.000000    13.973749
   W
  17
Direct
    0.468756     0.460811     0.591672 
    0.443936     0.319190     0.458304 
    0.436594     0.392417     0.314951 
    0.432519     0.614670     0.527267 
    0.281138     0.610265     0.482070 
    0.299373     0.529459     0.612309 
    0.349973     0.470624     0.434975 
    0.338862     0.377033     0.576218 
    0.598181     0.356923     0.514409 
    0.616223     0.425093     0.668344 
    0.719063     0.475915     0.559234 
    0.679528     0.437852     0.400353 
    0.555733     0.717700     0.517894 
    0.513575     0.647245     0.376766 
    0.589861     0.581461     0.601831 
    0.652002     0.597132     0.443687 
    0.524682     0.486211     0.419716 
EA35600 15.864 14.781 15.561 90.00 90.00 90.00 Sym.group:    0
1.0
   15.863700     0.000000     0.000000
    0.000000    14.780677     0.000000
    0.000000     0.000000    15.561459
   W
  20
Direct
    0.329211     0.626735     0.512409 
    0.453388     0.728860     0.499581 
    0.542837     0.669159     0.369555 
    0.536757     0.516950     0.281946 
    0.401553     0.437433     0.324446 
    0.295110     0.466308     0.445310 
    0.460487     0.467999     0.713336 
    0.601643     0.560844     0.680412 
    0.700941     0.549045     0.557136 
    0.678893     0.379166     0.481679 
    0.551658     0.277917     0.496558 
    0.449316     0.325605     0.632355 
    0.453472     0.612384     0.620999 
    0.590151     0.656301     0.534158 
    0.631456     0.529527     0.413436 
    0.553867     0.376944     0.370061 
    0.413170     0.354021     0.473488 
    0.353781     0.467507     0.592166 
    0.454356     0.546715     0.441291 
    0.547952     0.450581     0.559678 
EA35794 16.464 15.706 13.337 90.00 90.00 90.00 Sym.group:    0
1.0
   16.464166     0.000000     0.000000
    0.000000    15.706187     0.000000
    0.000000     0.000000    13.337337
   W
  20
Direct
    0.486006     0.406002     0.409783 
    0.554663     0.528568     0.522564 
    0.667380     0.470454     0.641005 
    0.600975     0.653495     0.617800 
    0.489165     0.699100     0.465974 
    0.638067     0.674689     0.443928 
    0.636388     0.428151     0.360180 
    0.560734     0.572088     0.336436 
    0.691834     0.358635     0.522571 
    0.705374     0.525601     0.472404 
    0.440492     0.623390     0.619392 
    0.402584     0.461058     0.580069 
    0.540341     0.371709     0.617560 
    0.412458     0.568070     0.414378 
    0.322911     0.427030     0.390118 
    0.338828     0.699537     0.520154 
    0.263863     0.382881     0.534324 
    0.288175     0.557373     0.527882 
    0.560732     0.281459     0.483312 
    0.399031     0.310708     0.520163 
EA35987 14.671 15.601 15.425 90.00 90.00 90.00 Sym.group:    0
1.0
   14.671259     0.000000     0.000000
    0.000000    15.600962     0.000000
    0.000000     0.000000    15.424543
   W
  20
Direct
    0.341201     0.492863     0.652405 
    0.325780     0.633398     0.564624 
    0.486494     0.701881     0.561726 
    0.647493     0.640227     0.596510 
    0.619361     0.501777     0.678619 
    0.478455     0.405445     0.700594 
    0.357153     0.351679     0.407695 
    0.379457     0.499209     0.321023 
    0.513065     0.597250     0.301472 
    0.659355     0.507187     0.346586 
    0.678893     0.371873     0.433644 
    0.512985     0.296059     0.439936 
    0.327920     0.493800     0.480472 
    0.408148     0.638460     0.423861 
    0.590070     0.628473     0.442614 
    0.688978     0.506123     0.518285 
    0.582550     0.375797     0.570845 
    0.401824     0.360200     0.564017 
    0.489070     0.540080     0.577104 
    0.511749     0.458218     0.417968 
EA36182 14.266 14.519 14.528 90.00 90.00 90.00 Sym.group:    0
1.0
   14.265618     0.000000     0.000000
    0.000000    14.519207     0.000000
    0.000000     0.000000    14.527840
   W
  20
Direct
    0.675392     0.510709     0.666830 
    0.670699     0.358879     0.566211 
    0.634715     0.325654     0.404838 
    0.646295     0.490494     0.323081 
    0.645468     0.648146     0.377203 
    0.678642     0.635410     0.557226 
    0.354178     0.510566     0.677271 
    0.356490     0.351497     0.625937 
    0.321325     0.365451     0.442461 
    0.327071     0.487367     0.330000 
    0.329399     0.641883     0.434653 
    0.362059     0.676661     0.592438 
    0.517809     0.399741     0.649839 
    0.488199     0.320836     0.491253 
    0.481883     0.418202     0.338325 
    0.482958     0.598189     0.352584 
    0.510750     0.680948     0.510237 
    0.517006     0.579735     0.659832 
    0.595716     0.496238     0.489905 
    0.403945     0.503395     0.509875 
EA36391 16.909 16.753 14.123 90.00 90.00 90.00 Sym.group:    0
1.0
   16.908731     0.000000     0.000000
    0.000000    16.752634     0.000000
    0.000000     0.000000    14.122659
   W
  20
Direct
    0.458638     0.413225     0.592340 
    0.550725     0.661446     0.548524 
    0.468826     0.638402     0.390987 
    0.410163     0.481989     0.419523 
    0.433126     0.577693     0.587053 
    0.313411     0.472320     0.598626 
    0.408020     0.724478     0.501606 
    0.264878     0.451171     0.450288 
    0.324822     0.604415     0.476570 
    0.369864     0.344373     0.481393 
    0.564531     0.510951     0.311768 
    0.618074     0.631108     0.388910 
    0.576284     0.527315     0.668333 
    0.517803     0.354226     0.397083 
    0.504751     0.277943     0.537889 
    0.706114     0.471282     0.673376 
    0.619965     0.386129     0.560997 
    0.652814     0.411827     0.390033 
    0.686046     0.552700     0.541000 
    0.551145     0.507009     0.483701 
EA36591 16.302 16.182 13.370 90.00 90.00 90.00 Sym.group:    0
1.0
   16.302400     0.000000     0.000000
    0.000000    16.181733     0.000000
    0.000000     0.000000    13.369940
   W
  20
Direct
    0.668846     0.658571     0.491194 
    0.554684     0.272578     0.507983 
    0.276223     0.566908     0.495726 
    0.431850     0.622372     0.452952 
    0.640803     0.494839     0.458327 
    0.426537     0.378461     0.463282 
    0.273964     0.415200     0.461545 
    0.685945     0.345328     0.466635 
    0.538355     0.736626     0.448386 
    0.633317     0.566821     0.633762 
    0.485032     0.354145     0.639938 
    0.380566     0.590125     0.629787 
    0.630955     0.398277     0.623459 
    0.527413     0.676693     0.608407 
    0.340170     0.439908     0.620476 
    0.564740     0.348486     0.356773 
    0.342927     0.516708     0.351011 
    0.597252     0.620619     0.345108 
    0.500245     0.495164     0.371487 
    0.500177     0.502169     0.573761 
EA36797 15.697 14.049 14.603 90.00 90.00 90.00 Sym.group:    0
1.0
   15.697081     0.000000     0.000000
    0.000000    14.049022     0.000000
    0.000000     0.000000    14.602873
   W
  20
Direct
    0.662460     0.385251     0.467422 
    0.351514     0.475089     0.348882 
    0.665461     0.570390     0.417973 
    0.364926     0.658917     0.559365 
    0.674082     0.524489     0.597543 
    0.359240     0.377929     0.607053 
    0.655946     0.686619     0.545581 
    0.380589     0.543931     0.684339 
    0.648296     0.352988     0.628396 
    0.366185     0.323836     0.444903 
    0.638687     0.445162     0.307359 
    0.373625     0.646059     0.383203 
    0.521313     0.673968     0.455518 
    0.524237     0.633111     0.628147 
    0.522387     0.455347     0.669557 
    0.509962     0.322739     0.546615 
    0.507939     0.370044     0.374956 
    0.508772     0.546982     0.324595 
    0.302347     0.506204     0.508296 
    0.462034     0.500943     0.500295 
EA36980 16.321 15.537 15.038 90.00 90.00 90.00 Sym.group:    0
1.0
   16.320520     0.000000     0.000000
    0.000000    15.537278     0.000000
    0.000000     0.000000    15.038204
   W
  20
Direct
    0.381189     0.393142     0.625346 
    0.364661     0.641835     0.576122 
    0.350444     0.462069     0.374654 
    0.363124     0.630456     0.395634 
    0.348273     0.327488     0.479313 
    0.418227     0.542843     0.683574 
    0.528023     0.631182     0.615173 
    0.474438     0.702280     0.468007 
    0.483354     0.553008     0.350561 
    0.307785     0.497310     0.527916 
    0.464703     0.501201     0.508616 
    0.459632     0.334394     0.381481 
    0.735032     0.485565     0.493562 
    0.662600     0.347837     0.540856 
    0.685559     0.597245     0.600702 
    0.683308     0.523384     0.347042 
    0.594592     0.473299     0.610555 
    0.601477     0.600223     0.460258 
    0.588034     0.423588     0.418934 
    0.505542     0.331650     0.541692 
EA37190 16.252 14.871 14.186 90.00 90.00 90.00 Sym.group:    0
1.0
   16.251613     0.000000     0.000000
    0.000000    14.870682     0.000000
    0.000000     0.000000    14.186144
   W
  20
Direct
    0.598500     0.417490     0.654951 
    0.638851     0.649442     0.550132 
    0.662709     0.439073     0.380851 
    0.638181     0.613629     0.370383 
    0.642774     0.318047     0.506076 
    0.581297     0.578071     0.692648 
    0.476820     0.658083     0.594974 
    0.523050     0.701150     0.425628 
    0.521049     0.517856     0.336443 
    0.694833     0.489591     0.544682 
    0.538801     0.507140     0.508336 
    0.544286     0.318235     0.385117 
    0.264460     0.490489     0.505225 
    0.334937     0.353754     0.568335 
    0.323315     0.621114     0.592304 
    0.306146     0.503650     0.341192 
    0.411390     0.488364     0.621445 
    0.397975     0.596634     0.437266 
    0.409580     0.412602     0.424935 
    0.491045     0.325584     0.559078 
EA37392 16.265 14.816 14.184 90.00 90.00 90.00 Sym.group:    0
1.0
   16.264983     0.000000     0.000000
    0.000000    14.816044     0.000000
    0.000000     0.000000    14.184177
   W
  20
Direct
    0.409264     0.433066     0.666978 
    0.367682     0.653862     0.537158 
    0.333703     0.437404     0.391670 
    0.364706     0.612046     0.360189 
    0.351785     0.323822     0.526773 
    0.428617     0.593988     0.687221 
    0.526664     0.665183     0.571801 
    0.484165     0.696529     0.398318 
    0.476628     0.507368     0.330348 
    0.308209     0.496522     0.557792 
    0.460221     0.508237     0.501807 
    0.444950     0.312082     0.401810 
    0.732994     0.483437     0.508719 
    0.657519     0.353873     0.582203 
    0.677799     0.623107     0.579985 
    0.695728     0.480507     0.344358 
    0.583780     0.495876     0.622471 
    0.605012     0.589666     0.422965 
    0.585970     0.406327     0.434875 
    0.504603     0.327098     0.572559 
EA37656 14.523 14.602 14.380 90.00 90.00 90.00 Sym.group:    0
1.0
   14.523052     0.000000     0.000000
    0.000000    14.602318     0.000000
    0.000000     0.000000    14.380485
   W
  18
Direct
    0.500126     0.657886     0.403619 
    0.349489     0.547461     0.403759 
    0.408876     0.374167     0.405173 
    0.591412     0.374112     0.405160 
    0.649231     0.546569     0.403069 
    0.498927     0.656875     0.595758 
    0.351959     0.547335     0.595486 
    0.408412     0.373770     0.594437 
    0.591499     0.372274     0.596576 
    0.649949     0.548075     0.595403 
    0.499904     0.260281     0.500309 
    0.727790     0.425352     0.500484 
    0.641318     0.691451     0.499347 
    0.357803     0.692331     0.499030 
    0.272465     0.425475     0.499332 
    0.494385     0.504816     0.304886 
    0.504680     0.499889     0.697753 
    0.501775     0.501882     0.500419 
EA37773 15.058 15.872 15.376 90.00 90.00 90.00 Sym.group:    0
1.0
   15.057830     0.000000     0.000000
    0.000000    15.872122     0.000000
    0.000000     0.000000    15.376393
   W
  20
Direct
    0.492536     0.429650     0.335265 
    0.433725     0.330288     0.467851 
    0.511288     0.589445     0.357854 
    0.657053     0.440798     0.356370 
    0.594218     0.310258     0.429560 
    0.588768     0.322238     0.583597 
    0.622290     0.461087     0.657170 
    0.630639     0.601207     0.583565 
    0.662796     0.586370     0.424022 
    0.530247     0.476316     0.492027 
    0.695262     0.438321     0.517016 
    0.297132     0.529153     0.596084 
    0.288004     0.390815     0.537164 
    0.509117     0.714507     0.594046 
    0.569256     0.715730     0.455443 
    0.249535     0.590054     0.459295 
    0.467037     0.562474     0.632488 
    0.413504     0.624307     0.488157 
    0.351950     0.484465     0.419678 
    0.435643     0.402515     0.613348 
EA37988 14.470 14.626 13.904 90.00 90.00 90.00 Sym.group:    0
1.0
   14.470253     0.000000     0.000000
    0.000000    14.626017     0.000000
    0.000000     0.000000    13.904015
   W
  20
Direct
    0.661892     0.408355     0.488712 
    0.337198     0.411388     0.484962 
    0.503402     0.679957     0.515887 
    0.338241     0.591284     0.510762 
    0.496553     0.319842     0.482016 
    0.666592     0.591855     0.515818 
    0.584494     0.629041     0.678041 
    0.582702     0.352046     0.650769 
    0.330694     0.485794     0.661540 
    0.601591     0.667916     0.368542 
    0.309995     0.511927     0.347779 
    0.589808     0.349043     0.335088 
    0.690544     0.484629     0.650015 
    0.398655     0.332130     0.631360 
    0.407860     0.652010     0.663989 
    0.415960     0.646388     0.350131 
    0.414874     0.370560     0.319933 
    0.670274     0.514365     0.341966 
    0.499771     0.494659     0.599984 
    0.498901     0.506810     0.402704 
EA38195 15.657 15.561 15.461 90.00 90.00 90.00 Sym.group:    0
1.0
   15.657042     0.000000     0.000000
    0.000000    15.561052     0.000000
    0.000000     0.000000    15.460585
   W
  20
Direct
    0.574299     0.449182     0.356976 
    0.343588     0.446299     0.537229 
    0.583179     0.605865     0.607078 
    0.424009     0.552922     0.647392 
    0.415069     0.393102     0.390405 
    0.662131     0.554967     0.462189 
    0.680666     0.467047     0.607969 
    0.553226     0.303730     0.440698 
    0.436566     0.383209     0.663492 
    0.589437     0.699041     0.474938 
    0.311052     0.603039     0.545572 
    0.441177     0.512174     0.286472 
    0.690393     0.397762     0.457645 
    0.411418     0.299418     0.521656 
    0.555917     0.488741     0.713214 
    0.446049     0.695744     0.559394 
    0.318785     0.532921     0.392111 
    0.563100     0.615309     0.335244 
    0.534926     0.430612     0.542480 
    0.465011     0.568914     0.457846 
EA38382 16.612 15.080 14.841 90.00 90.00 90.00 Sym.group:    0
1.0
   16.611736     0.000000     0.000000
    0.000000    15.079984     0.000000
    0.000000     0.000000    14.841378
   W
  20
Direct
    0.691632     0.651194     0.477802 
    0.569700     0.671066     0.397394 
    0.646721     0.525378     0.593597 
    0.565539     0.668295     0.573428 
    0.646246     0.316407     0.429882 
    0.519709     0.383842     0.389144 
    0.548609     0.377966     0.579415 
    0.707793     0.387164     0.543289 
    0.648405     0.502409     0.414865 
    0.506970     0.524592     0.505946 
    0.517312     0.537837     0.323863 
    0.401745     0.440143     0.606365 
    0.523485     0.504380     0.698907 
    0.304110     0.352489     0.514207 
    0.423898     0.620640     0.620804 
    0.290836     0.558406     0.559776 
    0.277825     0.581090     0.404601 
    0.404044     0.645014     0.452661 
    0.427237     0.290031     0.492463 
    0.378188     0.461656     0.421594 
EA38600 15.911 15.805 13.975 90.00 90.00 90.00 Sym.group:    0
1.0
   15.910521     0.000000     0.000000
    0.000000    15.805356     0.000000
    0.000000     0.000000    13.974896
   W
  20
Direct
    0.427191     0.500628     0.648787 
    0.295468     0.579404     0.426621 
    0.445039     0.581400     0.354324 
    0.347864     0.442320     0.375953 
    0.300505     0.581852     0.595515 
    0.314212     0.430183     0.541174 
    0.445785     0.630735     0.527193 
    0.432521     0.321762     0.630131 
    0.407321     0.300054     0.468582 
    0.567971     0.317283     0.491411 
    0.482498     0.452805     0.479733 
    0.580705     0.719043     0.546743 
    0.524818     0.712066     0.379518 
    0.666320     0.461723     0.525210 
    0.714295     0.614136     0.554750 
    0.560169     0.398311     0.649570 
    0.596988     0.438913     0.341298 
    0.587486     0.583200     0.632114 
    0.700727     0.351809     0.406023 
    0.602116     0.582370     0.425348 
EA38786 17.181 14.190 14.203 90.00 90.00 90.00 Sym.group:    0
1.0
   17.180897     0.000000     0.000000
    0.000000    14.189753     0.000000
    0.000000     0.000000    14.203271
   W
  20
Direct
    0.502035     0.343714     0.576809 
    0.508821     0.366647     0.401951 
    0.376818     0.439514     0.363871 
    0.341692     0.641843     0.426753 
    0.316337     0.624707     0.581959 
    0.289367     0.435172     0.606144 
    0.366238     0.325129     0.492819 
    0.261820     0.492158     0.456697 
    0.416349     0.489897     0.537043 
    0.576219     0.504000     0.507758 
    0.601470     0.475836     0.311477 
    0.703885     0.529168     0.590350 
    0.714574     0.507139     0.408371 
    0.543942     0.529433     0.671961 
    0.635650     0.386376     0.649922 
    0.653279     0.358542     0.475703 
    0.622883     0.646307     0.425225 
    0.470064     0.658494     0.536839 
    0.488739     0.577059     0.373507 
    0.609817     0.668865     0.604841 
EA39035 15.740 15.740 15.740 90.00 90.00 90.00 Sym.group:    0
1.0
   15.740290     0.000000     0.000000
    0.000000    15.740290     0.000000
    0.000000     0.000000    15.740290
   W
  19
Direct
    0.500426     0.499343     0.500139 
    0.442516     0.618962     0.382188 
    0.548803     0.379224     0.613473 
    0.557560     0.380398     0.383664 
    0.450806     0.620299     0.613530 
    0.339185     0.561542     0.506376 
    0.379501     0.451593     0.386070 
    0.560449     0.661613     0.494376 
    0.620774     0.548294     0.386213 
    0.438708     0.338968     0.494070 
    0.619026     0.558073     0.617054 
    0.661369     0.438512     0.506160 
    0.380692     0.442348     0.616880 
    0.284987     0.399511     0.501078 
    0.715950     0.600936     0.500959 
    0.398884     0.715540     0.498697 
    0.600735     0.284629     0.499098 
    0.500110     0.500223     0.293396 
    0.499518     0.499990     0.706579 
EA39186 16.989 14.351 14.187 90.00 90.00 90.00 Sym.group:    0
1.0
   16.989170     0.000000     0.000000
    0.000000    14.351218     0.000000
    0.000000     0.000000    14.186504
   W
  20
Direct
    0.495461     0.363973     0.606100 
    0.490309     0.350472     0.428637 
    0.626207     0.410343     0.381842 
    0.664417     0.618117     0.399982 
    0.685524     0.639788     0.556912 
    0.711005     0.469191     0.624195 
    0.631256     0.328588     0.534837 
    0.741415     0.484826     0.465574 
    0.585614     0.496455     0.538766 
    0.423262     0.505048     0.506127 
    0.395911     0.437616     0.318253 
    0.294020     0.547942     0.580577 
    0.282676     0.491092     0.406181 
    0.455230     0.562032     0.662322 
    0.360690     0.421723     0.668386 
    0.343380     0.359761     0.501082 
    0.378894     0.626608     0.394883 
    0.530641     0.658063     0.501794 
    0.512861     0.543171     0.358335 
    0.391227     0.685190     0.565218 
EA39436 16.894 14.903 14.630 90.00 90.00 90.00 Sym.group:    0
1.0
   16.894299     0.000000     0.000000
    0.000000    14.902728     0.000000
    0.000000     0.000000    14.629803
   W
  19
Direct
    0.596290     0.387720     0.558822 
    0.614309     0.420098     0.383587 
    0.729097     0.463627     0.500317 
    0.494781     0.424732     0.678915 
    0.480723     0.470634     0.318549 
    0.513499     0.300050     0.441220 
    0.443343     0.303948     0.587662 
    0.382228     0.380041     0.423317 
    0.349360     0.441754     0.578813 
    0.488948     0.491319     0.491129 
    0.724216     0.611505     0.537935 
    0.389369     0.671798     0.476907 
    0.282930     0.588586     0.560473 
    0.613504     0.548866     0.616933 
    0.435008     0.578294     0.627630 
    0.535714     0.667914     0.539089 
    0.331518     0.540672     0.408552 
    0.479042     0.628039     0.351280 
    0.616117     0.580404     0.418871 
EA39593 16.028 16.413 14.261 90.00 90.00 90.00 Sym.group:    0
1.0
   16.027788     0.000000     0.000000
    0.000000    16.413067     0.000000
    0.000000     0.000000    14.261322
   W
  20
Direct
    0.672887     0.401152     0.483440 
    0.533173     0.346332     0.394499 
    0.615924     0.267323     0.499663 
    0.612110     0.479465     0.343654 
    0.389377     0.387122     0.663468 
    0.262705     0.461214     0.437894 
    0.488800     0.500410     0.684208 
    0.535568     0.368372     0.594117 
    0.394324     0.382067     0.482737 
    0.658820     0.505056     0.615539 
    0.359595     0.519501     0.567338 
    0.591041     0.705946     0.450409 
    0.439112     0.637847     0.481242 
    0.424083     0.638803     0.664664 
    0.671188     0.577542     0.461054 
    0.566930     0.636884     0.605029 
    0.307949     0.582937     0.383639 
    0.532706     0.608958     0.337446 
    0.421610     0.490017     0.352340 
    0.522099     0.503052     0.497619 
EA39847 16.745 14.923 14.446 90.00 90.00 90.00 Sym.group:    0
1.0
   16.745089     0.000000     0.000000
    0.000000    14.923133     0.000000
    0.000000     0.000000    14.445574
   W
  19
Direct
    0.394501     0.389109     0.552551 
    0.378536     0.442396     0.376658 
    0.268297     0.479768     0.502941 
    0.502457     0.405289     0.673034 
    0.517269     0.490903     0.312736 
    0.469673     0.309838     0.419559 
    0.542893     0.292044     0.563701 
    0.608559     0.379997     0.407684 
    0.646869     0.421933     0.569397 
    0.508078     0.491574     0.490578 
    0.284820     0.624125     0.554119 
    0.624431     0.663458     0.490445 
    0.721532     0.563182     0.572114 
    0.392912     0.545158     0.624960 
    0.571914     0.561643     0.636237 
    0.478646     0.665949     0.556127 
    0.670379     0.535588     0.409162 
    0.529296     0.641054     0.358806 
    0.388940     0.596990     0.429193 
EA40109 15.184 14.483 15.387 90.00 90.00 90.00 Sym.group:    0
1.0
   15.184166     0.000000     0.000000
    0.000000    14.483060     0.000000
    0.000000     0.000000    15.386875
   W
  17
Direct
    0.513441     0.633858     0.626523 
    0.662553     0.480417     0.425783 
    0.556712     0.623622     0.356322 
    0.355282     0.633787     0.586154 
    0.462293     0.687608     0.469388 
    0.649721     0.518230     0.606284 
    0.642496     0.637048     0.482780 
    0.370522     0.559278     0.399167 
    0.489715     0.459296     0.331849 
    0.690437     0.364966     0.533312 
    0.365049     0.365275     0.392439 
    0.543266     0.345467     0.449188 
    0.312631     0.481162     0.520548 
    0.407633     0.327985     0.534681 
    0.425294     0.492375     0.657175 
    0.553511     0.384004     0.624152 
    0.499447     0.505620     0.504256 
EA40165 14.723 13.959 16.405 90.00 90.00 90.00 Sym.group:    0
1.0
   14.723435     0.000000     0.000000
    0.000000    13.959415     0.000000
    0.000000     0.000000    16.404725
   W
  20
Direct
    0.709018     0.668911     0.570631 
    0.740111     0.611378     0.443733 
    0.685557     0.494005     0.578401 
    0.536822     0.606498     0.611002 
    0.566009     0.693062     0.478844 
    0.596483     0.597781     0.362668 
    0.387560     0.632730     0.535294 
    0.420745     0.580560     0.392665 
    0.234536     0.562552     0.586579 
    0.380322     0.469107     0.596984 
    0.227387     0.408253     0.509346 
    0.543248     0.429730     0.660146 
    0.480615     0.306918     0.577062 
    0.374925     0.406652     0.440731 
    0.244500     0.561749     0.441988 
    0.524806     0.491382     0.494846 
    0.639032     0.320342     0.546622 
    0.514437     0.420600     0.328400 
    0.667342     0.436549     0.424004 
    0.526548     0.301242     0.420053 
EA40385 16.217 16.261 14.338 90.00 90.00 90.00 Sym.group:    0
1.0
   16.217454     0.000000     0.000000
    0.000000    16.261146     0.000000
    0.000000     0.000000    14.338427
   W
  20
Direct
    0.404423     0.322795     0.383713 
    0.700729     0.450802     0.396768 
    0.455460     0.629056     0.354828 
    0.553101     0.372892     0.394764 
    0.556114     0.530887     0.441882 
    0.406644     0.478009     0.412057 
    0.566576     0.705253     0.426078 
    0.687501     0.603157     0.473566 
    0.682422     0.347879     0.500935 
    0.455701     0.698342     0.532945 
    0.569588     0.513551     0.705495 
    0.588513     0.630199     0.605660 
    0.680612     0.485166     0.584411 
    0.449362     0.538725     0.588653 
    0.285904     0.526781     0.609233 
    0.336533     0.616596     0.473931 
    0.461632     0.275740     0.520109 
    0.540487     0.405343     0.570941 
    0.254075     0.474762     0.467416 
    0.364624     0.394068     0.556613 
EA40637 16.748 15.285 14.536 90.00 90.00 90.00 Sym.group:    0
1.0
   16.747983     0.000000     0.000000
    0.000000    15.284631     0.000000
    0.000000     0.000000    14.535560
   W
  19
Direct
    0.398101     0.566728     0.424668 
    0.470451     0.708746     0.448990 
    0.260982     0.490368     0.452736 
    0.703625     0.570568     0.420235 
    0.598105     0.650524     0.519522 
    0.678641     0.495812     0.563397 
    0.523898     0.442300     0.682060 
    0.581526     0.582694     0.672718 
    0.445851     0.619937     0.593981 
    0.294451     0.591550     0.564468 
    0.376053     0.457599     0.592051 
    0.520214     0.484911     0.509313 
    0.376431     0.391520     0.438964 
    0.516452     0.322666     0.402966 
    0.469639     0.310085     0.571098 
    0.605557     0.347452     0.569373 
    0.489559     0.443102     0.313459 
    0.553839     0.589511     0.366638 
    0.636626     0.433928     0.393361 
EA40776 16.571 14.874 14.905 90.00 90.00 90.00 Sym.group:    0
1.0
   16.570653     0.000000     0.000000
    0.000000    14.874437     0.000000
    0.000000     0.000000    14.904890
   W
  20
Direct
    0.571126     0.640167     0.441939 
    0.399049     0.674307     0.539768 
    0.538617     0.660065     0.608021 
    0.750052     0.473223     0.519712 
    0.685663     0.629128     0.533348 
    0.709339     0.535220     0.386550 
    0.648541     0.371787     0.453870 
    0.592848     0.487708     0.571599 
    0.467617     0.545725     0.692144 
    0.573127     0.299484     0.571016 
    0.335787     0.346121     0.560964 
    0.469089     0.354917     0.460402 
    0.325348     0.444925     0.425472 
    0.414906     0.592292     0.356177 
    0.425334     0.436816     0.300752 
    0.558910     0.479834     0.370586 
    0.453241     0.522751     0.505071 
    0.291210     0.604595     0.458687 
    0.459784     0.389383     0.640154 
    0.330412     0.511549     0.603768 
EA40989 16.712 14.857 15.166 90.00 90.00 90.00 Sym.group:    0
1.0
   16.712114     0.000000     0.000000
    0.000000    14.856782     0.000000
    0.000000     0.000000    15.165642
   W
  20
Direct
    0.577918     0.638176     0.452402 
    0.404139     0.678355     0.533623 
    0.536124     0.661123     0.612047 
    0.749041     0.467448     0.523954 
    0.685504     0.620963     0.548720 
    0.708073     0.531382     0.394823 
    0.645484     0.368939     0.461032 
    0.590287     0.485236     0.576292 
    0.457427     0.545516     0.686989 
    0.566401     0.299941     0.575011 
    0.329752     0.349982     0.549743 
    0.468924     0.357693     0.459073 
    0.330781     0.448971     0.416337 
    0.425195     0.593838     0.354701 
    0.434140     0.439637     0.297586 
    0.561196     0.479610     0.375253 
    0.454903     0.525195     0.506963 
    0.299571     0.608225     0.448580 
    0.450624     0.388546     0.634582 
    0.324516     0.511222     0.592289 
EA41224 16.746 14.080 14.080 90.00 90.00 90.00 Sym.group:    0
1.0
   16.745653     0.000000     0.000000
    0.000000    14.079817     0.000000
    0.000000     0.000000    14.079817
   W
  19
Direct
    0.304113     0.497746     0.498842 
    0.698205     0.502179     0.500049 
    0.387846     0.642427     0.539876 
    0.389323     0.537602     0.356856 
    0.388661     0.356231     0.461326 
    0.389243     0.460542     0.640380 
    0.610314     0.540247     0.359781 
    0.610037     0.639460     0.540928 
    0.610654     0.461361     0.639376 
    0.611759     0.362072     0.460710 
    0.499552     0.664500     0.409623 
    0.500678     0.407592     0.333549 
    0.501162     0.333589     0.592288 
    0.499957     0.592797     0.665896 
    0.502802     0.573777     0.247772 
    0.502183     0.249095     0.426795 
    0.500670     0.427188     0.750985 
    0.500022     0.751554     0.575281 
    0.492826     0.500038     0.499687 
EA41420 15.214 15.167 15.813 90.00 90.00 90.00 Sym.group:    0
1.0
   15.213677     0.000000     0.000000
    0.000000    15.167074     0.000000
    0.000000     0.000000    15.813335
   W
  19
Direct
    0.541234     0.491504     0.697084 
    0.456122     0.511738     0.295583 
    0.441665     0.608055     0.634141 
    0.633748     0.576927     0.597499 
    0.603794     0.382347     0.593845 
    0.415217     0.406494     0.629201 
    0.579842     0.588021     0.371981 
    0.395434     0.611900     0.409351 
    0.373281     0.424526     0.401201 
    0.557096     0.405177     0.365855 
    0.524803     0.674932     0.506305 
    0.675232     0.476731     0.468880 
    0.474809     0.324585     0.493954 
    0.331195     0.521530     0.536151 
    0.690621     0.647550     0.467821 
    0.641643     0.307978     0.460602 
    0.309779     0.346841     0.525351 
    0.351408     0.693555     0.535566 
    0.503077     0.499610     0.509628 
EA41617 16.034 15.806 14.652 90.00 90.00 90.00 Sym.group:    0
1.0
   16.033849     0.000000     0.000000
    0.000000    15.805934     0.000000
    0.000000     0.000000    14.652464
   W
  19
Direct
    0.661866     0.398094     0.473824 
    0.681236     0.538078     0.559891 
    0.633040     0.525625     0.373474 
    0.523829     0.350573     0.404976 
    0.414445     0.617929     0.414482 
    0.573830     0.642060     0.492262 
    0.495704     0.502971     0.301532 
    0.624182     0.672049     0.650130 
    0.535123     0.647287     0.312727 
    0.508669     0.492443     0.494482 
    0.294112     0.600679     0.530396 
    0.437626     0.625470     0.599492 
    0.262520     0.452853     0.541898 
    0.554284     0.245625     0.520713 
    0.561880     0.372144     0.601502 
    0.395658     0.475016     0.617845 
    0.364553     0.466223     0.421567 
    0.562891     0.540627     0.665974 
    0.414554     0.334254     0.522832 
EA41765 17.622 16.206 13.199 90.00 90.00 90.00 Sym.group:    0
1.0
   17.622392     0.000000     0.000000
    0.000000    16.205819     0.000000
    0.000000     0.000000    13.198867
   W
  20
Direct
    0.669555     0.392232     0.389174 
    0.401558     0.619398     0.576196 
    0.433719     0.679075     0.411846 
    0.520423     0.713358     0.566115 
    0.549441     0.587267     0.432553 
    0.551081     0.597734     0.656091 
    0.660618     0.619884     0.534419 
    0.745229     0.502230     0.507242 
    0.610780     0.457309     0.557719 
    0.682454     0.534295     0.352775 
    0.278984     0.595919     0.484716 
    0.275608     0.453846     0.401215 
    0.312880     0.471155     0.570926 
    0.415982     0.334897     0.623637 
    0.404947     0.524761     0.400420 
    0.395863     0.357977     0.448006 
    0.465881     0.472733     0.572273 
    0.539004     0.438429     0.376443 
    0.533613     0.308082     0.481976 
    0.552383     0.339422     0.656258 
EA42091 14.861 14.637 14.768 90.00 90.00 90.00 Sym.group:    0
1.0
   14.860953     0.000000     0.000000
    0.000000    14.637490     0.000000
    0.000000     0.000000    14.767672
   W
  17
Direct
    0.500693     0.500513     0.500797 
    0.652906     0.531614     0.620678 
    0.676476     0.410355     0.513997 
    0.361735     0.548135     0.359757 
    0.298551     0.502172     0.498711 
    0.503898     0.676602     0.402283 
    0.566862     0.368056     0.365855 
    0.533116     0.316118     0.518483 
    0.391995     0.488096     0.668190 
    0.373565     0.363570     0.553228 
    0.525541     0.524634     0.316100 
    0.607220     0.672323     0.521780 
    0.503884     0.608589     0.662452 
    0.657039     0.545602     0.418734 
    0.404600     0.640990     0.529656 
    0.540309     0.416730     0.663270 
    0.401605     0.385902     0.386027 
EA42206 15.688 15.261 14.556 90.00 90.00 90.00 Sym.group:    0
1.0
   15.688077     0.000000     0.000000
    0.000000    15.261445     0.000000
    0.000000     0.000000    14.556351
   W
  19
Direct
    0.692639     0.495228     0.465269 
    0.637083     0.364996     0.556972 
    0.593561     0.401040     0.367950 
    0.597514     0.616040     0.399140 
    0.360587     0.446098     0.419864 
    0.487781     0.334195     0.491457 
    0.488469     0.501514     0.300180 
    0.514021     0.283607     0.653787 
    0.442307     0.351847     0.312703 
    0.512167     0.501774     0.494901 
    0.268738     0.528726     0.539386 
    0.381542     0.424816     0.603448 
    0.321951     0.675280     0.549254 
    0.687759     0.689923     0.510569 
    0.630336     0.575998     0.596259 
    0.426106     0.580338     0.621425 
    0.398735     0.606731     0.424561 
    0.537776     0.430919     0.668163 
    0.520928     0.690931     0.524712 
EA42353 16.217 15.576 15.074 90.00 90.00 90.00 Sym.group:    0
1.0
   16.217311     0.000000     0.000000
    0.000000    15.576164     0.000000
    0.000000     0.000000    15.073525
   W
  20
Direct
    0.559575     0.301135     0.589909 
    0.492821     0.396502     0.683702 
    0.556034     0.477827     0.561135 
    0.433544     0.347060     0.511884 
    0.696228     0.565358     0.536352 
    0.622814     0.706967     0.556157 
    0.596050     0.600444     0.662336 
    0.570424     0.492485     0.308501 
    0.588523     0.613561     0.423276 
    0.571905     0.371335     0.414510 
    0.703465     0.489700     0.378999 
    0.688356     0.396811     0.509173 
    0.451002     0.502845     0.419917 
    0.273092     0.391355     0.520620 
    0.316563     0.649344     0.545761 
    0.474908     0.637015     0.551769 
    0.341827     0.375326     0.386882 
    0.395571     0.659732     0.414257 
    0.376714     0.494634     0.584795 
    0.290585     0.530562     0.440065 
EA42563 16.457 15.456 14.136 90.00 90.00 90.00 Sym.group:    0
1.0
   16.457262     0.000000     0.000000
    0.000000    15.455657     0.000000
    0.000000     0.000000    14.135546
   W
  20
Direct
    0.687721     0.413973     0.582748 
    0.659882     0.571548     0.620438 
    0.529741     0.578570     0.698155 
    0.522983     0.663953     0.546505 
    0.541989     0.482802     0.535761 
    0.568233     0.306929     0.551427 
    0.428050     0.375763     0.593377 
    0.378660     0.689185     0.507725 
    0.399051     0.553227     0.609508 
    0.289649     0.442434     0.611754 
    0.657826     0.646760     0.467775 
    0.710083     0.495445     0.445911 
    0.607229     0.369434     0.404665 
    0.275378     0.536044     0.477987 
    0.416116     0.549812     0.412064 
    0.471074     0.690920     0.367052 
    0.481080     0.401929     0.324508 
    0.566132     0.555719     0.367908 
    0.351395     0.394541     0.443512 
    0.457727     0.281014     0.431220 
EA42772 16.264 15.432 14.163 90.00 90.00 90.00 Sym.group:    0
1.0
   16.264342     0.000000     0.000000
    0.000000    15.432419     0.000000
    0.000000     0.000000    14.163453
   W
  20
Direct
    0.633376     0.323100     0.580938 
    0.703645     0.407206     0.426963 
    0.607843     0.521635     0.360375 
    0.604633     0.679783     0.381131 
    0.679118     0.609785     0.508828 
    0.584446     0.329974     0.390858 
    0.584430     0.467046     0.529067 
    0.494658     0.310293     0.542461 
    0.347905     0.356442     0.458767 
    0.294266     0.488097     0.374273 
    0.461208     0.441147     0.395970 
    0.401306     0.609467     0.664704 
    0.269572     0.467105     0.550939 
    0.541658     0.417214     0.694674 
    0.590252     0.722399     0.554792 
    0.407603     0.582502     0.340829 
    0.490196     0.608526     0.489561 
    0.553707     0.589790     0.652826 
    0.328171     0.604992     0.512138 
    0.422009     0.463497     0.589907 
EA43073 14.941 14.812 14.810 90.00 90.00 90.00 Sym.group:    0
1.0
   14.941299     0.000000     0.000000
    0.000000    14.812455     0.000000
    0.000000     0.000000    14.810112
   W
  17
Direct
    0.499973     0.500089     0.499681 
    0.357547     0.393527     0.409555 
    0.354682     0.556996     0.387146 
    0.688893     0.553503     0.538342 
    0.607971     0.492330     0.667703 
    0.664647     0.446328     0.412872 
    0.475799     0.676768     0.422072 
    0.344995     0.624266     0.547244 
    0.460860     0.410909     0.661333 
    0.433936     0.581347     0.669620 
    0.612762     0.609455     0.375945 
    0.529170     0.354247     0.381263 
    0.465309     0.311764     0.525112 
    0.495235     0.510613     0.316540 
    0.625665     0.372683     0.556995 
    0.332456     0.457219     0.559868 
    0.550099     0.647956     0.568707 
EA43276 14.739 14.741 14.654 90.00 90.00 90.00 Sym.group:    0
1.0
   14.738625     0.000000     0.000000
    0.000000    14.740751     0.000000
    0.000000     0.000000    14.653527
   W
  17
Direct
    0.501203     0.501229     0.499268 
    0.565345     0.594375     0.658497 
    0.611049     0.437847     0.650585 
    0.355305     0.424799     0.376022 
    0.454889     0.535126     0.307865 
    0.305805     0.489283     0.523747 
    0.547399     0.317962     0.543503 
    0.693755     0.429275     0.493372 
    0.561468     0.641921     0.389226 
    0.643346     0.489496     0.355580 
    0.385638     0.337793     0.541412 
    0.394664     0.592923     0.627982 
    0.482560     0.697221     0.529465 
    0.444896     0.428409     0.665977 
    0.370169     0.613009     0.430611 
    0.659279     0.593878     0.521694 
    0.523233     0.375455     0.385195 
EA43398 15.285 14.469 16.380 90.00 90.00 90.00 Sym.group:    0
1.0
   15.284963     0.000000     0.000000
    0.000000    14.469419     0.000000
    0.000000     0.000000    16.380361
   W
  19
Direct
    0.666171     0.520133     0.430296 
    0.406461     0.659754     0.524267 
    0.345068     0.435665     0.429878 
    0.438604     0.572713     0.381583 
    0.538232     0.409001     0.381640 
    0.575566     0.577984     0.314038 
    0.572592     0.665179     0.460448 
    0.425175     0.292531     0.445453 
    0.281797     0.600633     0.442829 
    0.713563     0.632721     0.540762 
    0.683050     0.349427     0.452119 
    0.551407     0.322557     0.535002 
    0.508017     0.501115     0.516510 
    0.580202     0.617460     0.615405 
    0.665804     0.461978     0.579935 
    0.497658     0.411277     0.664069 
    0.409551     0.557117     0.646719 
    0.370115     0.381750     0.570847 
    0.270968     0.531001     0.568204 
EA43605 15.496 15.427 14.344 90.00 90.00 90.00 Sym.group:    0
1.0
   15.495745     0.000000     0.000000
    0.000000    15.426609     0.000000
    0.000000     0.000000    14.343750
   W
  19
Direct
    0.630743     0.578563     0.377986 
    0.347130     0.572652     0.410759 
    0.497937     0.336121     0.400670 
    0.409743     0.280705     0.542549 
    0.741505     0.538178     0.494184 
    0.343444     0.689403     0.528251 
    0.471894     0.674151     0.635679 
    0.410374     0.388842     0.683406 
    0.668314     0.472107     0.642314 
    0.395141     0.439768     0.309684 
    0.573623     0.446668     0.291300 
    0.475089     0.565693     0.281360 
    0.640373     0.618551     0.575202 
    0.349280     0.560532     0.612056 
    0.538403     0.331715     0.607724 
    0.591139     0.451092     0.481768 
    0.492373     0.604317     0.476755 
    0.412667     0.440847     0.500641 
    0.510829     0.510094     0.647714 
EA43764 16.314 15.529 14.404 90.00 90.00 90.00 Sym.group:    0
1.0
   16.314422     0.000000     0.000000
    0.000000    15.529321     0.000000
    0.000000     0.000000    14.404296
   W
  20
Direct
    0.380852     0.637587     0.441495 
    0.459704     0.565543     0.319718 
    0.516572     0.537829     0.673998 
    0.642348     0.623416     0.625196 
    0.618744     0.449313     0.589558 
    0.697094     0.421072     0.417005 
    0.601713     0.576467     0.439057 
    0.733239     0.539413     0.528985 
    0.505454     0.660073     0.551934 
    0.514521     0.699908     0.379053 
    0.365962     0.606749     0.632432 
    0.357045     0.426910     0.370925 
    0.329282     0.359052     0.513638 
    0.611829     0.311802     0.490091 
    0.471202     0.328765     0.419936 
    0.376938     0.455730     0.661364 
    0.487912     0.355983     0.598319 
    0.562896     0.434274     0.346809 
    0.298580     0.516324     0.504779 
    0.468108     0.493791     0.495709 
EA44042 14.829 14.835 14.250 90.00 90.00 90.00 Sym.group:    0
1.0
   14.828849     0.000000     0.000000
    0.000000    14.835120     0.000000
    0.000000     0.000000    14.250157
   W
  18
Direct
    0.499902     0.499170     0.322606 
    0.604484     0.628117     0.404374 
    0.410167     0.638646     0.404227 
    0.340108     0.458259     0.404393 
    0.491262     0.334339     0.404784 
    0.654972     0.439391     0.404921 
    0.490358     0.351373     0.596215 
    0.640212     0.445922     0.595945 
    0.595327     0.615130     0.594724 
    0.419606     0.625270     0.596046 
    0.354469     0.461980     0.595188 
    0.499649     0.500694     0.499619 
    0.514493     0.736377     0.494153 
    0.278530     0.587987     0.494830 
    0.348575     0.316424     0.493003 
    0.627509     0.300597     0.495852 
    0.730592     0.559980     0.492960 
    0.499784     0.500343     0.706157 
EA44151 15.799 14.949 14.584 90.00 90.00 90.00 Sym.group:    0
1.0
   15.798762     0.000000     0.000000
    0.000000    14.948660     0.000000
    0.000000     0.000000    14.584470
   W
  20
Direct
    0.630647     0.357848     0.350671 
    0.543864     0.302851     0.472252 
    0.700059     0.370144     0.497409 
    0.492574     0.481583     0.511027 
    0.643581     0.522785     0.403513 
    0.512087     0.626981     0.380005 
    0.618643     0.676562     0.639702 
    0.640481     0.682915     0.471180 
    0.481773     0.662254     0.543735 
    0.652344     0.523384     0.570811 
    0.524633     0.553767     0.683407 
    0.586176     0.370568     0.615495 
    0.422771     0.392558     0.649817 
    0.320355     0.489406     0.437676 
    0.349924     0.661165     0.437649 
    0.481134     0.444309     0.350402 
    0.378409     0.338812     0.496559 
    0.364612     0.557006     0.594785 
    0.275758     0.413542     0.590539 
    0.380172     0.571562     0.303364 
EA44352 17.350 16.798 12.664 90.00 90.00 90.00 Sym.group:    0
1.0
   17.349653     0.000000     0.000000
    0.000000    16.797903     0.000000
    0.000000     0.000000    12.663638
   W
  20
Direct
    0.272874     0.541173     0.501827 
    0.357344     0.313480     0.501683 
    0.584532     0.271311     0.521484 
    0.727116     0.458430     0.501083 
    0.642312     0.685757     0.499366 
    0.414481     0.727716     0.519195 
    0.619555     0.392198     0.410507 
    0.635086     0.551243     0.400453 
    0.519633     0.659859     0.410588 
    0.380915     0.607055     0.410592 
    0.364711     0.448355     0.400407 
    0.481742     0.340444     0.412497 
    0.476044     0.341216     0.608622 
    0.622147     0.399043     0.609404 
    0.641966     0.557933     0.598470 
    0.524198     0.660075     0.607625 
    0.378731     0.602822     0.607913 
    0.357186     0.442598     0.598456 
    0.499553     0.500385     0.538753 
    0.499873     0.498904     0.341073 
EA44663 16.139 16.077 12.487 90.00 90.00 90.00 Sym.group:    0
1.0
   16.139341     0.000000     0.000000
    0.000000    16.076920     0.000000
    0.000000     0.000000    12.486880
   W
  17
Direct
    0.661386     0.654962     0.489615 
    0.404958     0.703354     0.487293 
    0.276852     0.473836     0.490601 
    0.459778     0.278606     0.490793 
    0.697107     0.392771     0.488132 
    0.526653     0.644482     0.386298 
    0.369618     0.569014     0.386905 
    0.394275     0.398081     0.389248 
    0.561635     0.367884     0.388009 
    0.644751     0.519748     0.387435 
    0.394250     0.398121     0.592235 
    0.565188     0.367077     0.592752 
    0.645707     0.519658     0.591249 
    0.525069     0.644709     0.590994 
    0.371755     0.570784     0.591648 
    0.499830     0.500367     0.473081 
    0.501189     0.496548     0.683714 
EA44900 16.181 15.742 12.402 90.00 90.00 90.00 Sym.group:    0
1.0
   16.180857     0.000000     0.000000
    0.000000    15.742311     0.000000
    0.000000     0.000000    12.402316
   W
  16
Direct
    0.338049     0.458759     0.613055 
    0.541866     0.653538     0.579813 
    0.622167     0.378496     0.545726 
    0.688963     0.616412     0.507453 
    0.515438     0.273843     0.430104 
    0.266291     0.517999     0.475215 
    0.379298     0.620922     0.570512 
    0.646045     0.517918     0.640032 
    0.473908     0.323596     0.591861 
    0.493744     0.495438     0.563823 
    0.383511     0.385349     0.447401 
    0.453516     0.706992     0.433821 
    0.695006     0.479195     0.428909 
    0.559210     0.592158     0.390939 
    0.540617     0.426694     0.386031 
    0.402372     0.552692     0.395305 
EA44947 16.541 14.755 13.746 90.00 90.00 90.00 Sym.group:    0
1.0
   16.541217     0.000000     0.000000
    0.000000    14.755193     0.000000
    0.000000     0.000000    13.746240
   W
  20
Direct
    0.432083     0.503558     0.500645 
    0.277913     0.490692     0.490305 
    0.360443     0.336243     0.520380 
    0.397298     0.443347     0.660292 
    0.500053     0.279700     0.450735 
    0.412183     0.389149     0.362228 
    0.493856     0.570193     0.333525 
    0.317383     0.593189     0.629246 
    0.338545     0.544403     0.337492 
    0.368944     0.655375     0.472165 
    0.530248     0.654983     0.490493 
    0.640592     0.595063     0.347248 
    0.570306     0.434188     0.421384 
    0.719074     0.472626     0.434461 
    0.729116     0.519111     0.613940 
    0.681152     0.642567     0.510497 
    0.672685     0.370981     0.563355 
    0.576812     0.521457     0.605237 
    0.459491     0.627346     0.654519 
    0.521826     0.355827     0.601855 
EA45134 13.871 14.047 11.651 90.00 90.00 90.00 Sym.group:    0
1.0
   13.870833     0.000000     0.000000
    0.000000    14.047279     0.000000
    0.000000     0.000000    11.651052
   W
  20
Direct
    0.686854     0.459888     0.681364 
    0.621629     0.630815     0.686086 
    0.444023     0.679541     0.680998 
    0.323434     0.539849     0.687807 
    0.369013     0.361274     0.683295 
    0.554154     0.329247     0.684382 
    0.678113     0.461492     0.312650 
    0.629091     0.638166     0.318257 
    0.445992     0.672444     0.315098 
    0.313211     0.542268     0.319137 
    0.377055     0.367917     0.310522 
    0.555457     0.322041     0.316242 
    0.643822     0.369749     0.499973 
    0.685893     0.557035     0.501288 
    0.541827     0.687110     0.501622 
    0.357086     0.630850     0.500573 
    0.314161     0.439607     0.501369 
    0.459181     0.311741     0.499856 
    0.499459     0.497490     0.386655 
    0.500545     0.501477     0.612827 
EA45342 16.585 15.057 14.889 90.00 90.00 90.00 Sym.group:    0
1.0
   16.584575     0.000000     0.000000
    0.000000    15.056617     0.000000
    0.000000     0.000000    14.888530
   W
  20
Direct
    0.537974     0.707345     0.554534 
    0.347702     0.441133     0.636189 
    0.432733     0.575866     0.561423 
    0.267536     0.543950     0.553313 
    0.262133     0.495050     0.401915 
    0.307565     0.377588     0.495035 
    0.361508     0.625829     0.430112 
    0.421645     0.476953     0.396689 
    0.521746     0.635067     0.403864 
    0.547415     0.499720     0.295012 
    0.600771     0.318814     0.575285 
    0.464359     0.351002     0.518369 
    0.664868     0.493941     0.615953 
    0.518274     0.449168     0.650790 
    0.572975     0.360339     0.390138 
    0.698099     0.391105     0.473819 
    0.560117     0.494887     0.486581 
    0.572145     0.609977     0.674116 
    0.676032     0.524534     0.371870 
    0.664405     0.627731     0.514993 
EA45575 16.191 15.571 15.015 90.00 90.00 90.00 Sym.group:    0
1.0
   16.190770     0.000000     0.000000
    0.000000    15.571039     0.000000
    0.000000     0.000000    15.015263
   W
  19
Direct
    0.447174     0.406364     0.324050 
    0.692347     0.497353     0.401701 
    0.586928     0.585165     0.334408 
    0.338206     0.671611     0.508524 
    0.486852     0.724494     0.544510 
    0.610431     0.624936     0.497656 
    0.460826     0.643634     0.407356 
    0.357521     0.508737     0.426175 
    0.349161     0.343834     0.409491 
    0.303538     0.541824     0.578211 
    0.396703     0.400596     0.560228 
    0.536137     0.324797     0.625056 
    0.501349     0.316342     0.458520 
    0.470457     0.445277     0.698556 
    0.601884     0.490217     0.625027 
    0.459378     0.571793     0.589329 
    0.644182     0.383717     0.514372 
    0.733866     0.537241     0.545247 
    0.523061     0.482067     0.451582 
EA45861 15.455 15.132 13.906 90.00 90.00 90.00 Sym.group:    0
1.0
   15.454646     0.000000     0.000000
    0.000000    15.132481     0.000000
    0.000000     0.000000    13.906448
   W
  17
Direct
    0.491717     0.637364     0.452174 
    0.651347     0.485004     0.644888 
    0.685118     0.473486     0.479227 
    0.629100     0.627274     0.572828 
    0.560236     0.506425     0.344232 
    0.586227     0.335108     0.427414 
    0.660420     0.624691     0.404501 
    0.605974     0.331224     0.583404 
    0.422661     0.404815     0.385167 
    0.432265     0.334706     0.559652 
    0.476037     0.615945     0.657171 
    0.350039     0.541256     0.454203 
    0.362112     0.668087     0.574357 
    0.423690     0.560713     0.294003 
    0.293674     0.385994     0.508197 
    0.360409     0.488118     0.625951 
    0.508973     0.479791     0.532631 
EA46065 15.369 14.629 14.470 90.00 90.00 90.00 Sym.group:    0
1.0
   15.368562     0.000000     0.000000
    0.000000    14.628610     0.000000
    0.000000     0.000000    14.470311
   W
  17
Direct
    0.491031     0.638088     0.445974 
    0.362041     0.479777     0.644288 
    0.322421     0.447681     0.491306 
    0.343493     0.625352     0.561912 
    0.436719     0.486880     0.355405 
    0.434421     0.313508     0.442408 
    0.322389     0.602015     0.406823 
    0.423752     0.319076     0.594281 
    0.589889     0.405781     0.390168 
    0.593593     0.340718     0.560799 
    0.499851     0.621105     0.639219 
    0.644434     0.560341     0.448151 
    0.616760     0.688607     0.562983 
    0.563573     0.562120     0.298137 
    0.719236     0.413361     0.507826 
    0.638375     0.518265     0.620361 
    0.498021     0.477322     0.529957 
EA46145 15.551 14.508 14.240 90.00 90.00 90.00 Sym.group:    0
1.0
   15.551018     0.000000     0.000000
    0.000000    14.507836     0.000000
    0.000000     0.000000    14.239602
   W
  20
Direct
    0.341186     0.444353     0.654033 
    0.360266     0.320595     0.541133 
    0.362180     0.390961     0.379320 
    0.367497     0.565632     0.340683 
    0.324300     0.647485     0.496059 
    0.521460     0.497895     0.317714 
    0.494056     0.649280     0.410851 
    0.465172     0.666021     0.584649 
    0.437015     0.498068     0.505243 
    0.275940     0.487503     0.505908 
    0.522222     0.353265     0.421524 
    0.508404     0.359790     0.600774 
    0.501427     0.523954     0.683368 
    0.630845     0.614771     0.655895 
    0.618161     0.697635     0.509722 
    0.662510     0.580055     0.353627 
    0.673237     0.419431     0.353319 
    0.674999     0.348997     0.519349 
    0.652657     0.420404     0.661360 
    0.606467     0.513907     0.505466 
EA46350 15.294 14.217 14.229 90.00 90.00 90.00 Sym.group:    0
1.0
   15.293764     0.000000     0.000000
    0.000000    14.216784     0.000000
    0.000000     0.000000    14.229031
   W
  20
Direct
    0.360348     0.360344     0.392699 
    0.357002     0.320790     0.558575 
    0.341213     0.473386     0.646787 
    0.353475     0.649170     0.572258 
    0.331812     0.635594     0.405217 
    0.504332     0.601754     0.655279 
    0.495082     0.680978     0.485729 
    0.483280     0.590027     0.329749 
    0.439068     0.499773     0.487853 
    0.277863     0.484361     0.481493 
    0.501834     0.419638     0.642810 
    0.511568     0.317022     0.493414 
    0.522812     0.420327     0.336647 
    0.657554     0.509046     0.328716 
    0.624580     0.666090     0.383988 
    0.644010     0.652576     0.597857 
    0.653593     0.508007     0.686996 
    0.666483     0.361975     0.589063 
    0.662616     0.339699     0.425047 
    0.611475     0.509444     0.499823 
EA46565 16.582 16.197 14.387 90.00 90.00 90.00 Sym.group:    0
1.0
   16.581934     0.000000     0.000000
    0.000000    16.196786     0.000000
    0.000000     0.000000    14.387071
   W
  20
Direct
    0.540310     0.326352     0.384595 
    0.523495     0.626038     0.361927 
    0.459774     0.472425     0.343613 
    0.538212     0.617261     0.538430 
    0.438237     0.728141     0.436932 
    0.683390     0.619662     0.467007 
    0.609538     0.499398     0.401167 
    0.643389     0.501302     0.604469 
    0.754573     0.502282     0.501828 
    0.648878     0.376055     0.496211 
    0.324078     0.434224     0.543874 
    0.514241     0.301086     0.544503 
    0.509084     0.510855     0.701424 
    0.384659     0.555523     0.628543 
    0.384183     0.578225     0.450617 
    0.391567     0.343184     0.436489 
    0.416754     0.702354     0.591033 
    0.310056     0.459701     0.369288 
    0.431316     0.392198     0.676314 
    0.494264     0.453736     0.521734 
EA46771 16.172 15.000 14.631 90.00 90.00 90.00 Sym.group:    0
1.0
   16.171891     0.000000     0.000000
    0.000000    14.999640     0.000000
    0.000000     0.000000    14.631086
   W
  20
Direct
    0.564547     0.650937     0.602057 
    0.566509     0.512769     0.488238 
    0.663455     0.536967     0.338057 
    0.541292     0.637414     0.380906 
    0.665371     0.662300     0.477107 
    0.546682     0.455229     0.303619 
    0.664329     0.390039     0.442096 
    0.609472     0.354469     0.596566 
    0.704086     0.524103     0.562803 
    0.510703     0.342778     0.438815 
    0.595071     0.505000     0.678739 
    0.414382     0.492439     0.406255 
    0.457707     0.455767     0.601642 
    0.425835     0.638846     0.514422 
    0.287330     0.610183     0.438877 
    0.297722     0.521808     0.574041 
    0.346573     0.367124     0.501222 
    0.469035     0.286705     0.586601 
    0.264926     0.460476     0.395151 
    0.404972     0.594651     0.672784 
EA46960 17.032 14.472 14.910 90.00 90.00 90.00 Sym.group:    0
1.0
   17.032238     0.000000     0.000000
    0.000000    14.472017     0.000000
    0.000000     0.000000    14.910145
   W
  20
Direct
    0.376429     0.516421     0.422449 
    0.450098     0.320910     0.570184 
    0.393191     0.481688     0.626187 
    0.324806     0.376685     0.505725 
    0.409256     0.637839     0.552828 
    0.508223     0.602551     0.674496 
    0.262125     0.530248     0.558179 
    0.510955     0.612651     0.392571 
    0.288910     0.653894     0.465886 
    0.456187     0.489429     0.282506 
    0.584167     0.457495     0.362353 
    0.662254     0.609789     0.386614 
    0.573954     0.661321     0.540491 
    0.717657     0.614306     0.529370 
    0.519537     0.478954     0.524421 
    0.636543     0.513537     0.629375 
    0.682064     0.441016     0.488853 
    0.598098     0.299717     0.467780 
    0.589274     0.340446     0.619039 
    0.456271     0.361103     0.400692 
EA47148 15.969 15.453 15.060 90.00 90.00 90.00 Sym.group:    0
1.0
   15.969285     0.000000     0.000000
    0.000000    15.452674     0.000000
    0.000000     0.000000    15.059698
   W
  20
Direct
    0.599940     0.567293     0.428761 
    0.660517     0.644081     0.589081 
    0.425409     0.635578     0.412518 
    0.592626     0.722078     0.471830 
    0.289359     0.527316     0.492889 
    0.405476     0.509952     0.652096 
    0.346053     0.516565     0.337854 
    0.351153     0.655456     0.561724 
    0.509220     0.643493     0.576564 
    0.449278     0.497066     0.492704 
    0.496283     0.484701     0.316282 
    0.716036     0.421444     0.467741 
    0.601696     0.486041     0.584149 
    0.651825     0.446546     0.320670 
    0.555501     0.372193     0.424771 
    0.529784     0.427413     0.719502 
    0.477859     0.351070     0.596641 
    0.378361     0.373073     0.418256 
    0.326594     0.389020     0.572244 
    0.637029     0.329622     0.563723 
EA47368 16.914 15.717 14.317 90.00 90.00 90.00 Sym.group:    0
1.0
   16.914028     0.000000     0.000000
    0.000000    15.716742     0.000000
    0.000000     0.000000    14.317002
   W
  20
Direct
    0.257778     0.545115     0.509350 
    0.329922     0.613185     0.389654 
    0.436842     0.512366     0.342336 
    0.487533     0.346136     0.359721 
    0.423463     0.315821     0.507362 
    0.538318     0.622417     0.403887 
    0.602966     0.461507     0.385733 
    0.713740     0.394130     0.468011 
    0.491971     0.461146     0.508027 
    0.341013     0.433147     0.434864 
    0.418664     0.604788     0.524635 
    0.350394     0.476898     0.616995 
    0.585758     0.312102     0.482806 
    0.622519     0.429538     0.597905 
    0.689767     0.566811     0.474907 
    0.632839     0.717596     0.468701 
    0.522205     0.724667     0.570857 
    0.478245     0.507458     0.694708 
    0.491917     0.364112     0.667439 
    0.584144     0.591062     0.592102 
EA47547 15.662 15.184 14.448 90.00 90.00 90.00 Sym.group:    0
1.0
   15.661505     0.000000     0.000000
    0.000000    15.184193     0.000000
    0.000000     0.000000    14.448261
   W
  20
Direct
    0.603431     0.616804     0.600356 
    0.484999     0.584327     0.344266 
    0.628118     0.604649     0.426380 
    0.744416     0.574947     0.543147 
    0.592785     0.472567     0.302331 
    0.525242     0.481438     0.495759 
    0.669754     0.444744     0.612647 
    0.508439     0.339883     0.615576 
    0.571157     0.326066     0.452514 
    0.402967     0.323595     0.486279 
    0.469126     0.380666     0.334186 
    0.690405     0.444406     0.444554 
    0.370199     0.493889     0.426453 
    0.274800     0.578158     0.562304 
    0.428377     0.605855     0.594479 
    0.350693     0.660325     0.437156 
    0.495592     0.710707     0.481864 
    0.539017     0.496040     0.692636 
    0.385121     0.446608     0.623888 
    0.265362     0.414325     0.523225 
EA47770 16.811 15.045 14.809 90.00 90.00 90.00 Sym.group:    0
1.0
   16.811070     0.000000     0.000000
    0.000000    15.044874     0.000000
    0.000000     0.000000    14.808751
   W
  20
Direct
    0.407133     0.629701     0.586594 
    0.510262     0.558766     0.337059 
    0.378635     0.588982     0.419534 
    0.274294     0.574804     0.542116 
    0.402507     0.440999     0.320715 
    0.477764     0.479052     0.502826 
    0.348899     0.457453     0.629391 
    0.500279     0.354320     0.629585 
    0.436090     0.320438     0.470382 
    0.594834     0.324980     0.506342 
    0.526119     0.364186     0.350057 
    0.321111     0.429607     0.470112 
    0.620523     0.487715     0.430318 
    0.709536     0.587241     0.539236 
    0.570419     0.616724     0.568936 
    0.619969     0.660657     0.399132 
    0.493327     0.710685     0.448674 
    0.471928     0.527890     0.689540 
    0.612132     0.463780     0.628250 
    0.724237     0.422018     0.531204 
EA47955 16.395 14.706 13.849 90.00 90.00 90.00 Sym.group:    0
1.0
   16.394639     0.000000     0.000000
    0.000000    14.706483     0.000000
    0.000000     0.000000    13.849455
   W
  20
Direct
    0.518618     0.495545     0.497476 
    0.432400     0.466882     0.657628 
    0.550491     0.606918     0.660740 
    0.615768     0.444553     0.636822 
    0.398943     0.616839     0.599154 
    0.396782     0.617843     0.405639 
    0.548003     0.673999     0.499614 
    0.683038     0.629158     0.424083 
    0.691831     0.615871     0.589394 
    0.696599     0.459709     0.490982 
    0.540524     0.610459     0.332653 
    0.272159     0.607865     0.506653 
    0.514624     0.319109     0.391841 
    0.517697     0.318686     0.608000 
    0.425504     0.468324     0.342358 
    0.290540     0.460496     0.596691 
    0.285222     0.466087     0.411096 
    0.628408     0.301506     0.497908 
    0.391616     0.368072     0.500496 
    0.601234     0.452076     0.350772 
EA48147 16.376 15.741 13.933 90.00 90.00 90.00 Sym.group:    0
1.0
   16.376420     0.000000     0.000000
    0.000000    15.741199     0.000000
    0.000000     0.000000    13.933247
   W
  20
Direct
    0.657525     0.433747     0.380728 
    0.584289     0.384634     0.555724 
    0.509155     0.515623     0.327613 
    0.734013     0.426100     0.527309 
    0.613963     0.554617     0.491847 
    0.583849     0.712775     0.509537 
    0.473301     0.634104     0.599021 
    0.684021     0.516012     0.645768 
    0.535946     0.499780     0.674729 
    0.588601     0.660756     0.349513 
    0.452634     0.660643     0.415773 
    0.519146     0.356969     0.380257 
    0.420655     0.384044     0.657639 
    0.452956     0.294965     0.523573 
    0.312053     0.425597     0.529667 
    0.369579     0.536778     0.679295 
    0.456624     0.487717     0.503578 
    0.319183     0.582805     0.522674 
    0.372787     0.387046     0.375260 
    0.359720     0.545288     0.350498 
EA48349 16.668 15.357 14.276 90.00 90.00 90.00 Sym.group:    0
1.0
   16.667924     0.000000     0.000000
    0.000000    15.356825     0.000000
    0.000000     0.000000    14.276311
   W
  20
Direct
    0.571600     0.432491     0.418265 
    0.709932     0.463407     0.607056 
    0.699554     0.521523     0.445201 
    0.691892     0.358328     0.494180 
    0.449109     0.352378     0.345262 
    0.434495     0.513305     0.348790 
    0.586734     0.569967     0.313692 
    0.477592     0.647153     0.442169 
    0.623658     0.670270     0.429579 
    0.512278     0.714736     0.597287 
    0.474142     0.599408     0.686136 
    0.584810     0.563285     0.566348 
    0.579005     0.382432     0.598997 
    0.479011     0.292607     0.498513 
    0.385013     0.360200     0.608210 
    0.446123     0.491326     0.532550 
    0.371594     0.640680     0.580023 
    0.293859     0.504541     0.598956 
    0.296427     0.539375     0.438866 
    0.333173     0.382589     0.449922 
EA48627 16.668 15.521 14.448 90.00 90.00 90.00 Sym.group:    0
1.0
   16.668444     0.000000     0.000000
    0.000000    15.521080     0.000000
    0.000000     0.000000    14.448127
   W
  18
Direct
    0.451291     0.485262     0.312422 
    0.459110     0.362555     0.444334 
    0.317975     0.458573     0.428266 
    0.395832     0.601494     0.389618 
    0.387151     0.409029     0.586491 
    0.506519     0.698883     0.500206 
    0.364349     0.585039     0.556788 
    0.252115     0.471616     0.563781 
    0.562904     0.592070     0.377016 
    0.594994     0.433437     0.386911 
    0.707612     0.542772     0.423744 
    0.500814     0.511028     0.517681 
    0.533883     0.347546     0.620035 
    0.665801     0.436306     0.543499 
    0.598628     0.296301     0.492055 
    0.488735     0.645491     0.645642 
    0.575806     0.508074     0.664090 
    0.636480     0.614522     0.547422 
EA48789 16.110 15.304 13.689 90.00 90.00 90.00 Sym.group:    0
1.0
   16.110490     0.000000     0.000000
    0.000000    15.303511     0.000000
    0.000000     0.000000    13.689292
   W
  19
Direct
    0.323639     0.379866     0.420193 
    0.284021     0.536558     0.432547 
    0.418880     0.527688     0.348104 
    0.456207     0.365103     0.561861 
    0.468894     0.373877     0.370166 
    0.304966     0.421971     0.586342 
    0.304992     0.581482     0.600609 
    0.438701     0.511596     0.648300 
    0.429734     0.625051     0.490735 
    0.710743     0.457984     0.527909 
    0.542223     0.492285     0.491287 
    0.609022     0.324523     0.443423 
    0.656362     0.456663     0.363405 
    0.562676     0.614636     0.353146 
    0.550316     0.735748     0.462140 
    0.660245     0.619912     0.497465 
    0.616685     0.341506     0.613086 
    0.554914     0.640999     0.619808 
    0.606783     0.492549     0.669468 
EA48953 16.911 15.643 13.763 90.00 90.00 90.00 Sym.group:    0
1.0
   16.910663     0.000000     0.000000
    0.000000    15.643082     0.000000
    0.000000     0.000000    13.763021
   W
  20
Direct
    0.610675     0.560930     0.352537 
    0.686075     0.430420     0.409581 
    0.667763     0.603425     0.507933 
    0.456949     0.533044     0.397537 
    0.534889     0.686646     0.434933 
    0.369111     0.641098     0.481665 
    0.538208     0.384057     0.381375 
    0.303767     0.540919     0.354669 
    0.335142     0.346699     0.551640 
    0.485492     0.322798     0.530984 
    0.611844     0.738376     0.569023 
    0.415502     0.478768     0.572741 
    0.641058     0.310623     0.539950 
    0.505736     0.629998     0.594267 
    0.581929     0.378757     0.668101 
    0.712819     0.443287     0.580079 
    0.565904     0.483079     0.531254 
    0.337065     0.593994     0.638320 
    0.374572     0.395140     0.396266 
    0.265496     0.497940     0.507145 
EA49205 16.747 14.962 14.481 90.00 90.00 90.00 Sym.group:    0
1.0
   16.747363     0.000000     0.000000
    0.000000    14.961706     0.000000
    0.000000     0.000000    14.480954
   W
  19
Direct
    0.471683     0.538787     0.699538 
    0.620898     0.499351     0.644388 
    0.712147     0.570936     0.530660 
    0.705405     0.516649     0.384539 
    0.625842     0.408291     0.493531 
    0.503213     0.332446     0.380735 
    0.543365     0.264345     0.521163 
    0.400445     0.352836     0.508398 
    0.502908     0.381397     0.630152 
    0.422782     0.653099     0.592398 
    0.352258     0.494319     0.583761 
    0.399835     0.489364     0.375813 
    0.302782     0.608717     0.454114 
    0.267222     0.455826     0.452789 
    0.441686     0.654833     0.419076 
    0.500550     0.510709     0.507816 
    0.559036     0.484460     0.342255 
    0.594802     0.635076     0.404185 
    0.573139     0.648560     0.574690 
EA49355 15.940 15.490 14.787 90.00 90.00 90.00 Sym.group:    0
1.0
   15.939596     0.000000     0.000000
    0.000000    15.489766     0.000000
    0.000000     0.000000    14.786745
   W
  20
Direct
    0.516499     0.346679     0.409242 
    0.471060     0.596448     0.337116 
    0.301096     0.585346     0.615825 
    0.460791     0.294751     0.586032 
    0.387064     0.461962     0.572592 
    0.367439     0.320305     0.464186 
    0.583005     0.469743     0.309764 
    0.364769     0.630929     0.457778 
    0.259514     0.524633     0.470166 
    0.387098     0.460193     0.392035 
    0.592058     0.576751     0.705819 
    0.526353     0.438845     0.655223 
    0.644989     0.643995     0.562271 
    0.602729     0.335197     0.538522 
    0.465447     0.608037     0.605946 
    0.674978     0.493311     0.572994 
    0.686143     0.427214     0.409559 
    0.524099     0.686689     0.453823 
    0.648871     0.593968     0.397548 
    0.535997     0.505003     0.483560 
EA49610 15.670 14.195 14.709 90.00 90.00 90.00 Sym.group:    0
1.0
   15.670245     0.000000     0.000000
    0.000000    14.195152     0.000000
    0.000000     0.000000    14.708684
   W
  19
Direct
    0.468857     0.499992     0.500396 
    0.308901     0.428907     0.422889 
    0.309918     0.602133     0.475118 
    0.308051     0.473856     0.591006 
    0.588984     0.561586     0.646328 
    0.586256     0.336780     0.479530 
    0.591184     0.599553     0.376842 
    0.559397     0.674097     0.535209 
    0.550195     0.382743     0.630229 
    0.555529     0.440381     0.341457 
    0.414255     0.641171     0.605332 
    0.408754     0.334488     0.561380 
    0.412497     0.528128     0.331818 
    0.707951     0.475466     0.407417 
    0.711151     0.591882     0.529126 
    0.704855     0.427563     0.566486 
    0.441966     0.673765     0.403069 
    0.435742     0.503325     0.692606 
    0.435556     0.324183     0.403764 
EA49832 15.126 15.429 12.047 90.00 90.00 90.00 Sym.group:    0
1.0
   15.125915     0.000000     0.000000
    0.000000    15.428817     0.000000
    0.000000     0.000000    12.046982
   W
  18
Direct
    0.568075     0.367776     0.611633 
    0.390744     0.399119     0.615085 
    0.367740     0.571332     0.613169 
    0.524989     0.643544     0.612946 
    0.645169     0.522234     0.612504 
    0.523465     0.650395     0.385067 
    0.362925     0.569239     0.386235 
    0.391043     0.396229     0.387840 
    0.566737     0.363550     0.388033 
    0.654625     0.523226     0.387129 
    0.706842     0.394039     0.494185 
    0.456746     0.276047     0.502503 
    0.269839     0.470728     0.499877 
    0.395236     0.703623     0.495375 
    0.662460     0.662224     0.497683 
    0.501894     0.489572     0.738077 
    0.512912     0.495483     0.272731 
    0.498559     0.501638     0.499927 
EA49940 12.911 13.565 13.499 90.00 90.00 90.00 Sym.group:    0
1.0
   12.911059     0.000000     0.000000
    0.000000    13.564769     0.000000
    0.000000     0.000000    13.499223
   W
  20
Direct
    0.679385     0.543413     0.680868 
    0.680345     0.367258     0.631596 
    0.679463     0.321208     0.447743 
    0.679192     0.456296     0.318991 
    0.680533     0.631865     0.369508 
    0.679868     0.678786     0.551816 
    0.317530     0.488026     0.681459 
    0.318957     0.654161     0.599805 
    0.320267     0.665944     0.416026 
    0.317582     0.512236     0.318100 
    0.319173     0.346340     0.399240 
    0.320439     0.334122     0.584371 
    0.500430     0.583084     0.326727 
    0.501365     0.692855     0.483447 
    0.500762     0.607794     0.657957 
    0.500586     0.416954     0.674174 
    0.501465     0.307434     0.516461 
    0.500914     0.392776     0.341571 
    0.605587     0.499770     0.500059 
    0.396158     0.499678     0.500083 
EA50251 15.140 13.924 14.461 90.00 90.00 90.00 Sym.group:    0
1.0
   15.139657     0.000000     0.000000
    0.000000    13.924315     0.000000
    0.000000     0.000000    14.460799
   W
  18
Direct
    0.502253     0.297328     0.478930 
    0.498219     0.606707     0.350891 
    0.500503     0.577267     0.666965 
    0.307216     0.505389     0.501040 
    0.694995     0.506735     0.500612 
    0.409530     0.409453     0.637862 
    0.410697     0.435789     0.351297 
    0.410133     0.652387     0.511910 
    0.589498     0.410655     0.635522 
    0.588410     0.433694     0.350916 
    0.587578     0.651939     0.512725 
    0.337939     0.601205     0.357212 
    0.339201     0.573425     0.657632 
    0.351090     0.336638     0.488330 
    0.657825     0.600872     0.356892 
    0.662106     0.574254     0.655892 
    0.652699     0.339263     0.485029 
    0.500109     0.486999     0.500345 
EA50401 14.447 14.433 14.142 90.00 90.00 90.00 Sym.group:    0
1.0
   14.447358     0.000000     0.000000
    0.000000    14.432926     0.000000
    0.000000     0.000000    14.141782
   W
  20
Direct
    0.659442     0.390357     0.637537 
    0.658521     0.562432     0.666233 
    0.666774     0.668140     0.526871 
    0.663216     0.606987     0.363405 
    0.660442     0.434809     0.335514 
    0.660224     0.330144     0.474850 
    0.332537     0.397651     0.635776 
    0.338507     0.563771     0.663548 
    0.340486     0.670709     0.523534 
    0.338475     0.607401     0.363801 
    0.338603     0.437002     0.336113 
    0.335842     0.332071     0.473288 
    0.496082     0.321908     0.532681 
    0.497010     0.438055     0.673198 
    0.499472     0.617530     0.643743 
    0.502992     0.676210     0.466697 
    0.500234     0.562702     0.326180 
    0.499636     0.382185     0.357836 
    0.595426     0.499836     0.500092 
    0.416076     0.500096     0.499101 
EA50619 16.056 14.075 15.987 90.00 90.00 90.00 Sym.group:    0
1.0
   16.056160     0.000000     0.000000
    0.000000    14.075274     0.000000
    0.000000     0.000000    15.987240
   W
  20
Direct
    0.334275     0.514020     0.454098 
    0.407012     0.683350     0.426183 
    0.467590     0.682927     0.573187 
    0.370346     0.533575     0.603516 
    0.332668     0.351441     0.535195 
    0.304068     0.674542     0.528134 
    0.521394     0.563225     0.675644 
    0.477008     0.396217     0.616212 
    0.461582     0.367970     0.438731 
    0.565510     0.266542     0.529669 
    0.429886     0.230091     0.567331 
    0.542546     0.411447     0.295442 
    0.439254     0.522107     0.332699 
    0.507087     0.534783     0.495528 
    0.714846     0.562308     0.458629 
    0.617385     0.687018     0.485107 
    0.593030     0.571539     0.360732 
    0.659107     0.603333     0.613550 
    0.623920     0.406761     0.428340 
    0.631484     0.436804     0.582073 
EA50868 16.627 14.908 15.530 90.00 90.00 90.00 Sym.group:    0
1.0
   16.627348     0.000000     0.000000
    0.000000    14.908084     0.000000
    0.000000     0.000000    15.530133
   W
  20
Direct
    0.512436     0.723763     0.468468 
    0.487907     0.557096     0.668819 
    0.567992     0.675305     0.600831 
    0.545151     0.587908     0.345663 
    0.634310     0.593933     0.477536 
    0.404070     0.610721     0.399612 
    0.404329     0.652697     0.559974 
    0.273879     0.595588     0.496763 
    0.609434     0.481550     0.596347 
    0.720655     0.359270     0.550886 
    0.750474     0.483588     0.473667 
    0.618941     0.423691     0.410699 
    0.485611     0.497905     0.495380 
    0.453020     0.341866     0.434807 
    0.336261     0.457285     0.429741 
    0.345484     0.487490     0.591913 
    0.452725     0.366741     0.616232 
    0.576780     0.323600     0.532003 
    0.336911     0.326081     0.537157 
    0.483630     0.453922     0.313501 
EA51111 16.098 15.175 14.659 90.00 90.00 90.00 Sym.group:    0
1.0
   16.098493     0.000000     0.000000
    0.000000    15.174592     0.000000
    0.000000     0.000000    14.659371
   W
  20
Direct
    0.441405     0.666668     0.409379 
    0.610316     0.355270     0.422481 
    0.568034     0.524839     0.397566 
    0.717483     0.469454     0.382667 
    0.571987     0.442644     0.571350 
    0.598305     0.687754     0.424791 
    0.726378     0.408516     0.527730 
    0.608512     0.565898     0.683645 
    0.457871     0.532255     0.683222 
    0.681930     0.566828     0.521498 
    0.525725     0.639897     0.564480 
    0.426380     0.377708     0.651025 
    0.308469     0.460981     0.584989 
    0.360735     0.653687     0.558046 
    0.388612     0.540651     0.323621 
    0.348052     0.342204     0.472422 
    0.288133     0.577766     0.443429 
    0.458663     0.392029     0.361660 
    0.482277     0.294682     0.519418 
    0.430734     0.500268     0.496584 
EA51338 15.388 14.921 15.625 90.00 90.00 90.00 Sym.group:    0
1.0
   15.387799     0.000000     0.000000
    0.000000    14.921025     0.000000
    0.000000     0.000000    15.624713
   W
  20
Direct
    0.435447     0.312375     0.521381 
    0.532332     0.415830     0.626953 
    0.347588     0.408882     0.607348 
    0.306505     0.579107     0.572921 
    0.306649     0.423194     0.448491 
    0.444362     0.497754     0.493588 
    0.458305     0.579582     0.647188 
    0.430660     0.357549     0.368024 
    0.438415     0.698222     0.538269 
    0.314317     0.598197     0.424599 
    0.587500     0.591801     0.492165 
    0.633145     0.308009     0.573752 
    0.581730     0.710945     0.604554 
    0.625569     0.413132     0.296253 
    0.615032     0.563166     0.669933 
    0.465029     0.656377     0.390040 
    0.584908     0.390988     0.449087 
    0.691946     0.462700     0.555186 
    0.509104     0.510479     0.333386 
    0.691454     0.521710     0.386882 
EA51651 15.248 14.938 13.610 90.00 90.00 90.00 Sym.group:    0
1.0
   15.248005     0.000000     0.000000
    0.000000    14.937508     0.000000
    0.000000     0.000000    13.610063
   W
  19
Direct
    0.540225     0.320630     0.491227 
    0.671793     0.438098     0.499981 
    0.636527     0.626036     0.502048 
    0.466446     0.682252     0.500388 
    0.323679     0.554561     0.499148 
    0.358844     0.375392     0.490734 
    0.688829     0.538445     0.646725 
    0.566759     0.696461     0.358245 
    0.373674     0.644236     0.645244 
    0.313475     0.460673     0.344557 
    0.441663     0.323533     0.639102 
    0.629325     0.352935     0.345078 
    0.597502     0.522524     0.353698 
    0.532730     0.595955     0.660290 
    0.436222     0.580255     0.351055 
    0.390359     0.477958     0.663562 
    0.467679     0.398659     0.334204 
    0.572438     0.421053     0.665653 
    0.491833     0.490345     0.509061 
EA51968 14.792 14.912 12.828 90.00 90.00 90.00 Sym.group:    0
1.0
   14.792348     0.000000     0.000000
    0.000000    14.911779     0.000000
    0.000000     0.000000    12.827834
   W
  17
Direct
    0.530126     0.652323     0.589755 
    0.360301     0.576485     0.588991 
    0.381384     0.394072     0.591889 
    0.568649     0.357071     0.592808 
    0.657363     0.522339     0.589461 
    0.384954     0.393801     0.391378 
    0.564566     0.359863     0.391172 
    0.656322     0.518668     0.388738 
    0.531221     0.653472     0.388236 
    0.362322     0.575491     0.389865 
    0.453097     0.263125     0.491314 
    0.713546     0.384473     0.486150 
    0.678474     0.663713     0.485072 
    0.401975     0.719497     0.486900 
    0.257810     0.474538     0.486293 
    0.497616     0.489938     0.683927 
    0.500274     0.501131     0.478056 
EA52194 16.074 15.894 13.083 90.00 90.00 90.00 Sym.group:    0
1.0
   16.073507     0.000000     0.000000
    0.000000    15.894021     0.000000
    0.000000     0.000000    13.083350
   W
  17
Direct
    0.633503     0.506451     0.589811 
    0.550894     0.367348     0.588880 
    0.386379     0.403205     0.595942 
    0.383844     0.588093     0.595231 
    0.539235     0.635317     0.587642 
    0.387294     0.400727     0.380372 
    0.382255     0.588760     0.379258 
    0.545133     0.642032     0.389479 
    0.645512     0.506820     0.394770 
    0.552870     0.362571     0.390537 
    0.296728     0.494291     0.483791 
    0.426589     0.709846     0.480351 
    0.675453     0.639033     0.492992 
    0.684497     0.376933     0.492109 
    0.441758     0.285386     0.483578 
    0.475457     0.493153     0.700084 
    0.492600     0.500034     0.475172 
EA52317 15.740 15.666 11.946 90.00 90.00 90.00 Sym.group:    0
1.0
   15.739649     0.000000     0.000000
    0.000000    15.665582     0.000000
    0.000000     0.000000    11.946355
   W
  19
Direct
    0.693239     0.368865     0.512660 
    0.512567     0.733923     0.514279 
    0.291100     0.397493     0.512842 
    0.388776     0.364019     0.669387 
    0.673727     0.472489     0.669940 
    0.435137     0.666937     0.673279 
    0.369539     0.362575     0.346718 
    0.682486     0.454878     0.344282 
    0.448012     0.683137     0.350267 
    0.351813     0.679202     0.499015 
    0.418887     0.281349     0.493441 
    0.728837     0.539836     0.495072 
    0.346762     0.528540     0.407198 
    0.551926     0.348165     0.404557 
    0.604041     0.619516     0.406877 
    0.403348     0.522156     0.597406 
    0.532129     0.403312     0.597225 
    0.567205     0.574351     0.598514 
    0.500470     0.499260     0.407040 
EA52516 15.640 16.483 13.256 90.00 90.00 90.00 Sym.group:    0
1.0
   15.640381     0.000000     0.000000
    0.000000    16.483434     0.000000
    0.000000     0.000000    13.256333
   W
  19
Direct
    0.309895     0.632614     0.510346 
    0.711693     0.594009     0.497788 
    0.479857     0.277659     0.507948 
    0.422953     0.351817     0.657517 
    0.408513     0.642525     0.653019 
    0.685264     0.508879     0.645816 
    0.413993     0.340403     0.369144 
    0.395672     0.646278     0.363234 
    0.684248     0.509688     0.358029 
    0.724171     0.430062     0.495964 
    0.324873     0.351175     0.511091 
    0.456295     0.718150     0.496450 
    0.583491     0.374534     0.416622 
    0.334593     0.491671     0.429412 
    0.566015     0.629470     0.404707 
    0.558853     0.421946     0.588457 
    0.398400     0.496600     0.596347 
    0.548643     0.585333     0.581136 
    0.492580     0.497185     0.416970 
EA52701 15.984 16.461 13.249 90.00 90.00 90.00 Sym.group:    0
1.0
   15.983947     0.000000     0.000000
    0.000000    16.461103     0.000000
    0.000000     0.000000    13.248916
   W
  19
Direct
    0.552957     0.718218     0.504928 
    0.279024     0.440143     0.501703 
    0.664297     0.344340     0.503908 
    0.662225     0.437304     0.652143 
    0.477247     0.665308     0.653805 
    0.358852     0.395363     0.651432 
    0.666888     0.430878     0.362571 
    0.473736     0.674065     0.363796 
    0.356152     0.392606     0.363005 
    0.380906     0.309004     0.503090 
    0.730773     0.496152     0.502576 
    0.385830     0.692656     0.503265 
    0.522636     0.352422     0.414109 
    0.624904     0.593982     0.423353 
    0.359975     0.557992     0.411999 
    0.511036     0.404550     0.588180 
    0.579979     0.560029     0.592388 
    0.409177     0.534090     0.587190 
    0.503407     0.500899     0.416559 
