EA42570 17.574 15.063 14.586 90.00 90.00 90.00 Sym.group:    0
1.0
   17.574341     0.000000     0.000000
    0.000000    15.063287     0.000000
    0.000000     0.000000    14.585581
   W   B
  16  21
Direct
    0.489096     0.429943     0.658067 
    0.402737     0.293748     0.571718 
    0.538325     0.323469     0.523680 
    0.430253     0.452630     0.491945 
    0.290110     0.470588     0.415516 
    0.397765     0.545239     0.336611 
    0.384838     0.571132     0.624374 
    0.605894     0.557852     0.656954 
    0.600091     0.477711     0.498397 
    0.548658     0.555505     0.353988 
    0.578525     0.658189     0.503348 
    0.729760     0.461611     0.597167 
    0.678891     0.313426     0.560897 
    0.759055     0.543202     0.445447 
    0.671383     0.464977     0.332127 
    0.521716     0.392262     0.348740 
    0.435843     0.309625     0.424716 
    0.383422     0.673214     0.417104 
    0.306278     0.613140     0.419096 
    0.280362     0.580048     0.525559 
    0.293239     0.481381     0.567182 
    0.360585     0.421862     0.629353 
    0.308526     0.377951     0.536327 
    0.343823     0.335465     0.440004 
    0.389977     0.390451     0.351795 
    0.342099     0.662843     0.520612 
    0.614385     0.404146     0.643924 
    0.440353     0.670975     0.525887 
    0.498946     0.655990     0.625669 
    0.638091     0.350289     0.414981 
    0.699640     0.664841     0.465211 
    0.502090     0.551358     0.568892 
    0.660744     0.610549     0.379573 
    0.719553     0.400578     0.454004 
    0.692108     0.603290     0.559350 
    0.473265     0.657166     0.408454 
    0.489576     0.573358     0.703330 
EA42550 16.883 15.576 14.561 90.00 90.00 90.00 Sym.group:    0
1.0
   16.882971     0.000000     0.000000
    0.000000    15.575579     0.000000
    0.000000     0.000000    14.560723
   W   B
  16  22
Direct
    0.436623     0.371229     0.493417 
    0.557555     0.608595     0.361444 
    0.445898     0.557155     0.486759 
    0.332421     0.485107     0.376529 
    0.297221     0.587632     0.528655 
    0.592571     0.482637     0.499391 
    0.578578     0.311504     0.506927 
    0.386441     0.337850     0.323024 
    0.549575     0.526730     0.672356 
    0.511841     0.719450     0.498388 
    0.710905     0.417553     0.420765 
    0.652935     0.668734     0.472833 
    0.299991     0.331417     0.585040 
    0.388145     0.558698     0.664411 
    0.484373     0.452189     0.328335 
    0.390728     0.390393     0.685733 
    0.399282     0.677437     0.580592 
    0.378055     0.694337     0.469457 
    0.440760     0.677682     0.379774 
    0.308122     0.360915     0.440338 
    0.275187     0.448317     0.503482 
    0.347242     0.626152     0.387945 
    0.424528     0.581884     0.325662 
    0.603121     0.385601     0.637299 
    0.508256     0.354958     0.630934 
    0.682620     0.380476     0.567285 
    0.586580     0.644257     0.596282 
    0.666645     0.571735     0.590632 
    0.463983     0.464892     0.595818 
    0.508895     0.316123     0.377841 
    0.488067     0.649669     0.627921 
    0.597793     0.373599     0.366770 
    0.666037     0.469683     0.645106 
    0.616492     0.477059     0.329565 
    0.724594     0.551609     0.484130 
    0.730312     0.474138     0.559420 
    0.678839     0.547522     0.380429 
    0.288791     0.465081     0.619312 
EA42495 17.157 16.660 15.025 90.00 90.00 90.00 Sym.group:    0
1.0
   17.156604     0.000000     0.000000
    0.000000    16.659860     0.000000
    0.000000     0.000000    15.024709
   W   B
  16  23
Direct
    0.494678     0.505836     0.340216 
    0.375963     0.663386     0.491919 
    0.408801     0.430299     0.628810 
    0.537641     0.404352     0.490191 
    0.417022     0.518459     0.480723 
    0.460944     0.293470     0.553245 
    0.261525     0.538647     0.540333 
    0.319865     0.384203     0.508532 
    0.686552     0.346219     0.489108 
    0.642785     0.441901     0.619830 
    0.733359     0.494132     0.498564 
    0.579223     0.555021     0.495744 
    0.504163     0.659741     0.393248 
    0.454947     0.590923     0.635693 
    0.649575     0.460574     0.367062 
    0.587643     0.243033     0.475657 
    0.596541     0.336287     0.374716 
    0.527047     0.376517     0.647757 
    0.417775     0.340604     0.420676 
    0.368620     0.420492     0.377452 
    0.503349     0.303554     0.394243 
    0.328271     0.622207     0.617952 
    0.328227     0.532754     0.664323 
    0.292509     0.477087     0.412815 
    0.282430     0.447787     0.632491 
    0.586746     0.559708     0.658124 
    0.672466     0.574941     0.603520 
    0.693650     0.584057     0.401010 
    0.690365     0.627783     0.505933 
    0.596464     0.693274     0.510065 
    0.574020     0.650006     0.609948 
    0.525754     0.479535     0.665990 
    0.501231     0.678801     0.537309 
    0.635824     0.663139     0.416106 
    0.393654     0.605826     0.354285 
    0.606862     0.586134     0.345681 
    0.594070     0.317551     0.597646 
    0.361080     0.512897     0.335924 
    0.308357     0.578863     0.407159 
EA42444 16.686 16.401 15.341 90.00 90.00 90.00 Sym.group:    0
1.0
   16.685718     0.000000     0.000000
    0.000000    16.401073     0.000000
    0.000000     0.000000    15.341085
   W   B
  16  24
Direct
    0.441640     0.580875     0.503262 
    0.406483     0.686793     0.611686 
    0.332749     0.443849     0.608269 
    0.315294     0.511848     0.452343 
    0.442899     0.413809     0.483425 
    0.436501     0.360950     0.305747 
    0.479986     0.502115     0.341199 
    0.372347     0.284069     0.550318 
    0.489610     0.457002     0.657859 
    0.582655     0.507799     0.494779 
    0.605545     0.368467     0.574583 
    0.645837     0.485023     0.348829 
    0.569106     0.351558     0.406065 
    0.656896     0.623200     0.566586 
    0.730220     0.477397     0.577295 
    0.464264     0.672506     0.362822 
    0.388405     0.718184     0.471294 
    0.320334     0.579739     0.587483 
    0.449612     0.282030     0.423620 
    0.339341     0.651410     0.406103 
    0.316352     0.654161     0.513511 
    0.396343     0.554963     0.656793 
    0.303912     0.378576     0.485188 
    0.487826     0.715462     0.497728 
    0.404094     0.351890     0.666562 
    0.582631     0.560111     0.674761 
    0.568315     0.662613     0.454471 
    0.726584     0.561408     0.465049 
    0.627471     0.463202     0.673201 
    0.752243     0.467798     0.440218 
    0.687327     0.394660     0.459829 
    0.576210     0.603415     0.352758 
    0.553849     0.406031     0.276983 
    0.486462     0.321917     0.616136 
    0.504627     0.283516     0.515971 
    0.654187     0.616335     0.420526 
    0.681463     0.549560     0.679934 
    0.374491     0.579705     0.343406 
    0.356043     0.320655     0.413026 
    0.489843     0.595401     0.660385 
EA42392 16.983 16.174 14.893 90.00 90.00 90.00 Sym.group:    0
1.0
   16.983321     0.000000     0.000000
    0.000000    16.174389     0.000000
    0.000000     0.000000    14.893318
   W   B
  16  25
Direct
    0.304842     0.569866     0.540025 
    0.351520     0.500167     0.675297 
    0.415012     0.441790     0.516101 
    0.647728     0.445537     0.643009 
    0.510451     0.664560     0.575093 
    0.677263     0.601557     0.673385 
    0.277103     0.412338     0.532727 
    0.467010     0.355330     0.361263 
    0.434682     0.584505     0.418868 
    0.684023     0.312249     0.432590 
    0.737103     0.539391     0.539769 
    0.613282     0.425870     0.345429 
    0.577261     0.587212     0.344390 
    0.577248     0.533592     0.520988 
    0.562253     0.358853     0.508541 
    0.488701     0.436359     0.667162 
    0.337781     0.680701     0.443765 
    0.560028     0.554957     0.679471 
    0.382191     0.679991     0.544205 
    0.462550     0.573756     0.684751 
    0.430051     0.722694     0.458743 
    0.309443     0.503627     0.399236 
    0.357812     0.318249     0.444538 
    0.367131     0.366716     0.645534 
    0.389839     0.626712     0.639900 
    0.453675     0.321525     0.599745 
    0.489259     0.492677     0.302652 
    0.300597     0.603855     0.390841 
    0.510891     0.470054     0.416492 
    0.333535     0.400347     0.386128 
    0.445603     0.293073     0.490698 
    0.734616     0.403938     0.531480 
    0.680397     0.330504     0.572606 
    0.659872     0.656214     0.546794 
    0.514239     0.698106     0.418457 
    0.726106     0.436543     0.423901 
    0.690890     0.526860     0.388517 
    0.676938     0.617322     0.438907 
    0.601875     0.678446     0.457733 
    0.360584     0.305567     0.556016 
    0.398609     0.468386     0.344252 
EA42541 17.122 16.677 14.875 90.00 90.00 90.00 Sym.group:    0
1.0
   17.121570     0.000000     0.000000
    0.000000    16.677306     0.000000
    0.000000     0.000000    14.875210
   W   B
  17  21
Direct
    0.387519     0.362156     0.376418 
    0.420401     0.485346     0.505497 
    0.478297     0.511857     0.344902 
    0.329685     0.559779     0.632572 
    0.414011     0.643310     0.500924 
    0.386253     0.398713     0.646187 
    0.529913     0.358070     0.451594 
    0.612490     0.421999     0.309522 
    0.532262     0.422629     0.629576 
    0.569258     0.571610     0.668620 
    0.545152     0.655294     0.391837 
    0.725436     0.494006     0.380243 
    0.589246     0.509659     0.486097 
    0.626613     0.662728     0.544851 
    0.595150     0.275481     0.559559 
    0.684500     0.367707     0.448866 
    0.316740     0.585743     0.379512 
    0.346659     0.472247     0.341503 
    0.411956     0.324176     0.520349 
    0.329540     0.374613     0.511055 
    0.265975     0.536179     0.506438 
    0.494723     0.381467     0.309595 
    0.298694     0.454756     0.441248 
    0.290073     0.454116     0.563578 
    0.426508     0.636859     0.351001 
    0.288958     0.630770     0.515926 
    0.477753     0.305978     0.601948 
    0.519865     0.721618     0.511894 
    0.446114     0.610489     0.650061 
    0.652642     0.473108     0.642128 
    0.666820     0.610652     0.410976 
    0.716640     0.571126     0.498933 
    0.711429     0.469203     0.540104 
    0.612298     0.552962     0.334100 
    0.687580     0.559211     0.605703 
    0.445774     0.514076     0.685718 
    0.655569     0.384610     0.591450 
    0.511510     0.675700     0.609518 
EA42501 18.865 15.686 14.119 90.00 90.00 90.00 Sym.group:    0
1.0
   18.865463     0.000000     0.000000
    0.000000    15.686445     0.000000
    0.000000     0.000000    14.119308
   W   B
  17  22
Direct
    0.612880     0.520274     0.491052 
    0.675331     0.667653     0.539697 
    0.598072     0.405915     0.342776 
    0.510412     0.516355     0.648743 
    0.594431     0.353853     0.527977 
    0.457079     0.359309     0.591988 
    0.648742     0.444539     0.684775 
    0.493274     0.523717     0.359528 
    0.393429     0.509803     0.510692 
    0.453660     0.362346     0.405967 
    0.449364     0.665613     0.569523 
    0.563597     0.661930     0.434655 
    0.253330     0.494184     0.526419 
    0.759103     0.535445     0.468474 
    0.695763     0.644015     0.372644 
    0.305491     0.634342     0.584324 
    0.372497     0.596383     0.320089 
    0.692066     0.417128     0.433657 
    0.705170     0.538543     0.601226 
    0.687583     0.500163     0.353003 
    0.508759     0.264475     0.494115 
    0.553940     0.383735     0.674933 
    0.403933     0.468522     0.678302 
    0.396494     0.573145     0.666250 
    0.624149     0.573530     0.648291 
    0.551271     0.289150     0.397170 
    0.304775     0.496885     0.387906 
    0.298083     0.594326     0.436752 
    0.321183     0.506722     0.647841 
    0.365528     0.666937     0.457364 
    0.341490     0.405437     0.605982 
    0.356412     0.345583     0.501443 
    0.609284     0.554115     0.324198 
    0.448321     0.650086     0.418673 
    0.509271     0.458263     0.503541 
    0.385318     0.462608     0.343158 
    0.705345     0.430890     0.552762 
    0.561285     0.625905     0.586675 
    0.333888     0.398174     0.407437 
EA42445 16.850 16.319 15.663 90.00 90.00 90.00 Sym.group:    0
1.0
   16.849569     0.000000     0.000000
    0.000000    16.318827     0.000000
    0.000000     0.000000    15.662946
   W   B
  17  23
Direct
    0.422143     0.570769     0.494494 
    0.374061     0.692981     0.599583 
    0.354021     0.445521     0.632412 
    0.310880     0.478038     0.461359 
    0.450112     0.410158     0.502738 
    0.430040     0.337706     0.333165 
    0.467060     0.484785     0.347370 
    0.402661     0.279914     0.587147 
    0.518029     0.642527     0.602116 
    0.515059     0.480912     0.655078 
    0.579487     0.513562     0.489120 
    0.625600     0.384654     0.571122 
    0.628382     0.482519     0.336543 
    0.570265     0.350494     0.413432 
    0.666495     0.639511     0.545794 
    0.740374     0.493588     0.548119 
    0.436627     0.658078     0.359603 
    0.354788     0.697530     0.463781 
    0.316090     0.567830     0.593736 
    0.458889     0.275743     0.454767 
    0.314056     0.619626     0.405542 
    0.292902     0.625872     0.510374 
    0.408132     0.568875     0.647799 
    0.316042     0.360609     0.532521 
    0.455065     0.711573     0.488022 
    0.438634     0.367404     0.686346 
    0.615283     0.582486     0.667821 
    0.545958     0.662227     0.459469 
    0.712323     0.572169     0.434314 
    0.655449     0.483721     0.660301 
    0.742298     0.481180     0.409955 
    0.687107     0.405493     0.444556 
    0.551014     0.594320     0.354658 
    0.539420     0.388059     0.284074 
    0.515883     0.337819     0.629695 
    0.525987     0.288112     0.534874 
    0.632538     0.628964     0.408250 
    0.711086     0.569588     0.652321 
    0.357591     0.551863     0.346008 
    0.362167     0.313220     0.451619 
EA25782 18.379 16.347 14.103 90.00 90.00 90.00 Sym.group:    0
1.0
   18.379164     0.000000     0.000000
    0.000000    16.346948     0.000000
    0.000000     0.000000    14.103076
   W   B
  17  24
Direct
    0.507829     0.710209     0.614071 
    0.381507     0.617134     0.562960 
    0.526341     0.590016     0.512979 
    0.413073     0.586704     0.383877 
    0.635617     0.652186     0.403424 
    0.250236     0.604786     0.557346 
    0.507741     0.349492     0.400412 
    0.310443     0.464231     0.600456 
    0.536021     0.473050     0.660965 
    0.426344     0.457327     0.506989 
    0.596398     0.448674     0.492684 
    0.367098     0.340059     0.363275 
    0.509511     0.329389     0.583040 
    0.647942     0.353442     0.631526 
    0.720950     0.366489     0.478548 
    0.654536     0.590241     0.587345 
    0.724497     0.525861     0.445152 
    0.611772     0.714056     0.535092 
    0.468097     0.593006     0.676600 
    0.556901     0.605158     0.681332 
    0.543747     0.731248     0.461398 
    0.455399     0.701029     0.469947 
    0.549528     0.576445     0.347992 
    0.512281     0.671303     0.373342 
    0.511143     0.485414     0.376905 
    0.303712     0.628173     0.432669 
    0.309739     0.525989     0.455103 
    0.635486     0.526544     0.342321 
    0.328087     0.348453     0.510589 
    0.412942     0.302188     0.493885 
    0.384033     0.340388     0.602198 
    0.412106     0.512363     0.664698 
    0.424134     0.410397     0.668150 
    0.298096     0.423410     0.442774 
    0.433984     0.446516     0.334066 
    0.716117     0.468339     0.587133 
    0.656454     0.477271     0.674562 
    0.672006     0.432711     0.354753 
    0.347043     0.471262     0.359594 
    0.629967     0.344699     0.381134 
    0.611143     0.304346     0.488717 
EA42335 17.725 16.137 15.159 90.00 90.00 90.00 Sym.group:    0
1.0
   17.724977     0.000000     0.000000
    0.000000    16.137331     0.000000
    0.000000     0.000000    15.159295
   W   B
  17  25
Direct
    0.447255     0.652618     0.527797 
    0.564143     0.695613     0.374912 
    0.564250     0.554473     0.475067 
    0.680917     0.655249     0.497172 
    0.306269     0.524282     0.588421 
    0.281659     0.457854     0.436826 
    0.492344     0.461563     0.338092 
    0.442219     0.610324     0.361433 
    0.478989     0.315567     0.408336 
    0.296395     0.371401     0.571263 
    0.431064     0.449880     0.494763 
    0.664764     0.554586     0.625139 
    0.593441     0.400935     0.557918 
    0.513433     0.526174     0.637656 
    0.701520     0.494588     0.446262 
    0.571028     0.669758     0.643170 
    0.508396     0.278306     0.560663 
    0.559604     0.575738     0.314502 
    0.561655     0.709915     0.510761 
    0.451945     0.642825     0.678413 
    0.648718     0.593421     0.363753 
    0.613039     0.493776     0.341163 
    0.377551     0.399855     0.355373 
    0.368545     0.501608     0.335191 
    0.274400     0.593504     0.470454 
    0.318910     0.656980     0.543231 
    0.318783     0.581528     0.372858 
    0.345555     0.660775     0.437000 
    0.675143     0.352509     0.448267 
    0.394066     0.298606     0.519024 
    0.346486     0.339319     0.436872 
    0.596182     0.299992     0.437291 
    0.408014     0.339083     0.620953 
    0.401196     0.448238     0.647034 
    0.488023     0.390686     0.641684 
    0.767686     0.571925     0.539972 
    0.697407     0.421434     0.629353 
    0.763483     0.474585     0.575057 
    0.723258     0.384754     0.532969 
    0.602619     0.396818     0.386326 
    0.397723     0.554912     0.678216 
    0.361921     0.644042     0.639391 
EA42496 17.263 16.766 15.142 90.00 90.00 90.00 Sym.group:    0
1.0
   17.262994     0.000000     0.000000
    0.000000    16.766412     0.000000
    0.000000     0.000000    15.141580
   W   B
  18  21
Direct
    0.500286     0.484202     0.334807 
    0.370554     0.340194     0.494127 
    0.411137     0.568886     0.626640 
    0.535730     0.592866     0.489348 
    0.417405     0.482338     0.474445 
    0.464354     0.707348     0.552981 
    0.267083     0.463714     0.532789 
    0.323184     0.621060     0.509099 
    0.689264     0.652055     0.493049 
    0.641048     0.554388     0.621501 
    0.732577     0.500519     0.505899 
    0.578977     0.442853     0.498112 
    0.507422     0.336196     0.400267 
    0.451670     0.414441     0.637553 
    0.648300     0.538050     0.373719 
    0.594005     0.756535     0.480323 
    0.358639     0.494686     0.286394 
    0.277767     0.404457     0.379660 
    0.598703     0.663574     0.382141 
    0.529088     0.620872     0.645872 
    0.421225     0.666451     0.422695 
    0.369984     0.590527     0.376994 
    0.507433     0.701375     0.401501 
    0.327277     0.380851     0.620649 
    0.328053     0.470501     0.664502 
    0.294339     0.532023     0.409718 
    0.285317     0.555621     0.628240 
    0.583095     0.440656     0.661457 
    0.668340     0.421990     0.608255 
    0.693732     0.414016     0.407833 
    0.689351     0.370609     0.511943 
    0.594386     0.306346     0.516322 
    0.571755     0.351762     0.614291 
    0.524834     0.521353     0.672348 
    0.498806     0.325196     0.541851 
    0.636496     0.333953     0.423058 
    0.401709     0.389940     0.353875 
    0.609784     0.409144     0.349705 
    0.596890     0.678454     0.596034 
EA42450 16.933 16.834 14.974 90.00 90.00 90.00 Sym.group:    0
1.0
   16.933399     0.000000     0.000000
    0.000000    16.834180     0.000000
    0.000000     0.000000    14.973983
   W   B
  18  22
Direct
    0.473497     0.615328     0.605337 
    0.492592     0.451262     0.649792 
    0.398100     0.738344     0.591256 
    0.586549     0.505108     0.516197 
    0.708601     0.565872     0.605366 
    0.609384     0.679033     0.603604 
    0.713109     0.428249     0.471671 
    0.626720     0.345498     0.616919 
    0.539889     0.357275     0.482804 
    0.289638     0.371475     0.554744 
    0.417053     0.480796     0.476875 
    0.326759     0.614389     0.539920 
    0.310307     0.409454     0.391142 
    0.656225     0.550260     0.345876 
    0.522734     0.614275     0.418826 
    0.551832     0.446129     0.341783 
    0.399816     0.297708     0.499915 
    0.475401     0.556853     0.276120 
    0.358173     0.435106     0.656710 
    0.385367     0.530009     0.636632 
    0.491427     0.319957     0.615025 
    0.657603     0.635469     0.473812 
    0.628013     0.471478     0.667196 
    0.722752     0.559876     0.464644 
    0.597340     0.714807     0.470213 
    0.503089     0.723636     0.505489 
    0.584034     0.560674     0.664370 
    0.711803     0.437524     0.622535 
    0.660490     0.310579     0.485326 
    0.642340     0.348129     0.383628 
    0.295576     0.495928     0.602536 
    0.399499     0.348037     0.636612 
    0.264576     0.491690     0.496049 
    0.300540     0.543220     0.411793 
    0.419118     0.446381     0.314624 
    0.436467     0.367805     0.380825 
    0.357912     0.524655     0.324156 
    0.418767     0.681284     0.467631 
    0.387128     0.600437     0.402662 
    0.679784     0.426013     0.329386 
EA25476 17.140 16.725 15.916 90.00 90.00 90.00 Sym.group:    0
1.0
   17.140294     0.000000     0.000000
    0.000000    16.724914     0.000000
    0.000000     0.000000    15.915698
   W   B
  18  23
Direct
    0.334149     0.550158     0.393656 
    0.477398     0.591062     0.489586 
    0.442247     0.653998     0.341552 
    0.360268     0.688898     0.457453 
    0.635032     0.599183     0.558777 
    0.729975     0.469234     0.518156 
    0.647403     0.547713     0.303718 
    0.599153     0.655642     0.411809 
    0.513192     0.642451     0.653815 
    0.434639     0.435206     0.493897 
    0.405364     0.365796     0.359252 
    0.538965     0.324281     0.430561 
    0.589527     0.473041     0.458706 
    0.543861     0.431950     0.301492 
    0.379690     0.365807     0.617608 
    0.413163     0.523782     0.644811 
    0.530315     0.414158     0.659650 
    0.665991     0.375739     0.355835 
    0.454247     0.716530     0.555138 
    0.553579     0.705526     0.535743 
    0.390842     0.646816     0.593731 
    0.599465     0.541304     0.682665 
    0.696914     0.571254     0.434722 
    0.490234     0.727974     0.454403 
    0.531251     0.556813     0.356280 
    0.724979     0.488397     0.382699 
    0.305492     0.420216     0.425239 
    0.423152     0.294496     0.488851 
    0.662430     0.354726     0.494917 
    0.335415     0.333728     0.476682 
    0.273642     0.493240     0.492815 
    0.532403     0.519549     0.587812 
    0.490042     0.315799     0.564540 
    0.582802     0.340770     0.557511 
    0.671043     0.488743     0.635833 
    0.512411     0.529388     0.726012 
    0.288441     0.401146     0.530252 
    0.306799     0.475961     0.594759 
    0.654329     0.396568     0.593894 
    0.442588     0.505912     0.348623 
    0.337168     0.567045     0.536542 
EA42340 18.849 16.635 14.770 90.00 90.00 90.00 Sym.group:    0
1.0
   18.848556     0.000000     0.000000
    0.000000    16.634826     0.000000
    0.000000     0.000000    14.770258
   W   B
  18  24
Direct
    0.468696     0.463011     0.668346 
    0.575763     0.457121     0.506165 
    0.685772     0.415236     0.608752 
    0.674108     0.463705     0.364394 
    0.727668     0.533999     0.508227 
    0.673805     0.334991     0.456169 
    0.380971     0.365819     0.578133 
    0.459180     0.405847     0.397919 
    0.548736     0.279502     0.458862 
    0.429960     0.521224     0.521508 
    0.282891     0.476846     0.577106 
    0.611764     0.600927     0.441918 
    0.548330     0.605851     0.604738 
    0.481348     0.672722     0.456040 
    0.611350     0.738599     0.528944 
    0.425846     0.658089     0.629097 
    0.780839     0.406772     0.476417 
    0.476152     0.555754     0.336976 
    0.352608     0.444624     0.687397 
    0.568462     0.393526     0.652181 
    0.595502     0.325883     0.577349 
    0.591186     0.489219     0.665538 
    0.658291     0.544645     0.629815 
    0.579158     0.373954     0.369007 
    0.556249     0.462054     0.323647 
    0.364090     0.331111     0.436590 
    0.440391     0.292277     0.477529 
    0.502315     0.350805     0.583264 
    0.341859     0.411257     0.378699 
    0.285630     0.475486     0.430299 
    0.379932     0.608845     0.398749 
    0.313681     0.566220     0.467075 
    0.368149     0.648546     0.500931 
    0.325912     0.595725     0.581652 
    0.368620     0.507390     0.378803 
    0.295199     0.382748     0.477185 
    0.589004     0.553696     0.303992 
    0.580986     0.724216     0.394547 
    0.514353     0.736001     0.594974 
    0.666677     0.634741     0.579569 
    0.363650     0.541656     0.665191 
    0.554919     0.649359     0.326302 
EA42273 17.598 18.163 14.167 90.00 90.00 90.00 Sym.group:    0
1.0
   17.598039     0.000000     0.000000
    0.000000    18.163003     0.000000
    0.000000     0.000000    14.166580
   W   B
  18  25
Direct
    0.432667     0.451593     0.476014 
    0.407652     0.338050     0.596462 
    0.321212     0.440538     0.365949 
    0.276128     0.384494     0.543360 
    0.338146     0.576093     0.433844 
    0.542586     0.519446     0.340178 
    0.548869     0.366708     0.385601 
    0.630010     0.308011     0.530563 
    0.611136     0.582195     0.627935 
    0.492467     0.591811     0.509428 
    0.372853     0.564712     0.618413 
    0.379007     0.698941     0.497224 
    0.594018     0.467393     0.506301 
    0.604492     0.690517     0.494796 
    0.723836     0.411027     0.571238 
    0.712115     0.581432     0.497900 
    0.493324     0.465568     0.651170 
    0.491121     0.764348     0.553003 
    0.531107     0.338748     0.623480 
    0.512787     0.288605     0.526139 
    0.448918     0.439929     0.310410 
    0.254767     0.491735     0.478482 
    0.413762     0.526768     0.326595 
    0.356494     0.341223     0.444054 
    0.446751     0.315969     0.454013 
    0.420093     0.359665     0.355647 
    0.275234     0.487132     0.607105 
    0.262529     0.566121     0.549812 
    0.642071     0.442005     0.349505 
    0.449571     0.614801     0.360624 
    0.360330     0.444921     0.636789 
    0.484946     0.700832     0.418799 
    0.535512     0.676012     0.633169 
    0.436759     0.670067     0.628720 
    0.488481     0.594697     0.671743 
    0.634195     0.611054     0.380221 
    0.671020     0.528944     0.370086 
    0.544156     0.640775     0.370227 
    0.610493     0.384797     0.644512 
    0.638893     0.468813     0.670497 
    0.718109     0.466552     0.434099 
    0.676681     0.379409     0.424684 
    0.714698     0.517553     0.631211 
EA33655 18.051 15.402 15.471 90.00 90.00 90.00 Sym.group:    0
1.0
   18.050538     0.000000     0.000000
    0.000000    15.401714     0.000000
    0.000000     0.000000    15.470990
   W   B
  19  21
Direct
    0.444937     0.377064     0.634188 
    0.569893     0.396985     0.365615 
    0.471860     0.461642     0.484696 
    0.405018     0.351179     0.369904 
    0.339075     0.373180     0.518754 
    0.351226     0.523341     0.392987 
    0.569918     0.328349     0.536580 
    0.649823     0.537692     0.665073 
    0.613189     0.512878     0.511408 
    0.715498     0.461660     0.418879 
    0.605660     0.690488     0.459914 
    0.480801     0.641714     0.512545 
    0.536903     0.573725     0.359921 
    0.358545     0.539027     0.582570 
    0.419759     0.690380     0.373874 
    0.247077     0.590087     0.508332 
    0.308724     0.412189     0.682167 
    0.502579     0.542601     0.654701 
    0.407566     0.670629     0.649395 
    0.658780     0.338023     0.434899 
    0.398514     0.492023     0.712915 
    0.588120     0.643642     0.598361 
    0.503318     0.294038     0.423493 
    0.455335     0.470778     0.326037 
    0.246394     0.462622     0.571563 
    0.293582     0.398744     0.388623 
    0.247803     0.461035     0.457531 
    0.727483     0.452915     0.576135 
    0.692568     0.366278     0.527308 
    0.637298     0.504252     0.321680 
    0.709085     0.611778     0.464017 
    0.659854     0.592422     0.375185 
    0.736008     0.554836     0.551459 
    0.654814     0.400093     0.621666 
    0.678392     0.640495     0.565050 
    0.354756     0.680044     0.520928 
    0.316128     0.661312     0.422601 
    0.429783     0.575573     0.299362 
    0.445955     0.303966     0.506834 
    0.567980     0.420320     0.652847 
EA42393 17.140 16.725 15.916 90.00 90.00 90.00 Sym.group:    0
1.0
   17.140294     0.000000     0.000000
    0.000000    16.724914     0.000000
    0.000000     0.000000    15.915698
   W   B
  19  22
Direct
    0.315755     0.577079     0.518303 
    0.297999     0.631076     0.370834 
    0.467226     0.593348     0.490982 
    0.438701     0.663728     0.346382 
    0.362624     0.716064     0.474803 
    0.643450     0.597908     0.559237 
    0.731914     0.468020     0.515136 
    0.391068     0.507177     0.363876 
    0.632671     0.543052     0.301487 
    0.592541     0.643072     0.404950 
    0.522354     0.646633     0.652442 
    0.444206     0.430871     0.500408 
    0.417849     0.338038     0.361003 
    0.553421     0.322223     0.432937 
    0.588980     0.476238     0.464935 
    0.535137     0.422530     0.316234 
    0.380275     0.356666     0.612251 
    0.409566     0.525608     0.644880 
    0.533842     0.412219     0.652937 
    0.467615     0.722450     0.556149 
    0.564560     0.703291     0.532249 
    0.401619     0.654042     0.603796 
    0.603750     0.541832     0.680004 
    0.695580     0.564827     0.431461 
    0.498653     0.729897     0.454067 
    0.513322     0.549649     0.349218 
    0.705961     0.475445     0.381624 
    0.316547     0.400647     0.409527 
    0.435257     0.288567     0.490111 
    0.667427     0.353848     0.504570 
    0.346257     0.329214     0.479305 
    0.276555     0.487096     0.433389 
    0.533285     0.523875     0.587776 
    0.499319     0.308857     0.569041 
    0.595039     0.324647     0.569482 
    0.676715     0.489538     0.637334 
    0.514137     0.528310     0.716345 
    0.293037     0.413510     0.516812 
    0.305017     0.461244     0.606322 
    0.657112     0.394529     0.603128 
    0.673656     0.383135     0.404272 
EA42331 18.078 16.439 14.920 90.00 90.00 90.00 Sym.group:    0
1.0
   18.077849     0.000000     0.000000
    0.000000    16.439213     0.000000
    0.000000     0.000000    14.919574
   W   B
  19  23
Direct
    0.337726     0.583246     0.404454 
    0.535926     0.669962     0.623829 
    0.631178     0.542652     0.562791 
    0.485408     0.503516     0.645448 
    0.478497     0.598148     0.488380 
    0.602782     0.540590     0.366451 
    0.747113     0.521969     0.439716 
    0.453642     0.504445     0.328446 
    0.397397     0.449407     0.498197 
    0.314827     0.435016     0.354252 
    0.447828     0.355044     0.354366 
    0.482201     0.337902     0.605002 
    0.541754     0.441428     0.476636 
    0.631266     0.323257     0.524048 
    0.674011     0.400143     0.375029 
    0.435339     0.699389     0.365768 
    0.696854     0.397913     0.651740 
    0.336047     0.577807     0.578389 
    0.280543     0.443979     0.622580 
    0.448687     0.741330     0.508133 
    0.367644     0.688246     0.489918 
    0.409794     0.692885     0.593578 
    0.582683     0.574722     0.698809 
    0.606512     0.478462     0.697978 
    0.429399     0.617778     0.658926 
    0.531741     0.728463     0.468473 
    0.581371     0.412882     0.616566 
    0.599999     0.662319     0.491052 
    0.746272     0.484329     0.573747 
    0.515312     0.618298     0.307799 
    0.676605     0.619682     0.449395 
    0.357320     0.336047     0.563144 
    0.388164     0.405039     0.650460 
    0.281453     0.382864     0.492017 
    0.272893     0.486656     0.483438 
    0.344148     0.326275     0.439683 
    0.515717     0.291244     0.469247 
    0.570105     0.329597     0.385161 
    0.724748     0.405423     0.506091 
    0.422669     0.298619     0.487386 
    0.559787     0.673861     0.382014 
    0.556640     0.419162     0.321462 
EA42274 16.890 17.359 14.546 90.00 90.00 90.00 Sym.group:    0
1.0
   16.890141     0.000000     0.000000
    0.000000    17.358710     0.000000
    0.000000     0.000000    14.545601
   W   B
  19  24
Direct
    0.416507     0.477977     0.489857 
    0.292696     0.487993     0.374919 
    0.256339     0.467714     0.557282 
    0.394916     0.607376     0.406755 
    0.525887     0.512267     0.349979 
    0.533470     0.292016     0.508540 
    0.657141     0.546701     0.635323 
    0.544422     0.596201     0.508398 
    0.420099     0.625198     0.607368 
    0.471490     0.732331     0.478580 
    0.575896     0.439157     0.509686 
    0.688182     0.641356     0.484794 
    0.687242     0.339623     0.570855 
    0.726053     0.481389     0.495036 
    0.502782     0.491698     0.655004 
    0.607313     0.767289     0.534372 
    0.562084     0.354005     0.352427 
    0.423593     0.402932     0.295661 
    0.361171     0.395749     0.647451 
    0.476846     0.367849     0.604678 
    0.406845     0.330755     0.525704 
    0.274557     0.581511     0.468977 
    0.249632     0.386238     0.442436 
    0.306688     0.353637     0.523710 
    0.343638     0.368277     0.404195 
    0.299054     0.584683     0.585986 
    0.324960     0.659137     0.516741 
    0.511930     0.652761     0.366451 
    0.357665     0.519280     0.643276 
    0.587150     0.703496     0.413394 
    0.621668     0.667771     0.619181 
    0.524783     0.704730     0.617763 
    0.544055     0.615393     0.667417 
    0.661995     0.544224     0.384661 
    0.649748     0.450357     0.368670 
    0.607374     0.620147     0.364035 
    0.632008     0.425037     0.670915 
    0.687846     0.372865     0.422587 
    0.646839     0.287854     0.440951 
    0.727244     0.442920     0.639721 
    0.571583     0.354110     0.638504 
    0.398899     0.522346     0.299069 
    0.439710     0.325650     0.408687 
EA42250 17.510 16.501 15.847 90.00 90.00 90.00 Sym.group:    0
1.0
   17.510388     0.000000     0.000000
    0.000000    16.501032     0.000000
    0.000000     0.000000    15.846582
   W   B
  19  25
Direct
    0.383493     0.564934     0.366303 
    0.256783     0.493425     0.426106 
    0.324212     0.594231     0.541640 
    0.599528     0.683301     0.483824 
    0.578022     0.553699     0.370016 
    0.493703     0.682496     0.353459 
    0.432698     0.609270     0.655380 
    0.476410     0.591870     0.499501 
    0.261639     0.433515     0.575457 
    0.399279     0.450639     0.519484 
    0.307794     0.344773     0.456537 
    0.565484     0.433005     0.497842 
    0.695006     0.484242     0.598108 
    0.553270     0.509017     0.647278 
    0.485740     0.358454     0.623374 
    0.450211     0.350904     0.383943 
    0.449749     0.471263     0.271573 
    0.627153     0.372444     0.676083 
    0.364739     0.710753     0.427973 
    0.475134     0.480483     0.407862 
    0.275469     0.621522     0.413681 
    0.645160     0.609095     0.606128 
    0.704751     0.603947     0.524366 
    0.689165     0.594435     0.418658 
    0.477655     0.735852     0.482807 
    0.498433     0.710670     0.583648 
    0.557121     0.645073     0.624302 
    0.405422     0.705433     0.556297 
    0.434922     0.474007     0.680641 
    0.344285     0.510175     0.653772 
    0.358556     0.331774     0.588528 
    0.348134     0.430391     0.353872 
    0.364736     0.407417     0.658099 
    0.675763     0.361627     0.550226 
    0.697615     0.496248     0.385898 
    0.640150     0.413508     0.381046 
    0.700233     0.426900     0.470860 
    0.742765     0.523694     0.474271 
    0.420731     0.302362     0.510679 
    0.522750     0.298863     0.489377 
    0.572315     0.336641     0.393391 
    0.594232     0.308502     0.561227 
    0.546993     0.422535     0.339229 
    0.602596     0.556614     0.517256 
EA42395 17.102 16.599 15.964 90.00 90.00 90.00 Sym.group:    0
1.0
   17.102130     0.000000     0.000000
    0.000000    16.599356     0.000000
    0.000000     0.000000    15.963789
   W   B
  20  21
Direct
    0.679234     0.577120     0.517258 
    0.699781     0.624730     0.368194 
    0.524844     0.593962     0.492837 
    0.558003     0.663190     0.344427 
    0.636274     0.714706     0.470438 
    0.361082     0.596694     0.561156 
    0.269591     0.466763     0.515079 
    0.604704     0.507798     0.366126 
    0.350588     0.534664     0.304116 
    0.406395     0.649819     0.409676 
    0.480403     0.646959     0.655055 
    0.560849     0.428413     0.503521 
    0.584401     0.328780     0.362386 
    0.455388     0.319307     0.440000 
    0.410511     0.475855     0.458170 
    0.471603     0.426750     0.310430 
    0.621950     0.356704     0.616793 
    0.591802     0.526697     0.645212 
    0.468890     0.411217     0.661625 
    0.333801     0.387389     0.356682 
    0.534689     0.723504     0.556361 
    0.437494     0.705236     0.535185 
    0.600901     0.657085     0.601773 
    0.399543     0.541260     0.681927 
    0.302357     0.572322     0.435961 
    0.501942     0.731135     0.453597 
    0.479705     0.554892     0.348359 
    0.259988     0.496020     0.383688 
    0.680234     0.396717     0.411112 
    0.569575     0.283821     0.499793 
    0.337721     0.354282     0.499039 
    0.655270     0.325892     0.482893 
    0.719169     0.482292     0.435686 
    0.468830     0.518632     0.590232 
    0.505435     0.306578     0.575917 
    0.410914     0.328448     0.569756 
    0.329344     0.486920     0.635044 
    0.488415     0.530469     0.720955 
    0.706969     0.409872     0.518307 
    0.695470     0.462522     0.606412 
    0.345944     0.394586     0.598819 
EA42334 16.856 16.592 15.799 90.00 90.00 90.00 Sym.group:    0
1.0
   16.855515     0.000000     0.000000
    0.000000    16.591925     0.000000
    0.000000     0.000000    15.798824
   W   B
  20  22
Direct
    0.471167     0.578552     0.457675 
    0.421941     0.713527     0.377489 
    0.370415     0.472941     0.355348 
    0.276553     0.357908     0.562495 
    0.553083     0.646315     0.329934 
    0.397200     0.566996     0.611491 
    0.541741     0.667941     0.592887 
    0.734514     0.501243     0.428553 
    0.629961     0.612030     0.467473 
    0.731739     0.428693     0.560565 
    0.513715     0.312855     0.557518 
    0.575544     0.453398     0.476282 
    0.586072     0.570813     0.706108 
    0.521991     0.489550     0.318712 
    0.464756     0.345596     0.393608 
    0.304824     0.332327     0.410594 
    0.332386     0.677658     0.499210 
    0.411336     0.434380     0.509779 
    0.598168     0.430309     0.640850 
    0.348698     0.442854     0.680335 
    0.280628     0.450041     0.461393 
    0.395780     0.334842     0.616562 
    0.587308     0.368318     0.351268 
    0.650023     0.444364     0.343360 
    0.643051     0.335513     0.530636 
    0.677046     0.375495     0.427146 
    0.428523     0.592938     0.312476 
    0.641779     0.547040     0.336712 
    0.412444     0.696992     0.602938 
    0.483093     0.488565     0.690274 
    0.532859     0.712219     0.455808 
    0.448811     0.732880     0.512838 
    0.732425     0.562914     0.550191 
    0.697438     0.528492     0.645742 
    0.665925     0.620130     0.606926 
    0.326946     0.544401     0.474488 
    0.523488     0.531903     0.586918 
    0.388493     0.298067     0.509232 
    0.290470     0.490378     0.562422 
    0.588213     0.314923     0.441881 
    0.349655     0.602823     0.383577 
    0.469802     0.390874     0.660302 
EA24629 18.294 17.225 15.037 90.00 90.00 90.00 Sym.group:    0
1.0
   18.294067     0.000000     0.000000
    0.000000    17.224710     0.000000
    0.000000     0.000000    15.036522
   W   B
  20  23
Direct
    0.639287     0.398317     0.666528 
    0.610092     0.489054     0.511123 
    0.730656     0.527719     0.607783 
    0.506569     0.504695     0.643578 
    0.713679     0.601915     0.472914 
    0.561678     0.352456     0.418266 
    0.525364     0.346962     0.594927 
    0.397484     0.377477     0.668228 
    0.388154     0.274564     0.544047 
    0.444643     0.421545     0.487672 
    0.425454     0.391994     0.303163 
    0.516930     0.497086     0.348290 
    0.335957     0.491583     0.570976 
    0.511423     0.665599     0.607922 
    0.361825     0.509318     0.368480 
    0.452693     0.580834     0.491202 
    0.341623     0.653906     0.559790 
    0.582545     0.640475     0.447082 
    0.459938     0.640938     0.335136 
    0.326490     0.365930     0.424925 
    0.637447     0.620988     0.585703 
    0.626369     0.518294     0.675275 
    0.746833     0.471835     0.479574 
    0.587349     0.602968     0.682541 
    0.712950     0.410234     0.553316 
    0.705146     0.496022     0.387610 
    0.636579     0.355067     0.530891 
    0.681254     0.402691     0.438467 
    0.491189     0.267968     0.483608 
    0.437054     0.300107     0.403455 
    0.627611     0.446211     0.356669 
    0.634688     0.548048     0.350346 
    0.569872     0.608436     0.307064 
    0.247287     0.414870     0.518866 
    0.397560     0.498132     0.697340 
    0.305118     0.363423     0.575558 
    0.397659     0.708576     0.442107 
    0.488978     0.717564     0.457712 
    0.346362     0.636218     0.408626 
    0.289342     0.574639     0.461630 
    0.262850     0.481513     0.444810 
    0.409079     0.587318     0.646135 
    0.428945     0.736511     0.540665 
EA23903 18.181 16.986 14.758 90.00 90.00 90.00 Sym.group:    0
1.0
   18.181254     0.000000     0.000000
    0.000000    16.985554     0.000000
    0.000000     0.000000    14.758245
   W   B
  20  24
Direct
    0.531971     0.594721     0.496553 
    0.624697     0.684076     0.571200 
    0.413911     0.694063     0.465773 
    0.377478     0.548988     0.449041 
    0.275711     0.668659     0.440612 
    0.349229     0.514654     0.625107 
    0.622191     0.546371     0.659682 
    0.246431     0.528102     0.402903 
    0.647854     0.393421     0.376704 
    0.531271     0.311200     0.431862 
    0.506983     0.477330     0.358331 
    0.592354     0.448843     0.525817 
    0.322375     0.377713     0.503089 
    0.513255     0.370030     0.683027 
    0.655437     0.382716     0.655444 
    0.450352     0.420491     0.516807 
    0.357421     0.428778     0.350024 
    0.732976     0.508332     0.442350 
    0.580597     0.606539     0.313878 
    0.486058     0.513918     0.657334 
    0.500255     0.708462     0.580687 
    0.257459     0.484441     0.536028 
    0.514849     0.693715     0.379951 
    0.266229     0.581784     0.541914 
    0.533971     0.736270     0.481332 
    0.527475     0.637537     0.651568 
    0.337727     0.639359     0.568109 
    0.656545     0.613682     0.445488 
    0.701347     0.585034     0.555142 
    0.712688     0.398676     0.517193 
    0.711133     0.485417     0.581431 
    0.459253     0.355882     0.317073 
    0.623726     0.520453     0.397687 
    0.648084     0.324845     0.505809 
    0.405511     0.319189     0.399770 
    0.578954     0.307877     0.578884 
    0.407597     0.316050     0.613481 
    0.415826     0.284150     0.503098 
    0.488796     0.287354     0.572935 
    0.382523     0.398781     0.662258 
    0.549473     0.364202     0.299686 
    0.432466     0.633705     0.602787 
    0.466333     0.609015     0.361353 
    0.603231     0.695171     0.420801 
EA42249 18.918 16.746 14.695 90.00 90.00 90.00 Sym.group:    0
1.0
   18.918101     0.000000     0.000000
    0.000000    16.745773     0.000000
    0.000000     0.000000    14.694540
   W   B
  20  25
Direct
    0.465530     0.524366     0.349965 
    0.334419     0.642652     0.485520 
    0.341258     0.458583     0.311185 
    0.368887     0.486761     0.490831 
    0.251384     0.520491     0.550460 
    0.392548     0.342183     0.549255 
    0.437870     0.361901     0.377806 
    0.564769     0.639432     0.370161 
    0.512489     0.703413     0.630259 
    0.447249     0.510277     0.657649 
    0.486866     0.591916     0.513084 
    0.586956     0.569168     0.641147 
    0.600463     0.351772     0.584611 
    0.502910     0.432131     0.514392 
    0.631672     0.517892     0.476991 
    0.762959     0.503590     0.501891 
    0.596510     0.376210     0.399981 
    0.617819     0.685370     0.523851 
    0.723246     0.628424     0.431200 
    0.432424     0.683879     0.374524 
    0.583261     0.507503     0.323945 
    0.278721     0.544991     0.402045 
    0.325718     0.500258     0.667241 
    0.277695     0.391559     0.516830 
    0.310019     0.416409     0.617557 
    0.262413     0.446505     0.420805 
    0.340373     0.588445     0.629018 
    0.354487     0.583608     0.353815 
    0.324202     0.367964     0.421322 
    0.403429     0.656277     0.609510 
    0.427912     0.717201     0.522789 
    0.510214     0.729428     0.478027 
    0.700962     0.602023     0.575850 
    0.514099     0.290644     0.482354 
    0.551239     0.445145     0.680835 
    0.698133     0.514944     0.626763 
    0.702742     0.417124     0.598359 
    0.487859     0.377029     0.658740 
    0.692556     0.379341     0.492969 
    0.495677     0.296284     0.593827 
    0.640037     0.448922     0.672220 
    0.523798     0.282883     0.369454 
    0.655170     0.569827     0.326878 
    0.665496     0.470796     0.325292 
    0.715562     0.424477     0.398793 
