EA5    16.613 16.863 16.792 90.00 90.00 90.00 Sym.group:    0
1.0
   16.612656     0.000000     0.000000
    0.000000    16.863447     0.000000
    0.000000     0.000000    16.792226
   W   B
  20  25
Direct
    0.509478     0.494480     0.493756 
    0.540847     0.632606     0.395828 
    0.432066     0.307835     0.566018 
    0.689122     0.450077     0.555407 
    0.331078     0.575644     0.501273 
    0.469148     0.565183     0.278486 
    0.614514     0.532883     0.305185 
    0.395103     0.679666     0.593042 
    0.650605     0.593031     0.605317 
    0.532240     0.288356     0.433258 
    0.345412     0.547527     0.646927 
    0.614493     0.468805     0.689761 
    0.387688     0.351637     0.428858 
    0.537712     0.694017     0.629815 
    0.471569     0.482985     0.729956 
    0.614506     0.375009     0.331267 
    0.384372     0.442279     0.305426 
    0.273879     0.447005     0.438204 
    0.666022     0.316798     0.499166 
    0.653250     0.682882     0.494775 
    0.446309     0.765758     0.508751 
    0.755134     0.479347     0.457740 
    0.538593     0.360742     0.695146 
    0.352316     0.399532     0.628534 
    0.342602     0.600243     0.299935 
    0.396612     0.647108     0.368372 
    0.563651     0.290663     0.562299 
    0.612537     0.353657     0.620525 
    0.404464     0.695503     0.453867 
    0.517404     0.438149     0.286082 
    0.672845     0.599192     0.401409 
    0.456972     0.605379     0.687773 
    0.719590     0.565478     0.492887 
    0.483283     0.352235     0.327968 
    0.287352     0.462154     0.564436 
    0.555443     0.582631     0.704008 
    0.311965     0.367972     0.530667 
    0.456696     0.464526     0.610392 
    0.404359     0.476949     0.425496 
    0.548783     0.607357     0.528863 
    0.587030     0.398890     0.454161 
    0.439840     0.373472     0.670408 
    0.342642     0.542962     0.380045 
    0.517886     0.697647     0.499601 
    0.672589     0.443746     0.418908 
EA416  18.497 16.222 15.750 90.00 90.00 90.00 Sym.group:    0
1.0
   18.496978     0.000000     0.000000
    0.000000    16.221712     0.000000
    0.000000     0.000000    15.749945
   W   B
  20  25
Direct
    0.574142     0.719222     0.450532 
    0.448637     0.665101     0.466961 
    0.578992     0.711016     0.603131 
    0.429900     0.669780     0.625452 
    0.563376     0.585217     0.676000 
    0.426378     0.508131     0.651011 
    0.630934     0.441788     0.639893 
    0.632144     0.571148     0.399428 
    0.306738     0.600899     0.652009 
    0.697184     0.602484     0.627023 
    0.447442     0.466096     0.478214 
    0.534682     0.338555     0.415132 
    0.304997     0.472981     0.462285 
    0.322761     0.613976     0.402334 
    0.452318     0.310756     0.550168 
    0.371448     0.500644     0.299299 
    0.601798     0.306252     0.556289 
    0.498322     0.526365     0.265063 
    0.412412     0.363475     0.699432 
    0.327407     0.317639     0.480300 
    0.333430     0.663407     0.535947 
    0.664681     0.657904     0.506912 
    0.526287     0.424594     0.579711 
    0.526704     0.567080     0.454538 
    0.576994     0.521769     0.549254 
    0.667344     0.504266     0.529021 
    0.727995     0.578906     0.494917 
    0.696211     0.402573     0.518895 
    0.743720     0.486314     0.631848 
    0.715316     0.476025     0.440418 
    0.497903     0.580113     0.560642 
    0.248157     0.511789     0.582381 
    0.452351     0.401911     0.323084 
    0.621534     0.432228     0.372407 
    0.420802     0.301686     0.410982 
    0.368374     0.388708     0.374182 
    0.520028     0.632169     0.356970 
    0.263831     0.594318     0.524550 
    0.526801     0.349968     0.661818 
    0.430788     0.607275     0.342539 
    0.649798     0.357475     0.446385 
    0.539898     0.482519     0.391829 
    0.363614     0.403965     0.572589 
    0.542302     0.415248     0.299330 
    0.313129     0.466268     0.638896 
EA830  17.505 16.844 15.346 90.00 90.00 90.00 Sym.group:    0
1.0
   17.504824     0.000000     0.000000
    0.000000    16.843581     0.000000
    0.000000     0.000000    15.346467
   W   B
  19  23
Direct
    0.681787     0.380687     0.404537 
    0.491581     0.277189     0.596198 
    0.312069     0.399087     0.397259 
    0.320088     0.617714     0.593983 
    0.509325     0.724313     0.406484 
    0.684142     0.594343     0.602583 
    0.403569     0.486594     0.619660 
    0.437268     0.580124     0.376477 
    0.535996     0.593306     0.621497 
    0.593497     0.517109     0.376850 
    0.563683     0.421455     0.623271 
    0.462922     0.408549     0.377250 
    0.382708     0.705238     0.485765 
    0.612635     0.708574     0.512920 
    0.726535     0.501741     0.484335 
    0.615716     0.292809     0.511916 
    0.388040     0.292911     0.484220 
    0.269509     0.497217     0.509230 
    0.632838     0.520424     0.726052 
    0.582718     0.399564     0.319913 
    0.458401     0.376554     0.679207 
    0.373137     0.478818     0.311855 
    0.417778     0.602379     0.683282 
    0.541103     0.627416     0.317651 
    0.314421     0.527481     0.376808 
    0.429560     0.679233     0.618556 
    0.613769     0.653951     0.379389 
    0.694491     0.466598     0.622767 
    0.569239     0.321189     0.382058 
    0.386989     0.349511     0.614339 
    0.505471     0.283704     0.449891 
    0.322746     0.387248     0.546309 
    0.315496     0.602435     0.447252 
    0.493940     0.716133     0.550874 
    0.676982     0.614392     0.446860 
    0.683270     0.393670     0.549634 
    0.403808     0.482312     0.476835 
    0.436473     0.577783     0.519646 
    0.532094     0.595352     0.476831 
    0.594694     0.518361     0.519733 
    0.563341     0.422708     0.478651 
    0.466172     0.403826     0.521173 
EA1083 19.637 15.079 15.320 90.00 90.00 90.00 Sym.group:    0
1.0
   19.636542     0.000000     0.000000
    0.000000    15.079082     0.000000
    0.000000     0.000000    15.320105
   W   B
  20  24
Direct
    0.479306     0.645824     0.489928 
    0.476563     0.536135     0.357595 
    0.477474     0.376347     0.416993 
    0.478721     0.388388     0.586513 
    0.480775     0.554259     0.631108 
    0.725329     0.395344     0.582341 
    0.720356     0.637063     0.486776 
    0.603707     0.518998     0.305900 
    0.609515     0.341227     0.371036 
    0.607308     0.324647     0.632433 
    0.607850     0.578696     0.696574 
    0.608310     0.717856     0.479341 
    0.277318     0.451923     0.372925 
    0.278006     0.363609     0.509382 
    0.281459     0.466827     0.635362 
    0.280625     0.620841     0.575229 
    0.278432     0.610227     0.414583 
    0.192392     0.505480     0.506409 
    0.663170     0.267583     0.505732 
    0.600983     0.477503     0.454827 
    0.366844     0.367599     0.605197 
    0.368498     0.564455     0.658171 
    0.366990     0.673540     0.488076 
    0.363066     0.544157     0.333129 
    0.362619     0.356419     0.405564 
    0.302436     0.502618     0.500748 
    0.692753     0.441326     0.352549 
    0.649154     0.457715     0.656434 
    0.649053     0.644970     0.590362 
    0.647317     0.634402     0.376586 
    0.389995     0.332505     0.506056 
    0.393004     0.457944     0.658957 
    0.392944     0.642595     0.587648 
    0.390180     0.629684     0.392032 
    0.387851     0.438914     0.340340 
    0.481913     0.500606     0.495888 
    0.559054     0.314599     0.504060 
    0.561912     0.453359     0.663397 
    0.562797     0.655815     0.592439 
    0.561557     0.637021     0.378733 
    0.719869     0.495683     0.484492 
    0.690684     0.541259     0.595486 
    0.709042     0.384780     0.443330 
    0.702867     0.549253     0.379340 
EA1584 17.372 15.985 15.396 90.00 90.00 90.00 Sym.group:    0
1.0
   17.371897     0.000000     0.000000
    0.000000    15.985471     0.000000
    0.000000     0.000000    15.396409
   W   B
  16  25
Direct
    0.621221     0.614500     0.377297 
    0.645647     0.459636     0.683932 
    0.650153     0.337717     0.574264 
    0.464159     0.612168     0.327932 
    0.680007     0.464993     0.350223 
    0.755713     0.537546     0.468245 
    0.609066     0.630782     0.647076 
    0.684781     0.665359     0.517761 
    0.533151     0.464483     0.373963 
    0.611159     0.492565     0.524169 
    0.525502     0.620775     0.505822 
    0.441453     0.456048     0.518637 
    0.506074     0.523229     0.661158 
    0.346017     0.359617     0.585931 
    0.293660     0.521885     0.590603 
    0.417985     0.708866     0.484105 
    0.623961     0.371754     0.436709 
    0.465862     0.381481     0.293021 
    0.534310     0.355827     0.485044 
    0.465383     0.337006     0.387587 
    0.600822     0.736995     0.444990 
    0.713627     0.549896     0.607753 
    0.733132     0.447097     0.577433 
    0.526884     0.716117     0.383967 
    0.430433     0.479616     0.281986 
    0.544667     0.395498     0.619538 
    0.711355     0.406288     0.475650 
    0.354137     0.648084     0.599324 
    0.477360     0.324603     0.580754 
    0.383883     0.468954     0.671837 
    0.354413     0.357132     0.444500 
    0.387118     0.574864     0.666217 
    0.434680     0.304560     0.486470 
    0.451047     0.649574     0.622331 
    0.451062     0.393545     0.659294 
    0.292361     0.431355     0.485561 
    0.317748     0.627556     0.503155 
    0.316503     0.530209     0.456289 
    0.392555     0.409011     0.356630 
    0.364370     0.615724     0.407787 
    0.386576     0.517086     0.375058 
EA1933 17.809 16.655 16.384 90.00 90.00 90.00 Sym.group:    0
1.0
   17.808952     0.000000     0.000000
    0.000000    16.654706     0.000000
    0.000000     0.000000    16.383776
   W   B
  20  21
Direct
    0.709400     0.561780     0.418957 
    0.592971     0.353802     0.460975 
    0.761969     0.494406     0.539089 
    0.610971     0.465394     0.356162 
    0.569320     0.581644     0.273758 
    0.465724     0.493496     0.328077 
    0.550338     0.609274     0.422803 
    0.643985     0.441149     0.616145 
    0.660200     0.602224     0.566377 
    0.416469     0.517173     0.493101 
    0.411685     0.660828     0.585369 
    0.352474     0.361005     0.472844 
    0.328756     0.538434     0.642180 
    0.498684     0.369899     0.579129 
    0.290517     0.593576     0.498911 
    0.529728     0.537920     0.594081 
    0.414654     0.665879     0.421703 
    0.336616     0.569540     0.346951 
    0.343312     0.375396     0.618505 
    0.468510     0.273098     0.437444 
    0.514661     0.370417     0.349761 
    0.707421     0.427767     0.437024 
    0.466042     0.630365     0.309277 
    0.611659     0.498780     0.489207 
    0.419171     0.365233     0.353183 
    0.594320     0.707776     0.518799 
    0.493060     0.634651     0.679727 
    0.288135     0.464630     0.536118 
    0.429388     0.465179     0.639954 
    0.473443     0.405765     0.442653 
    0.294053     0.476415     0.432846 
    0.446364     0.549565     0.694662 
    0.539594     0.674784     0.596830 
    0.351839     0.440062     0.358779 
    0.651006     0.315270     0.581168 
    0.658610     0.675781     0.456924 
    0.705195     0.372690     0.522472 
    0.399138     0.631017     0.709671 
    0.591001     0.332676     0.652563 
    0.411750     0.279108     0.556431 
    0.497869     0.716151     0.509389 
EA2237 17.757 16.645 15.773 90.00 90.00 90.00 Sym.group:    0
1.0
   17.757021     0.000000     0.000000
    0.000000    16.645423     0.000000
    0.000000     0.000000    15.773281
   W   B
  18  23
Direct
    0.571026     0.415142     0.331791 
    0.653010     0.471033     0.660980 
    0.670676     0.619816     0.585855 
    0.421724     0.445804     0.312445 
    0.677960     0.523379     0.351735 
    0.607489     0.337635     0.582722 
    0.661604     0.352176     0.437104 
    0.533951     0.568266     0.383325 
    0.617131     0.488610     0.503676 
    0.494496     0.406266     0.463714 
    0.507577     0.447101     0.633528 
    0.406686     0.593589     0.611422 
    0.306449     0.482457     0.612474 
    0.379262     0.329816     0.433776 
    0.507477     0.568762     0.725819 
    0.383219     0.517085     0.448420 
    0.539299     0.262662     0.444519 
    0.461008     0.295223     0.578395 
    0.643595     0.616245     0.447889 
    0.467070     0.666399     0.330124 
    0.561606     0.625612     0.512497 
    0.466348     0.703236     0.425356 
    0.718782     0.409856     0.552669 
    0.737600     0.509707     0.562631 
    0.476248     0.323470     0.342948 
    0.418609     0.576219     0.314087 
    0.567440     0.564923     0.611409 
    0.725450     0.566418     0.473093 
    0.348779     0.364610     0.565770 
    0.525011     0.660159     0.615512 
    0.402470     0.487223     0.701578 
    0.376385     0.650840     0.493254 
    0.393319     0.393467     0.653260 
    0.471062     0.686934     0.529317 
    0.302111     0.589198     0.529659 
    0.292330     0.410291     0.492500 
    0.264898     0.505943     0.483508 
    0.396592     0.639702     0.390834 
    0.310455     0.427153     0.387026 
    0.495192     0.534731     0.522985 
    0.738607     0.462842     0.460391 
EA2558 17.636 17.413 15.974 90.00 90.00 90.00 Sym.group:    0
1.0
   17.636437     0.000000     0.000000
    0.000000    17.412513     0.000000
    0.000000     0.000000    15.974188
   W   B
  19  22
Direct
    0.531087     0.468056     0.558140 
    0.562190     0.600276     0.644420 
    0.684130     0.538385     0.566133 
    0.439161     0.409448     0.687285 
    0.653802     0.386483     0.576322 
    0.429073     0.556553     0.684528 
    0.582435     0.306810     0.466150 
    0.502803     0.317136     0.589680 
    0.393008     0.267028     0.491093 
    0.246513     0.479782     0.464952 
    0.367248     0.504558     0.382011 
    0.458639     0.389975     0.433989 
    0.364103     0.480015     0.554766 
    0.559591     0.662425     0.411818 
    0.447482     0.605878     0.316316 
    0.617362     0.440483     0.402250 
    0.455311     0.594091     0.505068 
    0.320502     0.621916     0.456041 
    0.432887     0.690452     0.620305 
    0.710425     0.531303     0.433257 
    0.676904     0.616727     0.457614 
    0.534378     0.488136     0.710199 
    0.627337     0.651108     0.534947 
    0.619921     0.482294     0.667548 
    0.728250     0.446950     0.480776 
    0.565774     0.398436     0.679246 
    0.706602     0.357450     0.455068 
    0.369524     0.355003     0.575774 
    0.548444     0.538480     0.436135 
    0.641278     0.573599     0.371280 
    0.661442     0.329486     0.370153 
    0.337997     0.318315     0.390730 
    0.300191     0.397627     0.371025 
    0.321594     0.372173     0.485755 
    0.561246     0.553042     0.322126 
    0.467265     0.725839     0.493581 
    0.429256     0.693585     0.403782 
    0.342510     0.609595     0.592713 
    0.267189     0.558059     0.561966 
    0.542315     0.694388     0.549074 
    0.492833     0.488655     0.345984 
EA2850 18.338 16.369 14.997 90.00 90.00 90.00 Sym.group:    0
1.0
   18.337531     0.000000     0.000000
    0.000000    16.369433     0.000000
    0.000000     0.000000    14.997318
   W   B
  16  25
Direct
    0.489788     0.423415     0.598853 
    0.530251     0.286004     0.399536 
    0.364489     0.343851     0.567093 
    0.453893     0.423044     0.401157 
    0.409682     0.572776     0.360410 
    0.377165     0.503620     0.514212 
    0.286655     0.492586     0.633564 
    0.371122     0.647648     0.608479 
    0.620954     0.505328     0.490728 
    0.596588     0.516098     0.661403 
    0.715258     0.434639     0.591206 
    0.562447     0.524754     0.340396 
    0.594434     0.665406     0.430197 
    0.703044     0.577689     0.373186 
    0.451839     0.702061     0.456023 
    0.497225     0.589168     0.557950 
    0.472991     0.307521     0.521519 
    0.562177     0.328505     0.529589 
    0.385947     0.432887     0.669890 
    0.411771     0.297705     0.436462 
    0.548057     0.392767     0.320669 
    0.295805     0.566235     0.413834 
    0.340376     0.368444     0.428292 
    0.308874     0.463947     0.398713 
    0.413678     0.530049     0.661141 
    0.250924     0.505821     0.488402 
    0.278024     0.411007     0.503098 
    0.278286     0.595660     0.530237 
    0.342520     0.644026     0.464412 
    0.691693     0.574813     0.603277 
    0.744605     0.548807     0.514028 
    0.605197     0.389313     0.612436 
    0.656083     0.333487     0.540470 
    0.744679     0.468825     0.448840 
    0.693760     0.385913     0.453926 
    0.615565     0.392453     0.394177 
    0.470147     0.718990     0.604693 
    0.692150     0.629945     0.503176 
    0.617298     0.639250     0.577279 
    0.548580     0.719039     0.556927 
    0.505983     0.646503     0.340121 
EA3368 17.151 16.455 15.725 90.00 90.00 90.00 Sym.group:    0
1.0
   17.150858     0.000000     0.000000
    0.000000    16.454807     0.000000
    0.000000     0.000000    15.725163
   W   B
  18  21
Direct
    0.577819     0.376203     0.503710 
    0.429617     0.521308     0.393929 
    0.291205     0.524384     0.458758 
    0.457455     0.347013     0.393490 
    0.415662     0.424110     0.546836 
    0.507192     0.335565     0.656905 
    0.370808     0.653322     0.331158 
    0.568421     0.454386     0.351913 
    0.465488     0.696102     0.447592 
    0.635960     0.661741     0.460818 
    0.714918     0.433618     0.404626 
    0.547114     0.617123     0.348470 
    0.401264     0.592936     0.570147 
    0.631208     0.437943     0.635674 
    0.542366     0.542575     0.519907 
    0.342994     0.419856     0.303011 
    0.494314     0.491059     0.682060 
    0.251014     0.398165     0.528939 
    0.626175     0.337675     0.375157 
    0.340113     0.392120     0.435176 
    0.399095     0.398101     0.692650 
    0.309639     0.541219     0.316904 
    0.685582     0.314648     0.451533 
    0.367800     0.492979     0.670526 
    0.461471     0.434758     0.284294 
    0.311932     0.409106     0.643162 
    0.344767     0.650993     0.459089 
    0.473635     0.307259     0.531479 
    0.560872     0.738705     0.535101 
    0.491751     0.690974     0.585702 
    0.658779     0.550697     0.376526 
    0.593086     0.659005     0.596903 
    0.711224     0.555350     0.469785 
    0.515104     0.615432     0.649699 
    0.710224     0.375006     0.530046 
    0.669486     0.560855     0.572618 
    0.603855     0.570146     0.656781 
    0.720725     0.474427     0.533896 
    0.299864     0.503138     0.595029 
EA3694 17.296 16.339 15.661 90.00 90.00 90.00 Sym.group:    0
1.0
   17.295945     0.000000     0.000000
    0.000000    16.339361     0.000000
    0.000000     0.000000    15.661458
   W   B
  17  22
Direct
    0.580476     0.624819     0.512558 
    0.427660     0.470770     0.393055 
    0.283460     0.488999     0.464042 
    0.446791     0.658058     0.415751 
    0.418647     0.561036     0.541568 
    0.390644     0.337378     0.303866 
    0.556474     0.549931     0.362574 
    0.442654     0.296818     0.437489 
    0.707161     0.570556     0.401854 
    0.542869     0.375292     0.358302 
    0.395423     0.403352     0.557717 
    0.636978     0.553146     0.647123 
    0.555166     0.454836     0.518354 
    0.329386     0.582555     0.322976 
    0.496980     0.497063     0.683270 
    0.627571     0.412491     0.693716 
    0.285967     0.439440     0.311042 
    0.616823     0.664369     0.381567 
    0.322471     0.617073     0.457027 
    0.415699     0.602822     0.684128 
    0.681086     0.688340     0.452924 
    0.373441     0.506003     0.674271 
    0.448335     0.577738     0.303110 
    0.326851     0.595911     0.647575 
    0.335231     0.369568     0.428738 
    0.475879     0.681690     0.548990 
    0.575912     0.313312     0.484452 
    0.502420     0.315969     0.556615 
    0.646162     0.452303     0.378666 
    0.597829     0.335806     0.587978 
    0.700093     0.443832     0.473180 
    0.514019     0.373766     0.640101 
    0.709362     0.629485     0.530276 
    0.683657     0.441102     0.581014 
    0.712713     0.529569     0.531646 
    0.301895     0.499096     0.602975 
    0.503353     0.627458     0.637179 
    0.648093     0.364784     0.436980 
    0.284368     0.593463     0.555354 
EA3949 18.180 15.842 14.665 90.00 90.00 90.00 Sym.group:    0
1.0
   18.179889     0.000000     0.000000
    0.000000    15.841613     0.000000
    0.000000     0.000000    14.664943
   W   B
  16  25
Direct
    0.543423     0.317314     0.529445 
    0.468192     0.307800     0.674572 
    0.397485     0.491386     0.490349 
    0.397270     0.330253     0.533477 
    0.280456     0.417992     0.581349 
    0.248595     0.501712     0.437742 
    0.493498     0.455592     0.627576 
    0.386746     0.548695     0.674885 
    0.461350     0.479764     0.335161 
    0.720161     0.464562     0.484948 
    0.571333     0.606563     0.341990 
    0.576565     0.630556     0.558260 
    0.474685     0.709323     0.459668 
    0.620474     0.522403     0.680264 
    0.585962     0.483436     0.475347 
    0.684353     0.630497     0.439421 
    0.474022     0.348807     0.409209 
    0.380915     0.408692     0.669074 
    0.357803     0.564349     0.364933 
    0.337808     0.457914     0.350428 
    0.308450     0.388030     0.437111 
    0.388940     0.373740     0.383873 
    0.297277     0.550662     0.566550 
    0.504421     0.594078     0.677310 
    0.340043     0.640924     0.574338 
    0.319739     0.606163     0.464928 
    0.390856     0.721929     0.556015 
    0.655701     0.414449     0.357654 
    0.585301     0.472180     0.313145 
    0.658611     0.355185     0.550710 
    0.643991     0.347852     0.440276 
    0.559952     0.378730     0.377199 
    0.603069     0.386609     0.642447 
    0.668335     0.517963     0.348235 
    0.692715     0.417663     0.632227 
    0.592718     0.717514     0.439068 
    0.697592     0.585868     0.578191 
    0.733516     0.506311     0.630538 
    0.457676     0.654834     0.599980 
    0.494612     0.575146     0.454695 
    0.445384     0.616559     0.357408 
EA4093 17.973 15.975 16.505 90.00 90.00 90.00 Sym.group:    0
1.0
   17.972981     0.000000     0.000000
    0.000000    15.975492     0.000000
    0.000000     0.000000    16.505238
   W   B
  19  25
Direct
    0.613040     0.551441     0.617583 
    0.686023     0.520624     0.448023 
    0.533294     0.560580     0.392338 
    0.714061     0.442768     0.595850 
    0.664386     0.680592     0.539734 
    0.662041     0.583592     0.305386 
    0.406083     0.645912     0.583931 
    0.465973     0.493433     0.653767 
    0.349349     0.380061     0.587684 
    0.404959     0.493031     0.493951 
    0.463360     0.340578     0.699444 
    0.545863     0.269902     0.564158 
    0.591142     0.380475     0.661865 
    0.435038     0.324581     0.467294 
    0.561130     0.439217     0.511113 
    0.318544     0.530312     0.638760 
    0.504530     0.416449     0.350052 
    0.250500     0.481260     0.507163 
    0.303945     0.598694     0.405267 
    0.635608     0.653182     0.406659 
    0.728520     0.574613     0.562836 
    0.592525     0.686958     0.637951 
    0.569429     0.509489     0.272807 
    0.693392     0.383731     0.482691 
    0.628665     0.458754     0.333835 
    0.513844     0.627861     0.652348 
    0.480594     0.662330     0.477699 
    0.535332     0.688528     0.557918 
    0.568247     0.689066     0.461608 
    0.504635     0.565307     0.539453 
    0.419896     0.603190     0.378862 
    0.393666     0.679008     0.449226 
    0.317525     0.690079     0.498679 
    0.279003     0.608344     0.535933 
    0.385121     0.509237     0.348238 
    0.369651     0.430245     0.709545 
    0.383247     0.405610     0.372179 
    0.300919     0.463513     0.387114 
    0.427856     0.278385     0.590105 
    0.664506     0.322713     0.564505 
    0.633390     0.301528     0.471118 
    0.550731     0.311949     0.432016 
    0.629613     0.379835     0.400342 
    0.320823     0.383047     0.452970 
EA4406 18.006 17.359 15.221 90.00 90.00 90.00 Sym.group:    0
1.0
   18.006240     0.000000     0.000000
    0.000000    17.358638     0.000000
    0.000000     0.000000    15.220536
   W   B
  20  25
Direct
    0.733754     0.490811     0.525928 
    0.725720     0.642476     0.481910 
    0.605984     0.573683     0.486514 
    0.701010     0.500687     0.376358 
    0.549594     0.602490     0.316003 
    0.326390     0.671906     0.503606 
    0.478336     0.661367     0.451635 
    0.416814     0.633588     0.613376 
    0.413625     0.537578     0.328414 
    0.564416     0.459917     0.348874 
    0.276263     0.461670     0.398000 
    0.474608     0.344647     0.384020 
    0.373464     0.521939     0.500973 
    0.519351     0.434335     0.525505 
    0.545618     0.419564     0.698953 
    0.398440     0.398859     0.621942 
    0.519621     0.296393     0.633577 
    0.592754     0.241817     0.389403 
    0.643381     0.368149     0.440602 
    0.649763     0.368449     0.608455 
    0.612368     0.688551     0.400072 
    0.602607     0.710973     0.502241 
    0.667267     0.622091     0.356793 
    0.690570     0.586791     0.607377 
    0.645059     0.670817     0.586584 
    0.637223     0.503822     0.626252 
    0.601697     0.602832     0.642247 
    0.545819     0.669364     0.579952 
    0.372253     0.643477     0.380910 
    0.488940     0.560707     0.540224 
    0.492026     0.534889     0.430812 
    0.536948     0.533962     0.637486 
    0.372078     0.378009     0.472212 
    0.442301     0.320088     0.521391 
    0.604028     0.269898     0.530188 
    0.253517     0.571677     0.482642 
    0.242297     0.490705     0.535773 
    0.584946     0.339277     0.312884 
    0.363476     0.522627     0.657667 
    0.452762     0.503685     0.669077 
    0.513827     0.268008     0.491514 
    0.295179     0.468200     0.620227 
    0.299850     0.583636     0.386159 
    0.296421     0.410666     0.531554 
    0.377630     0.414925     0.363716 
EA4800 17.412 16.193 17.252 90.00 90.00 90.00 Sym.group:    0
1.0
   17.411960     0.000000     0.000000
    0.000000    16.193417     0.000000
    0.000000     0.000000    17.251581
   W   B
  19  24
Direct
    0.384758     0.602061     0.416966 
    0.588292     0.369221     0.396182 
    0.457343     0.426507     0.432303 
    0.450926     0.496119     0.566554 
    0.331315     0.616672     0.553379 
    0.444394     0.319627     0.568862 
    0.562481     0.407582     0.623909 
    0.591743     0.509793     0.484442 
    0.541403     0.618612     0.368462 
    0.492596     0.652308     0.509938 
    0.720563     0.570063     0.580803 
    0.652258     0.663268     0.481450 
    0.434205     0.745574     0.378057 
    0.432637     0.645478     0.648861 
    0.371598     0.282050     0.444230 
    0.362981     0.523666     0.691399 
    0.554447     0.772647     0.443645 
    0.583070     0.585098     0.624068 
    0.392962     0.771988     0.508581 
    0.532292     0.479584     0.339085 
    0.448205     0.524123     0.337437 
    0.375724     0.371852     0.347609 
    0.460907     0.311301     0.362126 
    0.311685     0.483789     0.580375 
    0.321944     0.399204     0.426142 
    0.332291     0.493135     0.478221 
    0.357157     0.403857     0.624195 
    0.360359     0.475290     0.361791 
    0.497823     0.286758     0.451220 
    0.584431     0.498707     0.719851 
    0.663473     0.488139     0.671745 
    0.684853     0.438251     0.588382 
    0.719040     0.456713     0.500971 
    0.490300     0.501260     0.702759 
    0.639719     0.380801     0.520165 
    0.669018     0.576589     0.385135 
    0.693497     0.468428     0.404000 
    0.439091     0.411024     0.675272 
    0.727497     0.550275     0.457867 
    0.309170     0.707424     0.455365 
    0.622499     0.496891     0.345440 
    0.560443     0.321583     0.519077 
    0.348612     0.396685     0.523679 
EA5121 18.077 16.325 14.990 90.00 90.00 90.00 Sym.group:    0
1.0
   18.077015     0.000000     0.000000
    0.000000    16.324663     0.000000
    0.000000     0.000000    14.990012
   W   B
  19  24
Direct
    0.365026     0.516847     0.368376 
    0.412517     0.427451     0.529332 
    0.447295     0.586204     0.481909 
    0.444003     0.533282     0.663178 
    0.543077     0.695886     0.419015 
    0.571203     0.633564     0.602074 
    0.308444     0.491925     0.625222 
    0.436095     0.662878     0.313866 
    0.323176     0.289680     0.475813 
    0.491566     0.435097     0.360669 
    0.471209     0.291020     0.446629 
    0.568445     0.506148     0.495216 
    0.655600     0.427080     0.377074 
    0.607020     0.374110     0.562368 
    0.707879     0.546284     0.512552 
    0.706125     0.678457     0.605824 
    0.582933     0.492569     0.692309 
    0.648068     0.601353     0.359918 
    0.303038     0.329021     0.631933 
    0.406715     0.291451     0.581512 
    0.290581     0.494309     0.482705 
    0.384559     0.372643     0.382147 
    0.354993     0.618437     0.610744 
    0.679269     0.565154     0.657553 
    0.350126     0.656410     0.417182 
    0.440778     0.659548     0.619328 
    0.419824     0.724356     0.441656 
    0.473271     0.717881     0.536743 
    0.374351     0.690720     0.531908 
    0.300774     0.409015     0.415884 
    0.504308     0.419195     0.628565 
    0.521806     0.577899     0.344899 
    0.493381     0.326207     0.581425 
    0.635190     0.302311     0.433815 
    0.688707     0.460388     0.637045 
    0.652881     0.670449     0.484010 
    0.710349     0.343830     0.475663 
    0.732200     0.409814     0.557532 
    0.756358     0.432083     0.453362 
    0.582208     0.510636     0.304409 
    0.568157     0.332029     0.371135 
    0.268692     0.401639     0.523429 
    0.317804     0.594735     0.504075 
EA5680 15.594 15.000 14.822 90.00 90.00 90.00 Sym.group:    0
1.0
   15.593574     0.000000     0.000000
    0.000000    14.999509     0.000000
    0.000000     0.000000    14.822219
   W   B
  16  22
Direct
    0.601986     0.377282     0.637717 
    0.600206     0.557271     0.678377 
    0.601620     0.680501     0.541623 
    0.596831     0.624678     0.362277 
    0.594552     0.440078     0.318658 
    0.597383     0.315624     0.462331 
    0.398009     0.377240     0.637716 
    0.399986     0.557333     0.678262 
    0.398443     0.680558     0.541645 
    0.403128     0.624718     0.362309 
    0.405433     0.440041     0.318656 
    0.402546     0.315656     0.462360 
    0.499999     0.251291     0.581871 
    0.499926     0.441684     0.757124 
    0.500020     0.695158     0.682794 
    0.500004     0.750926     0.420593 
    0.499983     0.547381     0.276867 
    0.499990     0.331169     0.345810 
    0.499994     0.607402     0.466611 
    0.499983     0.519785     0.390276 
    0.499990     0.416861     0.423833 
    0.499995     0.395757     0.534026 
    0.500003     0.478706     0.608272 
    0.500016     0.588332     0.578520 
    0.296506     0.390906     0.528392 
    0.295820     0.473951     0.607385 
    0.296308     0.582123     0.574875 
    0.298601     0.607248     0.462163 
    0.300357     0.524003     0.382402 
    0.299076     0.415091     0.415819 
    0.703479     0.390903     0.528385 
    0.704187     0.473948     0.607382 
    0.703694     0.582119     0.574881 
    0.701399     0.607238     0.462152 
    0.699640     0.523998     0.382402 
    0.700911     0.415089     0.415817 
    0.271528     0.498979     0.494711 
    0.728468     0.498971     0.494707 
EA6007 16.725 17.018 16.312 90.00 90.00 90.00 Sym.group:    0
1.0
   16.725344     0.000000     0.000000
    0.000000    17.017618     0.000000
    0.000000     0.000000    16.312086
   W   B
  17  22
Direct
    0.335205     0.485590     0.412186 
    0.340177     0.371884     0.631666 
    0.488089     0.574219     0.406865 
    0.637410     0.559168     0.366077 
    0.530674     0.448667     0.289407 
    0.432753     0.358671     0.409774 
    0.586266     0.503075     0.525223 
    0.494286     0.383020     0.586855 
    0.597418     0.349411     0.430918 
    0.598761     0.662353     0.478317 
    0.715084     0.449517     0.468389 
    0.273838     0.486641     0.560783 
    0.409231     0.559555     0.274233 
    0.379198     0.422095     0.275183 
    0.413802     0.552367     0.575859 
    0.577034     0.473219     0.675416 
    0.416744     0.688597     0.500559 
    0.341622     0.490682     0.673505 
    0.299650     0.595411     0.478467 
    0.311785     0.653208     0.557405 
    0.358843     0.610156     0.393764 
    0.654525     0.433578     0.347681 
    0.525838     0.450715     0.415938 
    0.332215     0.381242     0.497987 
    0.537522     0.573076     0.277634 
    0.494911     0.280613     0.498069 
    0.715954     0.529729     0.581797 
    0.645893     0.363993     0.558764 
    0.487855     0.660129     0.606097 
    0.701577     0.578816     0.489024 
    0.431995     0.452845     0.682653 
    0.588604     0.676513     0.612002 
    0.580167     0.291566     0.547833 
    0.543206     0.587855     0.645526 
    0.396846     0.308605     0.530612 
    0.690144     0.438299     0.606861 
    0.524933     0.737070     0.559705 
    0.658800     0.611098     0.586900 
    0.451140     0.466751     0.484068 
EA6141 18.318 16.511 15.635 90.00 90.00 90.00 Sym.group:    0
1.0
   18.317502     0.000000     0.000000
    0.000000    16.510926     0.000000
    0.000000     0.000000    15.635271
   W   B
  20  23
Direct
    0.605548     0.422645     0.565975 
    0.685378     0.424593     0.429894 
    0.739817     0.445513     0.582858 
    0.458581     0.669595     0.409166 
    0.410956     0.691268     0.558270 
    0.586228     0.445328     0.301272 
    0.599041     0.664643     0.416656 
    0.441861     0.452183     0.332627 
    0.513619     0.357182     0.437383 
    0.562500     0.270172     0.581100 
    0.455435     0.390271     0.604830 
    0.553647     0.487309     0.700270 
    0.407621     0.533257     0.499635 
    0.278295     0.343774     0.458714 
    0.699886     0.554895     0.353875 
    0.596901     0.611958     0.576429 
    0.259949     0.473978     0.519701 
    0.550462     0.523802     0.433825 
    0.374793     0.578683     0.325919 
    0.287871     0.618421     0.562817 
    0.509711     0.513079     0.572587 
    0.514585     0.693554     0.624748 
    0.665289     0.523555     0.654203 
    0.710985     0.570336     0.575187 
    0.748636     0.531378     0.482347 
    0.475406     0.601179     0.641264 
    0.596676     0.580129     0.299860 
    0.504909     0.577798     0.301393 
    0.693517     0.615649     0.478908 
    0.526551     0.714679     0.519405 
    0.616123     0.333361     0.366763 
    0.623817     0.307013     0.470212 
    0.460310     0.272165     0.530516 
    0.434339     0.509537     0.667457 
    0.327784     0.467101     0.399605 
    0.376536     0.583819     0.640580 
    0.340624     0.389114     0.566768 
    0.373325     0.368168     0.391994 
    0.340894     0.650217     0.443017 
    0.350782     0.482668     0.619172 
    0.555562     0.359120     0.680419 
    0.394917     0.332796     0.497114 
    0.290331     0.564120     0.425269 
EA6484 18.001 17.410 16.055 90.00 90.00 90.00 Sym.group:    0
1.0
   18.000505     0.000000     0.000000
    0.000000    17.410183     0.000000
    0.000000     0.000000    16.054522
   W   B
  20  23
Direct
    0.584290     0.435668     0.523236 
    0.543500     0.581491     0.504530 
    0.456429     0.613891     0.375818 
    0.604506     0.596566     0.338845 
    0.717028     0.286468     0.435305 
    0.535420     0.462385     0.366983 
    0.429317     0.472391     0.492973 
    0.412631     0.381062     0.370540 
    0.377105     0.486555     0.651343 
    0.330178     0.530539     0.398692 
    0.277624     0.403864     0.454239 
    0.498609     0.310922     0.510416 
    0.717886     0.423659     0.495136 
    0.204773     0.521508     0.482775 
    0.645978     0.297048     0.563741 
    0.531023     0.347946     0.649864 
    0.452615     0.722769     0.478104 
    0.650848     0.377335     0.354833 
    0.394109     0.610062     0.557306 
    0.486896     0.586597     0.679060 
    0.666054     0.568804     0.577960 
    0.587401     0.640908     0.622596 
    0.287278     0.554194     0.581582 
    0.637884     0.660995     0.448066 
    0.500177     0.683539     0.595110 
    0.552440     0.689206     0.413369 
    0.572687     0.707619     0.522498 
    0.507070     0.547333     0.277698 
    0.261322     0.461579     0.578174 
    0.350040     0.658411     0.434124 
    0.381170     0.341809     0.498635 
    0.333643     0.397978     0.570804 
    0.425679     0.498471     0.314687 
    0.533223     0.333515     0.374706 
    0.676455     0.488128     0.620085 
    0.652684     0.659726     0.549467 
    0.653238     0.504926     0.413712 
    0.680432     0.394495     0.630882 
    0.587280     0.529357     0.637052 
    0.598311     0.282946     0.428185 
    0.502210     0.473207     0.631984 
    0.285336     0.609283     0.493936 
    0.417222     0.364845     0.600948 
EA6742 21.017 17.199 14.782 90.00 90.00 90.00 Sym.group:    0
1.0
   21.017104     0.000000     0.000000
    0.000000    17.199318     0.000000
    0.000000     0.000000    14.782357
   W   B
  20  25
Direct
    0.364658     0.652825     0.596864 
    0.639081     0.639837     0.439388 
    0.371269     0.503225     0.685412 
    0.465819     0.557406     0.601302 
    0.444072     0.668148     0.457664 
    0.560831     0.658204     0.582961 
    0.635822     0.436068     0.589988 
    0.754857     0.602795     0.503627 
    0.447805     0.448981     0.340750 
    0.643355     0.485834     0.421425 
    0.529896     0.565389     0.410843 
    0.514595     0.437662     0.505875 
    0.614067     0.339797     0.359265 
    0.509045     0.310792     0.411758 
    0.495743     0.307069     0.588122 
    0.389094     0.365810     0.462594 
    0.276147     0.411007     0.468369 
    0.371133     0.526691     0.484026 
    0.419163     0.232115     0.509178 
    0.276890     0.553817     0.387127 
    0.561382     0.532720     0.656005 
    0.545586     0.692792     0.443312 
    0.460449     0.687000     0.607068 
    0.757587     0.488098     0.551329 
    0.294301     0.559227     0.623333 
    0.720607     0.565381     0.382226 
    0.704570     0.541363     0.604766 
    0.580595     0.538080     0.537740 
    0.750721     0.490286     0.435509 
    0.631976     0.564425     0.643498 
    0.672660     0.634156     0.581975 
    0.722880     0.411876     0.492758 
    0.591531     0.326097     0.509034 
    0.553801     0.442512     0.351301 
    0.666766     0.353696     0.482526 
    0.367347     0.532321     0.317743 
    0.366131     0.623871     0.363683 
    0.338408     0.446709     0.356852 
    0.332313     0.658254     0.455541 
    0.429082     0.418657     0.599855 
    0.394143     0.318377     0.613788 
    0.292303     0.465408     0.597783 
    0.259940     0.532219     0.527324 
    0.345895     0.395925     0.608590 
    0.435684     0.577077     0.349922 
EA7088 19.342 16.351 14.848 90.00 90.00 90.00 Sym.group:    0
1.0
   19.341917     0.000000     0.000000
    0.000000    16.350591     0.000000
    0.000000     0.000000    14.847950
   W   B
  20  23
Direct
    0.590640     0.444237     0.487293 
    0.513096     0.595633     0.516939 
    0.420968     0.612946     0.374765 
    0.761057     0.373896     0.427801 
    0.443846     0.445998     0.496367 
    0.462700     0.353431     0.361973 
    0.390309     0.446223     0.657541 
    0.340242     0.469627     0.384465 
    0.336763     0.322438     0.444258 
    0.551755     0.298400     0.498083 
    0.710737     0.495059     0.510753 
    0.235813     0.407850     0.468656 
    0.688136     0.335658     0.559939 
    0.584275     0.335074     0.659411 
    0.678339     0.436609     0.337340 
    0.371111     0.581199     0.546297 
    0.452372     0.588285     0.697505 
    0.627674     0.576296     0.383586 
    0.527659     0.473554     0.649385 
    0.604806     0.718953     0.443519 
    0.634703     0.609354     0.525778 
    0.516084     0.686806     0.645695 
    0.299586     0.476215     0.569127 
    0.436632     0.689277     0.601191 
    0.490469     0.719211     0.420296 
    0.508561     0.732782     0.535698 
    0.519392     0.551588     0.346515 
    0.302893     0.372356     0.575831 
    0.313774     0.597525     0.414222 
    0.440918     0.297180     0.499377 
    0.384084     0.331747     0.577920 
    0.450358     0.484710     0.332456 
    0.580911     0.357787     0.359312 
    0.629194     0.541054     0.616996 
    0.586052     0.691967     0.581341 
    0.650888     0.442112     0.634524 
    0.568167     0.607407     0.661541 
    0.651175     0.325705     0.420350 
    0.271998     0.534421     0.483615 
    0.470271     0.338830     0.605574 
    0.542296     0.450538     0.337859 
    0.426575     0.698108     0.492189 
    0.532722     0.651952     0.356720 
EA7445 19.443 16.436 14.542 90.00 90.00 90.00 Sym.group:    0
1.0
   19.442822     0.000000     0.000000
    0.000000    16.435601     0.000000
    0.000000     0.000000    14.541723
   W   B
  20  23
Direct
    0.589657     0.443795     0.488846 
    0.514052     0.597259     0.513097 
    0.422136     0.594067     0.365680 
    0.764841     0.384174     0.451542 
    0.445357     0.445986     0.498262 
    0.474280     0.341460     0.374342 
    0.388304     0.453606     0.661244 
    0.345708     0.450676     0.377600 
    0.345481     0.312064     0.455227 
    0.559983     0.299115     0.518179 
    0.706949     0.509229     0.514071 
    0.240425     0.393230     0.467888 
    0.689827     0.353695     0.584552 
    0.583397     0.356103     0.678950 
    0.682854     0.430045     0.343008 
    0.368405     0.578111     0.535085 
    0.440965     0.601553     0.693390 
    0.628784     0.569315     0.375879 
    0.523631     0.489128     0.656700 
    0.599106     0.716451     0.429564 
    0.637078     0.623111     0.515755 
    0.503942     0.699670     0.632201 
    0.301122     0.471762     0.562719 
    0.425508     0.692758     0.585281 
    0.485630     0.708055     0.402144 
    0.500411     0.734633     0.516930 
    0.522990     0.535975     0.346612 
    0.305807     0.369909     0.582740 
    0.314430     0.580154     0.395889 
    0.449063     0.298197     0.516160 
    0.388436     0.335060     0.590911 
    0.456758     0.467598     0.328688 
    0.589340     0.346690     0.369455 
    0.615840     0.562335     0.609473 
    0.579144     0.699223     0.574481 
    0.644040     0.465325     0.637209 
    0.555385     0.624270     0.664292 
    0.658801     0.328883     0.440824 
    0.272923     0.520510     0.468582 
    0.473609     0.348176     0.620773 
    0.552081     0.438412     0.334433 
    0.421301     0.692454     0.473022 
    0.532222     0.637778     0.348326 
EA8035 16.896 16.734 14.949 90.00 90.00 90.00 Sym.group:    0
1.0
   16.896429     0.000000     0.000000
    0.000000    16.733724     0.000000
    0.000000     0.000000    14.949413
   W   B
  16  21
Direct
    0.410357     0.450797     0.662334 
    0.409008     0.471136     0.329704 
    0.428408     0.522016     0.499765 
    0.319996     0.663140     0.467859 
    0.334640     0.580136     0.626378 
    0.527566     0.576303     0.345440 
    0.575321     0.725909     0.549807 
    0.428002     0.686903     0.601906 
    0.728897     0.541058     0.484156 
    0.458949     0.347237     0.406623 
    0.546429     0.400072     0.552557 
    0.613284     0.369104     0.366757 
    0.672542     0.305883     0.484382 
    0.564670     0.506317     0.682645 
    0.359830     0.352569     0.537002 
    0.464906     0.684564     0.439157 
    0.462888     0.574478     0.667491 
    0.312553     0.547320     0.396461 
    0.307727     0.447624     0.434891 
    0.340054     0.361750     0.385530 
    0.303971     0.465199     0.554685 
    0.387851     0.600929     0.358720 
    0.545220     0.633138     0.640950 
    0.650093     0.598808     0.388428 
    0.586991     0.672446     0.409957 
    0.661104     0.651256     0.487966 
    0.644404     0.502178     0.575328 
    0.675266     0.426651     0.515894 
    0.714927     0.440440     0.401734 
    0.525632     0.464260     0.414456 
    0.556761     0.275889     0.477160 
    0.515019     0.387010     0.700557 
    0.471371     0.284687     0.538021 
    0.456968     0.327515     0.636855 
    0.271013     0.549413     0.502456 
    0.633411     0.501244     0.383946 
    0.633969     0.604623     0.592044 
EA8054 17.016 16.803 16.302 90.00 90.00 90.00 Sym.group:    0
1.0
   17.015822     0.000000     0.000000
    0.000000    16.802772     0.000000
    0.000000     0.000000    16.301929
   W   B
  19  25
Direct
    0.486586     0.312770     0.380737 
    0.372753     0.406944     0.339635 
    0.742241     0.527245     0.347267 
    0.511719     0.471481     0.354798 
    0.509480     0.398637     0.508992 
    0.646277     0.422100     0.624395 
    0.634997     0.319996     0.505526 
    0.635162     0.482760     0.465930 
    0.461462     0.316942     0.619309 
    0.444604     0.643294     0.367572 
    0.604173     0.627855     0.382034 
    0.724661     0.614312     0.470706 
    0.316828     0.660211     0.440298 
    0.385498     0.515923     0.443699 
    0.393499     0.469287     0.600851 
    0.501718     0.698577     0.595572 
    0.631196     0.594744     0.609914 
    0.513622     0.580032     0.500278 
    0.398402     0.614068     0.668838 
    0.604627     0.370685     0.386398 
    0.366742     0.316239     0.432727 
    0.257724     0.468313     0.427116 
    0.363727     0.334167     0.544374 
    0.429472     0.271007     0.495496 
    0.648781     0.437179     0.329429 
    0.620821     0.525494     0.304410 
    0.312996     0.394663     0.469296 
    0.522567     0.255813     0.515629 
    0.739482     0.415728     0.534144 
    0.732298     0.515817     0.567917 
    0.772100     0.487801     0.471158 
    0.528487     0.715157     0.454139 
    0.281865     0.476400     0.529438 
    0.251878     0.555967     0.478247 
    0.269893     0.556342     0.376831 
    0.515205     0.429445     0.670991 
    0.376745     0.682690     0.559612 
    0.471707     0.518356     0.702555 
    0.524202     0.604846     0.694531 
    0.433169     0.714060     0.479523 
    0.573006     0.511359     0.700102 
    0.610522     0.685398     0.506246 
    0.551720     0.496592     0.588327 
    0.325382     0.583304     0.555014 
EA8424 18.104 16.811 15.673 90.00 90.00 90.00 Sym.group:    0
1.0
   18.104419     0.000000     0.000000
    0.000000    16.810556     0.000000
    0.000000     0.000000    15.672912
   W   B
  19  25
Direct
    0.483162     0.715900     0.407227 
    0.384998     0.624008     0.354653 
    0.728560     0.500115     0.344142 
    0.511828     0.547169     0.344913 
    0.493295     0.604370     0.501862 
    0.626853     0.558261     0.644390 
    0.625486     0.682127     0.528844 
    0.619219     0.523928     0.474130 
    0.498853     0.660480     0.647422 
    0.453658     0.374598     0.332502 
    0.601288     0.393825     0.360284 
    0.710712     0.398978     0.458481 
    0.329451     0.348450     0.395091 
    0.387562     0.488665     0.423693 
    0.408435     0.517099     0.604264 
    0.505180     0.290449     0.564288 
    0.620119     0.395015     0.599619 
    0.504164     0.421533     0.486879 
    0.404596     0.358543     0.648876 
    0.592207     0.645920     0.402475 
    0.377654     0.686908     0.476484 
    0.269436     0.534068     0.444003 
    0.389920     0.648227     0.582324 
    0.436234     0.730556     0.544634 
    0.636736     0.583300     0.336759 
    0.616467     0.500636     0.288393 
    0.338915     0.593119     0.499374 
    0.525257     0.747935     0.545041 
    0.713787     0.588933     0.550780 
    0.713052     0.485864     0.569979 
    0.749675     0.525296     0.475458 
    0.529572     0.297810     0.414855 
    0.301240     0.500870     0.543286 
    0.268470     0.436808     0.474320 
    0.267369     0.459249     0.372366 
    0.511543     0.539695     0.696906 
    0.385418     0.311119     0.522656 
    0.469647     0.448175     0.706607 
    0.521711     0.365610     0.683889 
    0.440685     0.292545     0.437840 
    0.565370     0.456580     0.704105 
    0.604967     0.318988     0.478907 
    0.536287     0.495154     0.592294 
    0.340958     0.403119     0.534708 
EA8749 18.058 16.811 15.839 90.00 90.00 90.00 Sym.group:    0
1.0
   18.057719     0.000000     0.000000
    0.000000    16.810578     0.000000
    0.000000     0.000000    15.839031
   W   B
  19  25
Direct
    0.486374     0.285462     0.397025 
    0.600708     0.358324     0.352875 
    0.276190     0.542088     0.347864 
    0.483824     0.458967     0.340734 
    0.494855     0.396127     0.490752 
    0.363335     0.466884     0.650070 
    0.351025     0.346422     0.521643 
    0.379205     0.494926     0.474639 
    0.472038     0.346310     0.636036 
    0.563928     0.618525     0.339275 
    0.416564     0.623492     0.364658 
    0.306898     0.636581     0.461865 
    0.690627     0.618582     0.401666 
    0.613471     0.491769     0.424612 
    0.585660     0.464884     0.605110 
    0.525858     0.707687     0.567535 
    0.394622     0.621912     0.600310 
    0.509014     0.577929     0.491677 
    0.614962     0.621887     0.651994 
    0.390283     0.374706     0.393572 
    0.592872     0.292760     0.471415 
    0.722282     0.423936     0.448516 
    0.584861     0.332523     0.576193 
    0.526284     0.262444     0.536711 
    0.355730     0.445138     0.332340 
    0.386404     0.525693     0.287332 
    0.643802     0.378402     0.499981 
    0.436267     0.261741     0.533056 
    0.277661     0.449953     0.553611 
    0.290762     0.549654     0.570467 
    0.251037     0.516095     0.476534 
    0.500945     0.705886     0.420840 
    0.694417     0.461961     0.546707 
    0.736990     0.519288     0.478701 
    0.735356     0.497027     0.378125 
    0.481808     0.462744     0.697843 
    0.642457     0.666040     0.527446 
    0.538084     0.545152     0.708896 
    0.498068     0.635250     0.681865 
    0.590525     0.696202     0.444419 
    0.441400     0.554474     0.705023 
    0.422629     0.696846     0.482569 
    0.460700     0.502305     0.588673 
    0.669218     0.565022     0.538823 
EA9224 17.891 16.688 15.379 90.00 90.00 90.00 Sym.group:    0
1.0
   17.890541     0.000000     0.000000
    0.000000    16.687959     0.000000
    0.000000     0.000000    15.378608
   W   B
  19  22
Direct
    0.468694     0.677404     0.370523 
    0.450749     0.574941     0.499846 
    0.329274     0.600337     0.582630 
    0.253993     0.489750     0.508319 
    0.511327     0.730459     0.517092 
    0.493442     0.606370     0.655741 
    0.593483     0.469822     0.705264 
    0.339442     0.472221     0.381044 
    0.407082     0.377547     0.657577 
    0.419574     0.331298     0.473285 
    0.549667     0.391572     0.380279 
    0.473869     0.528309     0.319376 
    0.515100     0.437498     0.571911 
    0.635299     0.348334     0.606837 
    0.672101     0.334434     0.448359 
    0.675858     0.575990     0.425092 
    0.625077     0.561802     0.581573 
    0.499313     0.275574     0.607215 
    0.335746     0.322712     0.343389 
    0.322528     0.600991     0.442744 
    0.320637     0.469926     0.617158 
    0.586210     0.683741     0.411606 
    0.399849     0.513538     0.654686 
    0.590030     0.681592     0.607181 
    0.626727     0.679360     0.509064 
    0.433284     0.393527     0.334821 
    0.291719     0.364828     0.459117 
    0.319709     0.384793     0.560107 
    0.570413     0.607213     0.342431 
    0.661487     0.447923     0.376168 
    0.594966     0.509919     0.341896 
    0.698597     0.461902     0.626682 
    0.732015     0.451796     0.443076 
    0.726642     0.509083     0.532269 
    0.730123     0.406280     0.540976 
    0.553103     0.318047     0.495528 
    0.452079     0.455166     0.440329 
    0.380368     0.689212     0.484847 
    0.416515     0.688896     0.587489 
    0.370815     0.594226     0.347330 
    0.473092     0.481671     0.709144 
EA9416 18.453 17.121 15.672 90.00 90.00 90.00 Sym.group:    0
1.0
   18.453017     0.000000     0.000000
    0.000000    17.120501     0.000000
    0.000000     0.000000    15.671708
   W   B
  19  25
Direct
    0.379444     0.503616     0.376803 
    0.351064     0.656781     0.414792 
    0.357953     0.361234     0.450026 
    0.261676     0.463058     0.454336 
    0.404232     0.265768     0.585058 
    0.488395     0.430727     0.467414 
    0.479810     0.504623     0.637669 
    0.612784     0.439870     0.679406 
    0.565462     0.673188     0.478674 
    0.701447     0.546145     0.629840 
    0.451055     0.582288     0.496788 
    0.595868     0.517448     0.524113 
    0.736423     0.510455     0.476562 
    0.538102     0.288131     0.487450 
    0.357169     0.452705     0.688331 
    0.537695     0.566862     0.357805 
    0.506674     0.347830     0.634730 
    0.290600     0.378157     0.588182 
    0.646374     0.381675     0.439353 
    0.425411     0.253458     0.453993 
    0.409014     0.398363     0.575425 
    0.383780     0.687172     0.546316 
    0.367871     0.558708     0.609556 
    0.292854     0.506276     0.583692 
    0.586427     0.567919     0.668292 
    0.622966     0.636082     0.599673 
    0.525871     0.628446     0.611117 
    0.445915     0.720072     0.470819 
    0.472426     0.702008     0.571096 
    0.678137     0.624394     0.514735 
    0.427460     0.611076     0.313504 
    0.468901     0.675631     0.380508 
    0.451250     0.525418     0.271396 
    0.651123     0.595769     0.415655 
    0.462884     0.313632     0.382377 
    0.541801     0.354699     0.355616 
    0.647264     0.502019     0.381985 
    0.753461     0.391593     0.492059 
    0.610754     0.366526     0.569504 
    0.426403     0.634452     0.627958 
    0.323255     0.562517     0.501281 
    0.579377     0.443648     0.345390 
    0.692453     0.421622     0.571334 
    0.490713     0.447939     0.319389 
EA9936 17.981 16.679 14.892 90.00 90.00 90.00 Sym.group:    0
1.0
   17.981246     0.000000     0.000000
    0.000000    16.678748     0.000000
    0.000000     0.000000    14.892231
   W   B
  19  21
Direct
    0.405916     0.366915     0.329485 
    0.683254     0.455138     0.314465 
    0.572265     0.369862     0.346362 
    0.520930     0.364326     0.642029 
    0.641752     0.410150     0.498821 
    0.333892     0.430692     0.474110 
    0.699342     0.570977     0.443165 
    0.478490     0.665511     0.396056 
    0.266407     0.557288     0.408602 
    0.577860     0.578938     0.526297 
    0.413230     0.588836     0.535354 
    0.407246     0.534146     0.352965 
    0.567095     0.538127     0.350772 
    0.290153     0.446502     0.308685 
    0.486415     0.519799     0.671660 
    0.490222     0.439004     0.479563 
    0.605200     0.712744     0.620525 
    0.639250     0.281463     0.586368 
    0.273022     0.538950     0.580510 
    0.641762     0.388503     0.645881 
    0.328205     0.419074     0.619409 
    0.482702     0.296077     0.417903 
    0.564253     0.301752     0.476416 
    0.402560     0.321877     0.465662 
    0.740608     0.447772     0.433508 
    0.692549     0.638871     0.571218 
    0.404255     0.361607     0.574650 
    0.655890     0.690815     0.486361 
    0.606802     0.659143     0.395624 
    0.495622     0.695565     0.538288 
    0.355191     0.647197     0.413892 
    0.569029     0.722143     0.474617 
    0.497629     0.645504     0.632698 
    0.574541     0.608597     0.686358 
    0.302031     0.644142     0.507770 
    0.487907     0.451916     0.303233 
    0.367839     0.503157     0.658807 
    0.410007     0.412720     0.679051 
    0.475749     0.301295     0.531978 
    0.592931     0.472904     0.620881 
EA10042 16.811 17.363 15.236 90.00 90.00 90.00 Sym.group:    0
1.0
   16.811339     0.000000     0.000000
    0.000000    17.363175     0.000000
    0.000000     0.000000    15.235902
   W   B
  20  25
Direct
    0.371678     0.489772     0.673644 
    0.490002     0.376340     0.677372 
    0.624480     0.441246     0.706246 
    0.695947     0.340281     0.500548 
    0.672288     0.479981     0.443358 
    0.553914     0.453822     0.550255 
    0.593394     0.295289     0.616735 
    0.458314     0.315909     0.517229 
    0.378487     0.361058     0.379302 
    0.312216     0.631360     0.632457 
    0.454044     0.587478     0.580509 
    0.400940     0.457866     0.500186 
    0.398413     0.530031     0.335372 
    0.449675     0.660973     0.421891 
    0.534633     0.709208     0.559963 
    0.277987     0.545712     0.491155 
    0.637473     0.340032     0.350033 
    0.552824     0.570088     0.319842 
    0.701563     0.566647     0.294360 
    0.519755     0.428570     0.375399 
    0.703333     0.596497     0.518575 
    0.254560     0.523135     0.634389 
    0.284877     0.432063     0.579570 
    0.663970     0.532146     0.593814 
    0.578993     0.560226     0.650116 
    0.364128     0.369371     0.616477 
    0.504569     0.508269     0.694861 
    0.632116     0.627759     0.590599 
    0.701835     0.443080     0.583264 
    0.699924     0.360777     0.640266 
    0.579738     0.285279     0.466873 
    0.512723     0.300634     0.385866 
    0.332239     0.661144     0.494133 
    0.326028     0.344608     0.517238 
    0.324347     0.626561     0.389995 
    0.274133     0.553427     0.348114 
    0.400454     0.706854     0.552874 
    0.272917     0.411150     0.465365 
    0.289087     0.461731     0.373361 
    0.490149     0.543589     0.446500 
    0.631137     0.463194     0.302997 
    0.643311     0.674987     0.496356 
    0.646468     0.639481     0.387126 
    0.736966     0.594607     0.419686 
    0.573970     0.697763     0.425725 
EA10615 17.156 16.392 15.257 90.00 90.00 90.00 Sym.group:    0
1.0
   17.155744     0.000000     0.000000
    0.000000    16.391811     0.000000
    0.000000     0.000000    15.256512
   W   B
  17  22
Direct
    0.618802     0.413779     0.459657 
    0.697072     0.562543     0.501089 
    0.410216     0.352161     0.359540 
    0.452034     0.512958     0.299996 
    0.552068     0.643847     0.458891 
    0.467786     0.568293     0.609079 
    0.455457     0.483918     0.462820 
    0.340349     0.597467     0.684406 
    0.371242     0.422387     0.601160 
    0.619699     0.572805     0.642390 
    0.247547     0.525529     0.609815 
    0.317695     0.481559     0.359953 
    0.539427     0.417343     0.610396 
    0.396522     0.629516     0.442698 
    0.710032     0.428449     0.607190 
    0.665898     0.296160     0.576778 
    0.460038     0.295406     0.614329 
    0.531652     0.321281     0.404667 
    0.627015     0.454580     0.709568 
    0.553057     0.304439     0.512743 
    0.633500     0.354942     0.691029 
    0.466874     0.275564     0.468507 
    0.526019     0.398178     0.335104 
    0.334917     0.391211     0.463416 
    0.646830     0.531704     0.377281 
    0.578488     0.588946     0.317479 
    0.660439     0.631966     0.368706 
    0.489094     0.636581     0.335784 
    0.675923     0.688388     0.453982 
    0.647960     0.681926     0.555522 
    0.554568     0.681626     0.600531 
    0.301956     0.631025     0.547630 
    0.278683     0.461822     0.498347 
    0.290103     0.560140     0.473315 
    0.466930     0.697326     0.550080 
    0.379261     0.679166     0.582389 
    0.387834     0.317257     0.502482 
    0.573892     0.524249     0.518294 
    0.573119     0.483562     0.332956 
EA10942 18.320 17.632 14.481 90.00 90.00 90.00 Sym.group:    0
1.0
   18.320351     0.000000     0.000000
    0.000000    17.631648     0.000000
    0.000000     0.000000    14.481175
   W   B
  16  23
Direct
    0.323020     0.392216     0.493892 
    0.409843     0.548977     0.338466 
    0.318939     0.576107     0.464609 
    0.245530     0.473037     0.592926 
    0.438262     0.478329     0.497438 
    0.632499     0.574264     0.368906 
    0.391670     0.686722     0.392170 
    0.550404     0.702666     0.582926 
    0.407994     0.648483     0.577504 
    0.504833     0.613646     0.445610 
    0.595968     0.401319     0.367895 
    0.456519     0.329801     0.416360 
    0.593241     0.482331     0.512894 
    0.529014     0.477373     0.669797 
    0.382260     0.427115     0.651096 
    0.721714     0.472565     0.389941 
    0.385582     0.422126     0.349515 
    0.475862     0.432582     0.340595 
    0.346989     0.542465     0.607470 
    0.242485     0.479201     0.449739 
    0.311764     0.472522     0.373078 
    0.533208     0.509156     0.359385 
    0.532575     0.740492     0.437745 
    0.459194     0.739738     0.499728 
    0.607244     0.690132     0.442229 
    0.638526     0.625148     0.520617 
    0.711461     0.465710     0.547110 
    0.663451     0.394403     0.596741 
    0.429496     0.541929     0.659520 
    0.693388     0.388746     0.483563 
    0.487900     0.363538     0.643616 
    0.576276     0.372189     0.616500 
    0.579258     0.586312     0.605748 
    0.562668     0.293542     0.438945 
    0.521527     0.316610     0.540328 
    0.427380     0.339937     0.555770 
    0.498464     0.604920     0.656421 
    0.616052     0.342183     0.512746 
    0.697540     0.551468     0.500461 
EA11273 17.847 16.880 14.031 90.00 90.00 90.00 Sym.group:    0
1.0
   17.847130     0.000000     0.000000
    0.000000    16.880106     0.000000
    0.000000     0.000000    14.031433
   W   B
  16  23
Direct
    0.335886     0.357896     0.480665 
    0.401087     0.542727     0.331398 
    0.306777     0.549605     0.466676 
    0.252904     0.417492     0.593353 
    0.440675     0.469704     0.498263 
    0.624420     0.599971     0.370199 
    0.365454     0.678926     0.398382 
    0.520823     0.713843     0.596826 
    0.381618     0.638735     0.585622 
    0.488265     0.619059     0.453739 
    0.607199     0.419199     0.363349 
    0.478556     0.322028     0.400681 
    0.602375     0.498199     0.515624 
    0.528489     0.476564     0.675472 
    0.393403     0.404723     0.650860 
    0.728240     0.508596     0.380785 
    0.394769     0.408578     0.340996 
    0.483768     0.434993     0.326746 
    0.332103     0.518151     0.618306 
    0.243734     0.438774     0.445551 
    0.312530     0.449873     0.363306 
    0.529080     0.520960     0.354433 
    0.498261     0.752315     0.448368 
    0.423661     0.745664     0.513162 
    0.581680     0.711871     0.458455 
    0.622970     0.642141     0.529877 
    0.725912     0.493424     0.543937 
    0.684146     0.413193     0.592591 
    0.417451     0.531736     0.671403 
    0.709197     0.413638     0.473504 
    0.510121     0.350713     0.641204 
    0.598140     0.379076     0.617146 
    0.565515     0.596268     0.614933 
    0.590958     0.297963     0.429099 
    0.548281     0.313190     0.533930 
    0.450521     0.327627     0.546953 
    0.481421     0.603143     0.666488 
    0.638022     0.356158     0.505356 
    0.701589     0.583283     0.502360 
EA11634 17.075 16.987 15.296 90.00 90.00 90.00 Sym.group:    0
1.0
   17.075050     0.000000     0.000000
    0.000000    16.987249     0.000000
    0.000000     0.000000    15.296449
   W   B
  17  22
Direct
    0.617421     0.637646     0.506472 
    0.668001     0.586938     0.647428 
    0.574802     0.633884     0.334260 
    0.413824     0.630299     0.380247 
    0.580681     0.484422     0.510875 
    0.522763     0.496232     0.313237 
    0.686498     0.388714     0.484580 
    0.483206     0.373142     0.588594 
    0.427223     0.463566     0.439657 
    0.388610     0.262112     0.557462 
    0.340968     0.427332     0.569952 
    0.559010     0.487255     0.679228 
    0.365566     0.319311     0.423044 
    0.329619     0.512164     0.333655 
    0.454858     0.583043     0.561576 
    0.534130     0.352887     0.409433 
    0.545018     0.651686     0.678125 
    0.511809     0.699824     0.442268 
    0.429293     0.466568     0.673755 
    0.514726     0.707529     0.553738 
    0.451481     0.557912     0.707846 
    0.427802     0.705085     0.501925 
    0.515488     0.571537     0.433390 
    0.300248     0.595656     0.435301 
    0.683975     0.594629     0.388792 
    0.319080     0.563218     0.555884 
    0.646659     0.526737     0.323841 
    0.703536     0.494658     0.409755 
    0.630371     0.432175     0.360320 
    0.710220     0.519660     0.521636 
    0.684212     0.459287     0.608312 
    0.618351     0.384807     0.611845 
    0.462764     0.244046     0.436130 
    0.282870     0.505051     0.469805 
    0.291104     0.420325     0.427520 
    0.593429     0.313598     0.540475 
    0.518932     0.258040     0.520110 
    0.361659     0.537833     0.655327 
    0.349796     0.651191     0.504201 
EA11788 16.960 17.161 16.291 90.00 90.00 90.00 Sym.group:    0
1.0
   16.959895     0.000000     0.000000
    0.000000    17.161005     0.000000
    0.000000     0.000000    16.290746
   W   B
  18  23
Direct
    0.421777     0.329108     0.507971 
    0.647566     0.367816     0.592576 
    0.548209     0.426085     0.493252 
    0.635431     0.546471     0.568235 
    0.643577     0.295199     0.444221 
    0.765061     0.466205     0.546030 
    0.698287     0.469746     0.682768 
    0.587134     0.574702     0.375745 
    0.609658     0.433177     0.349950 
    0.456071     0.384611     0.359011 
    0.530065     0.469760     0.658826 
    0.542366     0.691278     0.454959 
    0.384877     0.406550     0.649392 
    0.349703     0.628417     0.580419 
    0.445002     0.632135     0.342057 
    0.357198     0.517997     0.370616 
    0.403160     0.498642     0.529601 
    0.497275     0.616495     0.609685 
    0.517142     0.284799     0.429860 
    0.509647     0.348194     0.608426 
    0.739046     0.575628     0.487551 
    0.686867     0.409154     0.459715 
    0.545585     0.290616     0.530091 
    0.484127     0.505408     0.304035 
    0.561999     0.314066     0.344521 
    0.477144     0.507424     0.411162 
    0.697606     0.502729     0.429587 
    0.667606     0.643506     0.479612 
    0.449713     0.727727     0.546648 
    0.540211     0.734881     0.580634 
    0.613820     0.676919     0.565780 
    0.314970     0.522100     0.648803 
    0.309383     0.384752     0.532683 
    0.274973     0.463002     0.582411 
    0.340034     0.398012     0.431600 
    0.519788     0.563692     0.490917 
    0.408130     0.535769     0.671630 
    0.408631     0.698000     0.458546 
    0.343830     0.630848     0.436373 
    0.289825     0.561956     0.478115 
    0.277503     0.466428     0.475988 
EA12040 17.998 15.509 15.797 90.00 90.00 90.00 Sym.group:    0
1.0
   17.998079     0.000000     0.000000
    0.000000    15.509369     0.000000
    0.000000     0.000000    15.797053
   W   B
  20  24
Direct
    0.712724     0.453399     0.623723 
    0.608550     0.490260     0.494420 
    0.709324     0.335850     0.485372 
    0.614255     0.563448     0.315100 
    0.559721     0.327034     0.522740 
    0.420279     0.413178     0.346883 
    0.417144     0.317292     0.489711 
    0.701583     0.430604     0.362623 
    0.417676     0.648182     0.441505 
    0.689884     0.622662     0.664298 
    0.307698     0.545169     0.392639 
    0.581759     0.653491     0.441658 
    0.324700     0.635700     0.561808 
    0.548968     0.640317     0.599520 
    0.610266     0.524006     0.719739 
    0.359843     0.388548     0.645857 
    0.377684     0.479231     0.507406 
    0.492383     0.482674     0.627669 
    0.563785     0.415334     0.347779 
    0.496819     0.658016     0.298210 
    0.656890     0.331196     0.606502 
    0.701219     0.564416     0.427279 
    0.727957     0.564881     0.540471 
    0.494956     0.518393     0.290401 
    0.492443     0.439268     0.460558 
    0.510173     0.297441     0.393876 
    0.318037     0.381678     0.414217 
    0.253939     0.437324     0.468285 
    0.301517     0.352999     0.521933 
    0.466255     0.334706     0.617193 
    0.742206     0.476147     0.485275 
    0.618670     0.299082     0.401384 
    0.499817     0.748822     0.402498 
    0.410832     0.559037     0.317487 
    0.434140     0.704342     0.577954 
    0.496681     0.740676     0.507261 
    0.494786     0.550408     0.497820 
    0.665375     0.644847     0.534319 
    0.257364     0.428619     0.574133 
    0.250865     0.530111     0.523142 
    0.429916     0.615193     0.636506 
    0.288431     0.515319     0.623256 
    0.374666     0.532016     0.656635 
    0.597822     0.408686     0.632956 
EA12385 18.072 16.220 16.094 90.00 90.00 90.00 Sym.group:    0
1.0
   18.071674     0.000000     0.000000
    0.000000    16.219938     0.000000
    0.000000     0.000000    16.093736
   W   B
  20  24
Direct
    0.286217     0.557012     0.376875 
    0.390914     0.510148     0.504388 
    0.299982     0.655281     0.530221 
    0.382444     0.425978     0.674803 
    0.446296     0.667346     0.482947 
    0.576137     0.571585     0.657242 
    0.587864     0.670754     0.528767 
    0.291222     0.546571     0.634545 
    0.580370     0.355392     0.547356 
    0.313870     0.396774     0.332251 
    0.687755     0.446418     0.606630 
    0.418336     0.350898     0.546392 
    0.671459     0.373361     0.428307 
    0.451604     0.377591     0.394095 
    0.392179     0.495330     0.280704 
    0.646310     0.616360     0.368777 
    0.622838     0.518467     0.495509 
    0.509186     0.529413     0.375070 
    0.430513     0.572150     0.651370 
    0.499263     0.333039     0.685499 
    0.345206     0.667813     0.406286 
    0.299096     0.426162     0.554098 
    0.265885     0.445896     0.447380 
    0.498244     0.468347     0.703236 
    0.506825     0.556728     0.540836 
    0.489994     0.685184     0.616455 
    0.682348     0.599347     0.598749 
    0.747355     0.552184     0.541770 
    0.702880     0.637785     0.496997 
    0.542992     0.667138     0.399030 
    0.254345     0.526112     0.511511 
    0.392307     0.694379     0.604145 
    0.500556     0.254940     0.577218 
    0.582705     0.431840     0.675579 
    0.562900     0.312170     0.407914 
    0.501621     0.272639     0.475555 
    0.504258     0.454978     0.498659 
    0.331792     0.375299     0.463023 
    0.745342     0.569208     0.438987 
    0.748032     0.467478     0.479908 
    0.569292     0.400805     0.355782 
    0.713320     0.492183     0.382798 
    0.627122     0.480432     0.345517 
    0.400826     0.591083     0.376818 
EA12903 18.373 16.485 14.934 90.00 90.00 90.00 Sym.group:    0
1.0
   18.373062     0.000000     0.000000
    0.000000    16.485205     0.000000
    0.000000     0.000000    14.933949
   W   B
  16  25
Direct
    0.314144     0.445487     0.542098 
    0.368072     0.501978     0.679851 
    0.425571     0.561336     0.517202 
    0.641522     0.529663     0.644409 
    0.499496     0.332490     0.560664 
    0.658705     0.374737     0.662234 
    0.300025     0.608488     0.536267 
    0.482535     0.652056     0.369345 
    0.436695     0.428910     0.409132 
    0.681436     0.670879     0.441304 
    0.716224     0.438254     0.531567 
    0.611438     0.572451     0.347198 
    0.565739     0.416170     0.337599 
    0.569048     0.457451     0.518847 
    0.568353     0.629394     0.519783 
    0.496446     0.552929     0.671733 
    0.339311     0.350264     0.436464 
    0.553760     0.430046     0.674183 
    0.378557     0.329564     0.532644 
    0.463323     0.418810     0.678035 
    0.417718     0.296122     0.439389 
    0.277239     0.523687     0.427802 
    0.385118     0.691080     0.457554 
    0.388976     0.629805     0.652576 
    0.393031     0.372702     0.634038 
    0.471426     0.670268     0.611159 
    0.492460     0.521590     0.303378 
    0.306029     0.433763     0.395233 
    0.516393     0.533160     0.418107 
    0.350719     0.612520     0.397235 
    0.466852     0.706101     0.506185 
    0.724652     0.571705     0.533394 
    0.678749     0.644408     0.580337 
    0.636900     0.331222     0.532494 
    0.498730     0.310341     0.403348 
    0.715039     0.546665     0.424583 
    0.675570     0.463636     0.382821 
    0.655241     0.373537     0.427953 
    0.581872     0.319286     0.443615 
    0.387581     0.698596     0.570197 
    0.409306     0.548451     0.348043 
EA13182 17.955 15.669 16.291 90.00 90.00 90.00 Sym.group:    0
1.0
   17.954505     0.000000     0.000000
    0.000000    15.669215     0.000000
    0.000000     0.000000    16.290686
   W   B
  20  21
Direct
    0.662179     0.671458     0.461626 
    0.505641     0.652241     0.395870 
    0.677652     0.514864     0.340357 
    0.632885     0.498467     0.636470 
    0.592842     0.530637     0.466870 
    0.612026     0.346242     0.400330 
    0.746249     0.447199     0.567355 
    0.323400     0.512242     0.417125 
    0.445044     0.551752     0.505484 
    0.474025     0.378069     0.422251 
    0.450315     0.497531     0.325197 
    0.357540     0.698376     0.440736 
    0.532083     0.402320     0.575525 
    0.475125     0.503255     0.681455 
    0.349912     0.433266     0.723029 
    0.358354     0.424562     0.565979 
    0.451242     0.269881     0.579163 
    0.352191     0.578323     0.656341 
    0.531159     0.701065     0.535830 
    0.592194     0.259960     0.528890 
    0.628164     0.632560     0.587105 
    0.617978     0.635240     0.345254 
    0.561309     0.556495     0.315279 
    0.566980     0.453058     0.337691 
    0.550261     0.612776     0.642870 
    0.702083     0.576416     0.552912 
    0.672576     0.359435     0.510457 
    0.709607     0.430356     0.438855 
    0.460724     0.637694     0.631391 
    0.650331     0.358918     0.608342 
    0.729757     0.539616     0.460176 
    0.374873     0.299158     0.392290 
    0.321125     0.370976     0.440323 
    0.362418     0.393566     0.349059 
    0.392506     0.607010     0.361234 
    0.265428     0.619070     0.474259 
    0.309760     0.656071     0.556599 
    0.368261     0.295480     0.492664 
    0.437555     0.366312     0.666264 
    0.402090     0.684212     0.565317 
    0.294152     0.543872     0.545778 
EA13589 17.858 16.111 15.404 90.00 90.00 90.00 Sym.group:    0
1.0
   17.857507     0.000000     0.000000
    0.000000    16.110812     0.000000
    0.000000     0.000000    15.403558
   W   B
  20  21
Direct
    0.349714     0.677916     0.513875 
    0.491748     0.662502     0.610993 
    0.306626     0.535597     0.647319 
    0.383352     0.497640     0.337766 
    0.409872     0.538083     0.524646 
    0.359069     0.366031     0.607812 
    0.258854     0.463055     0.402168 
    0.673446     0.513313     0.605137 
    0.558245     0.540131     0.492743 
    0.503869     0.387276     0.588360 
    0.530986     0.510957     0.684780 
    0.640468     0.684505     0.551867 
    0.473336     0.401567     0.417870 
    0.544078     0.484494     0.303527 
    0.665541     0.397423     0.286920 
    0.645117     0.413931     0.450739 
    0.538884     0.268268     0.447628 
    0.668796     0.545064     0.344881 
    0.493052     0.684779     0.452829 
    0.395639     0.277954     0.485216 
    0.395797     0.626799     0.388961 
    0.372678     0.650268     0.646342 
    0.420909     0.573075     0.689116 
    0.412958     0.470572     0.671615 
    0.473312     0.597797     0.335024 
    0.314310     0.583956     0.416466 
    0.302164     0.365420     0.480908 
    0.283190     0.451566     0.539915 
    0.563989     0.615395     0.345219 
    0.351943     0.372538     0.388584 
    0.273667     0.555631     0.511407 
    0.598937     0.315188     0.647255 
    0.661439     0.374708     0.594326 
    0.614224     0.409397     0.682918 
    0.598474     0.609088     0.646142 
    0.739023     0.607192     0.541084 
    0.709551     0.631727     0.443586 
    0.614887     0.300735     0.543625 
    0.568792     0.349489     0.341317 
    0.621374     0.662223     0.415952 
    0.717695     0.526748     0.473160 
EA13906 17.101 16.275 14.945 90.00 90.00 90.00 Sym.group:    0
1.0
   17.100692     0.000000     0.000000
    0.000000    16.274740     0.000000
    0.000000     0.000000    14.944550
   W   B
  16  25
Direct
    0.307557     0.570654     0.543420 
    0.358329     0.504824     0.679343 
    0.415563     0.442877     0.520380 
    0.650951     0.445794     0.637946 
    0.513577     0.666219     0.571393 
    0.683385     0.598994     0.663531 
    0.278419     0.414296     0.541985 
    0.461373     0.355219     0.365568 
    0.434746     0.585059     0.423133 
    0.675107     0.308621     0.427344 
    0.736761     0.535941     0.527051 
    0.605411     0.422373     0.341303 
    0.573245     0.584864     0.342048 
    0.576962     0.534019     0.520145 
    0.560401     0.359663     0.509168 
    0.493482     0.438498     0.669546 
    0.339824     0.681781     0.447107 
    0.566249     0.555465     0.677544 
    0.386190     0.680909     0.545661 
    0.469744     0.576008     0.683234 
    0.432204     0.722772     0.459233 
    0.307795     0.505129     0.406180 
    0.355320     0.321085     0.453006 
    0.370566     0.370766     0.652185 
    0.396087     0.628581     0.640878 
    0.454979     0.324301     0.604055 
    0.483775     0.491298     0.305430 
    0.301075     0.605048     0.396679 
    0.509179     0.469573     0.418351 
    0.330712     0.402409     0.394534 
    0.443568     0.295104     0.495863 
    0.731254     0.400627     0.522321 
    0.678600     0.329026     0.567389 
    0.662894     0.653555     0.538235 
    0.514796     0.697193     0.416490 
    0.719874     0.431432     0.415009 
    0.685738     0.522062     0.380415 
    0.675004     0.613194     0.430280 
    0.602951     0.676688     0.451992 
    0.361449     0.308772     0.564057 
    0.394904     0.469307     0.350572 
EA14123 17.875 16.243 15.386 90.00 90.00 90.00 Sym.group:    0
1.0
   17.875045     0.000000     0.000000
    0.000000    16.242635     0.000000
    0.000000     0.000000    15.386459
   W   B
  18  25
Direct
    0.265784     0.510038     0.622651 
    0.370897     0.524904     0.492626 
    0.339953     0.369150     0.423910 
    0.555968     0.434169     0.666940 
    0.394353     0.448174     0.661318 
    0.461576     0.391192     0.516426 
    0.484148     0.558597     0.597491 
    0.568043     0.277427     0.466100 
    0.650469     0.383907     0.559715 
    0.554333     0.404046     0.371457 
    0.661968     0.505815     0.331361 
    0.479715     0.634077     0.424128 
    0.605938     0.691205     0.494363 
    0.448519     0.307640     0.340027 
    0.277773     0.530049     0.360453 
    0.418403     0.472776     0.335031 
    0.608379     0.527131     0.483839 
    0.317298     0.663334     0.426008 
    0.247136     0.568516     0.496274 
    0.302870     0.629403     0.564058 
    0.255799     0.461093     0.486118 
    0.365018     0.584597     0.634603 
    0.317044     0.407392     0.556184 
    0.436800     0.262280     0.467706 
    0.592319     0.567327     0.671646 
    0.477388     0.262199     0.566362 
    0.661962     0.508712     0.627796 
    0.470811     0.334632     0.652880 
    0.737106     0.540808     0.440254 
    0.684362     0.621642     0.407125 
    0.540940     0.540915     0.341076 
    0.711231     0.609979     0.516023 
    0.725593     0.500544     0.542551 
    0.382644     0.601449     0.333907 
    0.398083     0.657440     0.551249 
    0.489691     0.505518     0.449854 
    0.494683     0.692897     0.558486 
    0.713101     0.441149     0.446940 
    0.596969     0.623670     0.363520 
    0.649710     0.619291     0.600654 
    0.665446     0.355499     0.418617 
    0.565634     0.662411     0.625537 
    0.554147     0.307006     0.606735 
EA14557 17.806 16.035 15.290 90.00 90.00 90.00 Sym.group:    0
1.0
   17.806054     0.000000     0.000000
    0.000000    16.034850     0.000000
    0.000000     0.000000    15.289680
   W   B
  20  21
Direct
    0.643138     0.682104     0.483883 
    0.508220     0.676983     0.593287 
    0.699481     0.560639     0.628005 
    0.607836     0.484710     0.328757 
    0.587501     0.541936     0.514048 
    0.660452     0.386744     0.613620 
    0.738819     0.464259     0.388426 
    0.330957     0.516618     0.615064 
    0.436212     0.538797     0.491419 
    0.507795     0.398026     0.602177 
    0.478591     0.530774     0.683961 
    0.351470     0.683523     0.539032 
    0.524101     0.395771     0.427576 
    0.446643     0.461443     0.307811 
    0.325994     0.364862     0.309990 
    0.354578     0.401513     0.471756 
    0.466771     0.259530     0.475450 
    0.320715     0.517834     0.350119 
    0.493960     0.679061     0.432404 
    0.611213     0.287723     0.504924 
    0.591624     0.617814     0.369142 
    0.628482     0.672104     0.621950 
    0.586391     0.597090     0.676945 
    0.597212     0.492151     0.666511 
    0.513188     0.579501     0.322204 
    0.677029     0.581651     0.393142 
    0.708225     0.372133     0.482980 
    0.726319     0.466583     0.528807 
    0.422723     0.595106     0.336732 
    0.647804     0.371534     0.397774 
    0.723323     0.567821     0.488132 
    0.420799     0.328968     0.676153 
    0.351772     0.377980     0.621103 
    0.400203     0.425832     0.701392 
    0.403302     0.620967     0.637726 
    0.256312     0.598420     0.545612 
    0.280687     0.613907     0.443292 
    0.399317     0.300780     0.576017 
    0.427636     0.328421     0.363219 
    0.364992     0.646650     0.404821 
    0.278214     0.511740     0.484635 
EA15035 17.896 16.343 14.853 90.00 90.00 90.00 Sym.group:    0
1.0
   17.895743     0.000000     0.000000
    0.000000    16.342857     0.000000
    0.000000     0.000000    14.852565
   W   B
  17  21
Direct
    0.643528     0.722194     0.493598 
    0.647807     0.490735     0.594760 
    0.582101     0.573701     0.450492 
    0.435023     0.613041     0.541140 
    0.380264     0.493941     0.640581 
    0.582154     0.636146     0.645326 
    0.521492     0.444749     0.688464 
    0.716561     0.633045     0.579164 
    0.582743     0.293476     0.487481 
    0.391531     0.398639     0.373666 
    0.616204     0.422094     0.382111 
    0.493307     0.437932     0.498867 
    0.316894     0.628652     0.430379 
    0.453764     0.560396     0.362769 
    0.247740     0.467521     0.433210 
    0.441400     0.286737     0.494491 
    0.331469     0.387446     0.531605 
    0.701796     0.625398     0.432808 
    0.709220     0.531339     0.466008 
    0.720562     0.431611     0.482987 
    0.514835     0.325723     0.609518 
    0.600481     0.366056     0.611634 
    0.680365     0.364844     0.551242 
    0.507939     0.679209     0.428692 
    0.532504     0.699235     0.536655 
    0.478487     0.569471     0.681535 
    0.531768     0.534403     0.586054 
    0.513209     0.345029     0.378659 
    0.503012     0.435005     0.322807 
    0.558737     0.517253     0.311814 
    0.430487     0.367149     0.625295 
    0.694858     0.338911     0.446441 
    0.418709     0.689818     0.405612 
    0.334861     0.520915     0.353078 
    0.232882     0.572626     0.516596 
    0.265185     0.497071     0.582387 
    0.312643     0.593290     0.572547 
    0.373477     0.505199     0.469526 
EA15373 18.084 16.619 14.792 90.00 90.00 90.00 Sym.group:    0
1.0
   18.084199     0.000000     0.000000
    0.000000    16.619414     0.000000
    0.000000     0.000000    14.791739
   W   B
  17  21
Direct
    0.368832     0.737832     0.505793 
    0.354920     0.501795     0.583527 
    0.429161     0.587651     0.452778 
    0.575930     0.605178     0.540252 
    0.606891     0.483751     0.639362 
    0.428104     0.647257     0.640512 
    0.465952     0.443305     0.686722 
    0.294225     0.646039     0.577184 
    0.399024     0.300289     0.478036 
    0.601162     0.392538     0.373759 
    0.379316     0.440797     0.390264 
    0.495357     0.437230     0.501193 
    0.697305     0.606306     0.435625 
    0.556995     0.554833     0.364324 
    0.748747     0.443162     0.439374 
    0.541258     0.284994     0.493628 
    0.652694     0.373470     0.533075 
    0.315854     0.648088     0.431775 
    0.303491     0.550521     0.455913 
    0.276632     0.454894     0.475534 
    0.466451     0.324299     0.606795 
    0.387217     0.372385     0.602329 
    0.311342     0.383118     0.539409 
    0.517554     0.677879     0.424834 
    0.480916     0.700874     0.525838 
    0.520476     0.570187     0.688270 
    0.475244     0.538783     0.591420 
    0.475396     0.350864     0.378875 
    0.493789     0.440056     0.327068 
    0.446585     0.526187     0.318405 
    0.551506     0.359184     0.625229 
    0.293259     0.357690     0.435351 
    0.606249     0.679504     0.407914 
    0.669917     0.503680     0.355631 
    0.768639     0.539550     0.528772 
    0.724808     0.472099     0.592682 
    0.690970     0.570736     0.579771 
    0.627830     0.492992     0.472774 
EA15522 17.929 15.720 15.608 90.00 90.00 90.00 Sym.group:    0
1.0
   17.929430     0.000000     0.000000
    0.000000    15.719570     0.000000
    0.000000     0.000000    15.608022
   W   B
  19  22
Direct
    0.342138     0.332571     0.491885 
    0.478204     0.321385     0.589221 
    0.302223     0.450462     0.627840 
    0.388020     0.513655     0.316085 
    0.414534     0.473274     0.511604 
    0.363470     0.628213     0.616894 
    0.254034     0.564728     0.406650 
    0.665783     0.474221     0.612357 
    0.561575     0.457806     0.484367 
    0.508899     0.604206     0.598270 
    0.522038     0.463129     0.678916 
    0.634871     0.303882     0.526333 
    0.464822     0.611830     0.421176 
    0.542783     0.543239     0.307153 
    0.644697     0.594028     0.476980 
    0.675450     0.480383     0.352655 
    0.494474     0.318360     0.434560 
    0.281474     0.418813     0.363600 
    0.698559     0.627476     0.626031 
    0.400276     0.389574     0.379301 
    0.358999     0.330106     0.628984 
    0.410402     0.405029     0.675381 
    0.407411     0.512429     0.664776 
    0.481573     0.427245     0.340063 
    0.347467     0.640525     0.480751 
    0.290708     0.558761     0.535332 
    0.572007     0.409071     0.333737 
    0.349463     0.630116     0.372874 
    0.274222     0.455529     0.496460 
    0.595277     0.671433     0.671737 
    0.605448     0.568577     0.695891 
    0.587664     0.367509     0.627115 
    0.733682     0.385425     0.541188 
    0.708821     0.377000     0.440147 
    0.600509     0.697920     0.570688 
    0.572731     0.662848     0.377807 
    0.626151     0.350499     0.396781 
    0.719070     0.479143     0.483544 
    0.426931     0.692270     0.526497 
    0.644682     0.613124     0.334993 
    0.548455     0.694206     0.483374 
EA15979 17.545 16.316 16.032 90.00 90.00 90.00 Sym.group:    0
1.0
   17.544847     0.000000     0.000000
    0.000000    16.316207     0.000000
    0.000000     0.000000    16.032096
   W   B
  18  22
Direct
    0.337505     0.489685     0.473192 
    0.379710     0.522254     0.645440 
    0.366253     0.529424     0.295907 
    0.493833     0.257645     0.406528 
    0.493396     0.304229     0.555461 
    0.534965     0.356567     0.311707 
    0.522924     0.457567     0.624265 
    0.482245     0.425179     0.455797 
    0.390462     0.385917     0.344373 
    0.351258     0.330667     0.493060 
    0.669987     0.466512     0.595199 
    0.634536     0.615485     0.646236 
    0.574784     0.557673     0.489326 
    0.706438     0.601017     0.493676 
    0.511311     0.526482     0.327962 
    0.429317     0.621395     0.427517 
    0.494770     0.645327     0.594745 
    0.616983     0.333836     0.461398 
    0.253749     0.402709     0.529717 
    0.448329     0.534905     0.534401 
    0.282858     0.581559     0.569296 
    0.306144     0.627401     0.479350 
    0.309820     0.599595     0.381883 
    0.409970     0.392571     0.606799 
    0.370026     0.624956     0.558388 
    0.602928     0.346526     0.608225 
    0.257676     0.487724     0.588723 
    0.317693     0.410776     0.606347 
    0.689795     0.335560     0.577084 
    0.524898     0.568272     0.705749 
    0.697356     0.458229     0.448131 
    0.631089     0.614548     0.360945 
    0.609002     0.691915     0.537438 
    0.605643     0.509642     0.710883 
    0.530419     0.696628     0.472258 
    0.729790     0.382197     0.502527 
    0.664978     0.524773     0.378346 
    0.543597     0.651441     0.376429 
    0.622031     0.686179     0.434363 
    0.601537     0.445031     0.390931 
EA16133 17.996 16.153 14.536 90.00 90.00 90.00 Sym.group:    0
1.0
   17.995792     0.000000     0.000000
    0.000000    16.153305     0.000000
    0.000000     0.000000    14.535625
   W   B
  18  25
Direct
    0.735460     0.510057     0.625276 
    0.629091     0.526221     0.490908 
    0.661240     0.370334     0.412613 
    0.445744     0.431549     0.675254 
    0.607392     0.445589     0.666581 
    0.544039     0.389431     0.510677 
    0.516920     0.556908     0.603448 
    0.430875     0.278031     0.462810 
    0.347636     0.380472     0.568669 
    0.448547     0.403551     0.364487 
    0.337682     0.502439     0.329693 
    0.518219     0.634651     0.421114 
    0.393101     0.689510     0.499443 
    0.552387     0.309125     0.322773 
    0.719449     0.538075     0.348126 
    0.580510     0.474989     0.324056 
    0.390311     0.524757     0.487457 
    0.680219     0.665934     0.420196 
    0.751884     0.571549     0.492426 
    0.695807     0.630616     0.565747 
    0.743742     0.463357     0.478023 
    0.635393     0.583099     0.640803 
    0.686062     0.407774     0.554187 
    0.561920     0.259883     0.456958 
    0.409996     0.564880     0.685346 
    0.523257     0.261096     0.562773 
    0.339699     0.505893     0.642095 
    0.531377     0.333254     0.655523 
    0.261738     0.541402     0.444234 
    0.314682     0.621109     0.407287 
    0.457793     0.540803     0.332474 
    0.289109     0.610558     0.522899 
    0.275228     0.501776     0.553757 
    0.613382     0.606502     0.321822 
    0.600816     0.656886     0.554007 
    0.509924     0.505157     0.447478 
    0.504583     0.691838     0.563497 
    0.282189     0.441401     0.452384 
    0.401183     0.622553     0.360333 
    0.351410     0.616788     0.612022 
    0.336539     0.364199     0.414758 
    0.435656     0.659959     0.636370 
    0.447811     0.306046     0.609214 
EA16478 18.061 16.218 14.524 90.00 90.00 90.00 Sym.group:    0
1.0
   18.060564     0.000000     0.000000
    0.000000    16.217503     0.000000
    0.000000     0.000000    14.524040
   W   B
  19  24
Direct
    0.732984     0.520618     0.628475 
    0.628868     0.526605     0.490466 
    0.665426     0.371856     0.416738 
    0.443256     0.443240     0.678260 
    0.605486     0.452156     0.669789 
    0.551977     0.380883     0.522965 
    0.514499     0.560176     0.599603 
    0.435628     0.272365     0.476219 
    0.348057     0.384010     0.568080 
    0.451050     0.398312     0.373632 
    0.337498     0.491909     0.330320 
    0.516873     0.628776     0.413190 
    0.392990     0.689823     0.488075 
    0.555185     0.310326     0.318196 
    0.720585     0.538701     0.350499 
    0.581068     0.468252     0.326756 
    0.388948     0.524943     0.486758 
    0.679649     0.666877     0.415175 
    0.533265     0.229272     0.579847 
    0.750536     0.575030     0.493522 
    0.692283     0.635586     0.562516 
    0.744237     0.466006     0.485270 
    0.631403     0.588909     0.637457 
    0.685633     0.413343     0.560625 
    0.573290     0.256974     0.447180 
    0.406794     0.573680     0.680052 
    0.337394     0.512000     0.638482 
    0.528662     0.343271     0.673264 
    0.261006     0.539166     0.439748 
    0.314484     0.616539     0.399428 
    0.457387     0.532150     0.331227 
    0.288309     0.610930     0.515291 
    0.272815     0.502210     0.551226 
    0.613490     0.600512     0.320812 
    0.598030     0.659508     0.547450 
    0.510241     0.498170     0.454897 
    0.504149     0.694457     0.552357 
    0.279385     0.439490     0.453915 
    0.400513     0.614006     0.353421 
    0.349058     0.622942     0.604375 
    0.337041     0.366313     0.417282 
    0.433679     0.665308     0.625887 
    0.446888     0.314404     0.621274 
EA16904 17.853 16.186 15.456 90.00 90.00 90.00 Sym.group:    0
1.0
   17.853047     0.000000     0.000000
    0.000000    16.186229     0.000000
    0.000000     0.000000    15.455728
   W   B
  20  21
Direct
    0.391830     0.625027     0.453971 
    0.400623     0.459593     0.500509 
    0.271925     0.500086     0.446215 
    0.433974     0.379619     0.635972 
    0.477420     0.562703     0.614225 
    0.491623     0.322291     0.483705 
    0.476690     0.448231     0.352180 
    0.343043     0.538369     0.686938 
    0.359217     0.290302     0.531727 
    0.678045     0.469585     0.614644 
    0.583039     0.455862     0.486123 
    0.748554     0.555464     0.484312 
    0.577896     0.335744     0.343066 
    0.619694     0.618051     0.522334 
    0.521094     0.729596     0.454263 
    0.654470     0.467912     0.349720 
    0.574182     0.335523     0.624609 
    0.564566     0.453915     0.721105 
    0.554442     0.591337     0.349898 
    0.609640     0.599555     0.683159 
    0.444652     0.691851     0.563886 
    0.458952     0.677468     0.349684 
    0.308987     0.576169     0.552821 
    0.280543     0.390352     0.535721 
    0.348197     0.425853     0.359276 
    0.432218     0.582561     0.319078 
    0.393309     0.342232     0.402516 
    0.444744     0.486015     0.726084 
    0.371169     0.639781     0.603690 
    0.281984     0.481355     0.588763 
    0.304177     0.368761     0.433830 
    0.360303     0.526615     0.351260 
    0.714734     0.598531     0.609338 
    0.677379     0.351295     0.424244 
    0.676573     0.354282     0.535858 
    0.497533     0.556260     0.468855 
    0.624253     0.690303     0.402303 
    0.534715     0.688028     0.592293 
    0.723735     0.428052     0.475411 
    0.676421     0.605871     0.385597 
    0.613454     0.299598     0.480816 
EA17194 17.856 17.147 14.077 90.00 90.00 90.00 Sym.group:    0
1.0
   17.855931     0.000000     0.000000
    0.000000    17.146505     0.000000
    0.000000     0.000000    14.077387
   W   B
  20  22
Direct
    0.680894     0.566823     0.508790 
    0.581266     0.644313     0.651121 
    0.517248     0.578874     0.502747 
    0.614359     0.593901     0.354648 
    0.570339     0.713194     0.477505 
    0.501359     0.487466     0.657045 
    0.366759     0.589718     0.571943 
    0.482970     0.331551     0.589168 
    0.406952     0.463052     0.495069 
    0.350089     0.394891     0.636224 
    0.320195     0.531617     0.363994 
    0.253122     0.466627     0.508344 
    0.486029     0.497204     0.340908 
    0.579829     0.436428     0.494780 
    0.720311     0.463073     0.394153 
    0.646660     0.502913     0.666558 
    0.576825     0.280835     0.437817 
    0.364646     0.260470     0.563748 
    0.447708     0.335824     0.416461 
    0.428417     0.719132     0.452469 
    0.677879     0.689137     0.560060 
    0.414922     0.610222     0.377751 
    0.503362     0.649312     0.358262 
    0.698510     0.624084     0.647289 
    0.466604     0.686215     0.587443 
    0.464035     0.611390     0.662359 
    0.259502     0.594178     0.479780 
    0.332206     0.645818     0.429046 
    0.285265     0.503208     0.654281 
    0.245872     0.571525     0.591255 
    0.680599     0.680375     0.438245 
    0.312858     0.350911     0.491868 
    0.314719     0.402922     0.390073 
    0.550476     0.381748     0.345755 
    0.608891     0.461067     0.327956 
    0.670775     0.383799     0.614246 
    0.384913     0.428174     0.323815 
    0.679799     0.356142     0.488971 
    0.716399     0.440457     0.542103 
    0.608056     0.315188     0.577630 
    0.644465     0.369916     0.371081 
    0.583914     0.386307     0.657241 
EA17543 17.339 16.758 15.978 90.00 90.00 90.00 Sym.group:    0
1.0
   17.339248     0.000000     0.000000
    0.000000    16.757879     0.000000
    0.000000     0.000000    15.977875
   W   B
  20  21
Direct
    0.395783     0.512785     0.496790 
    0.256066     0.503595     0.523181 
    0.401183     0.591278     0.352059 
    0.401139     0.692199     0.476511 
    0.499472     0.691427     0.613949 
    0.523417     0.600088     0.483528 
    0.544096     0.756150     0.483985 
    0.646112     0.557253     0.390594 
    0.466635     0.528425     0.637278 
    0.689062     0.565247     0.540828 
    0.535654     0.589328     0.292057 
    0.459199     0.318905     0.344526 
    0.499225     0.461151     0.373264 
    0.640892     0.410658     0.359896 
    0.705577     0.405435     0.573945 
    0.569810     0.456461     0.523948 
    0.569317     0.304333     0.569676 
    0.323174     0.360162     0.543070 
    0.426410     0.275081     0.586485 
    0.351323     0.401440     0.390107 
    0.330511     0.560571     0.623224 
    0.300762     0.609627     0.443128 
    0.645909     0.671142     0.463824 
    0.384630     0.642606     0.606854 
    0.589189     0.679872     0.377532 
    0.616931     0.673845     0.567205 
    0.584914     0.586511     0.621567 
    0.306242     0.625038     0.546986 
    0.290347     0.522673     0.393559 
    0.491396     0.690319     0.371684 
    0.556386     0.342041     0.438159 
    0.631732     0.498801     0.645509 
    0.732840     0.376462     0.444984 
    0.733332     0.474364     0.453417 
    0.484443     0.275064     0.468179 
    0.651753     0.333526     0.469445 
    0.606816     0.400177     0.659566 
    0.389608     0.288555     0.454546 
    0.510309     0.397285     0.650127 
    0.418995     0.405282     0.617978 
    0.339405     0.464836     0.626849 
EA17965 17.260 16.065 15.004 90.00 90.00 90.00 Sym.group:    0
1.0
   17.259876     0.000000     0.000000
    0.000000    16.064675     0.000000
    0.000000     0.000000    15.004087
   W   B
  18  23
Direct
    0.706577     0.552765     0.507919 
    0.683515     0.469169     0.663032 
    0.576899     0.435428     0.513062 
    0.358447     0.484760     0.666654 
    0.488946     0.697332     0.567691 
    0.709745     0.382017     0.525096 
    0.503214     0.341394     0.371998 
    0.565928     0.569875     0.403570 
    0.288642     0.324805     0.470908 
    0.367820     0.412680     0.354557 
    0.413389     0.573449     0.354467 
    0.434850     0.552317     0.531821 
    0.418622     0.374697     0.527756 
    0.505351     0.445834     0.675438 
    0.287288     0.476362     0.513169 
    0.726081     0.582329     0.354196 
    0.647723     0.703713     0.563239 
    0.579773     0.574656     0.622710 
    0.662355     0.669577     0.423516 
    0.463214     0.587985     0.681110 
    0.572704     0.710946     0.450972 
    0.673468     0.466600     0.389713 
    0.610051     0.293372     0.451371 
    0.613002     0.357691     0.648871 
    0.703517     0.606304     0.642722 
    0.525123     0.326377     0.608747 
    0.492459     0.476899     0.308730 
    0.471062     0.466317     0.424128 
    0.637879     0.367782     0.384165 
    0.522661     0.288695     0.503277 
    0.305002     0.371671     0.606294 
    0.357597     0.678030     0.552374 
    0.485901     0.678550     0.417329 
    0.248594     0.429085     0.385318 
    0.322032     0.605197     0.465562 
    0.396057     0.678371     0.453044 
    0.610967     0.293841     0.560582 
    0.581480     0.443690     0.344431 
    0.380975     0.631776     0.648121 
    0.307738     0.592316     0.584484 
    0.293352     0.525345     0.377857 
EA18368 17.518 16.311 14.657 90.00 90.00 90.00 Sym.group:    0
1.0
   17.517693     0.000000     0.000000
    0.000000    16.310576     0.000000
    0.000000     0.000000    14.657075
   W   B
  16  23
Direct
    0.704354     0.320770     0.557781 
    0.663098     0.569203     0.420578 
    0.601162     0.442426     0.529923 
    0.745806     0.428828     0.466030 
    0.380048     0.579358     0.600258 
    0.523198     0.580767     0.494397 
    0.520648     0.394368     0.665849 
    0.321858     0.506894     0.381044 
    0.542951     0.295895     0.514861 
    0.410871     0.277694     0.444586 
    0.443477     0.442091     0.500186 
    0.255565     0.512522     0.640996 
    0.601813     0.537634     0.667897 
    0.532880     0.370231     0.364582 
    0.456549     0.514442     0.333407 
    0.375173     0.428774     0.659974 
    0.719327     0.440237     0.614328 
    0.703548     0.529848     0.563551 
    0.649187     0.617039     0.561400 
    0.484549     0.652544     0.369034 
    0.560379     0.593808     0.333687 
    0.577041     0.677771     0.392579 
    0.475604     0.517548     0.683867 
    0.419526     0.671182     0.483619 
    0.582111     0.494003     0.337592 
    0.649567     0.431617     0.370802 
    0.335717     0.618070     0.461940 
    0.301112     0.445618     0.522446 
    0.431462     0.317315     0.590289 
    0.647082     0.340236     0.427282 
    0.276723     0.551728     0.508701 
    0.327374     0.377863     0.434731 
    0.496942     0.615727     0.659021 
    0.399168     0.388825     0.355673 
    0.564720     0.671508     0.596103 
    0.392306     0.628451     0.373163 
    0.345048     0.347056     0.543810 
    0.617281     0.686452     0.492460 
    0.464776     0.683660     0.581571 
EA18535 18.031 16.207 14.718 90.00 90.00 90.00 Sym.group:    0
1.0
   18.031400     0.000000     0.000000
    0.000000    16.206712     0.000000
    0.000000     0.000000    14.717615
   W   B
  18  25
Direct
    0.267947     0.520883     0.629995 
    0.371148     0.529912     0.491951 
    0.327732     0.377721     0.415618 
    0.557042     0.437976     0.674653 
    0.393000     0.452781     0.668835 
    0.442543     0.384246     0.519890 
    0.487062     0.558904     0.598049 
    0.566741     0.275280     0.473048 
    0.653804     0.379965     0.569522 
    0.543400     0.397013     0.373035 
    0.658894     0.489104     0.327522 
    0.484141     0.629536     0.415775 
    0.610833     0.686864     0.485428 
    0.435549     0.305091     0.340228 
    0.277420     0.539402     0.356150 
    0.415634     0.474292     0.329203 
    0.611495     0.521094     0.480941 
    0.320685     0.671115     0.424072 
    0.249229     0.579699     0.497615 
    0.308844     0.637000     0.567753 
    0.254152     0.470790     0.488584 
    0.370833     0.589336     0.639508 
    0.314513     0.413922     0.558860 
    0.438899     0.253575     0.471697 
    0.595476     0.569678     0.675134 
    0.476895     0.263792     0.574039 
    0.663281     0.506956     0.633998 
    0.470409     0.340785     0.662564 
    0.738449     0.533998     0.434361 
    0.685939     0.612941     0.394856 
    0.539547     0.532614     0.329681 
    0.714128     0.607097     0.508744 
    0.726510     0.500026     0.545739 
    0.383468     0.605379     0.329177 
    0.403752     0.659704     0.550506 
    0.489309     0.498056     0.454265 
    0.500306     0.692033     0.552982 
    0.718238     0.435218     0.449773 
    0.598077     0.613646     0.352617 
    0.653434     0.616872     0.598002 
    0.658225     0.362999     0.417086 
    0.570330     0.661896     0.622865 
    0.552690     0.310807     0.615682 
EA18844 18.026 16.373 15.164 90.00 90.00 90.00 Sym.group:    0
1.0
   18.026264     0.000000     0.000000
    0.000000    16.373017     0.000000
    0.000000     0.000000    15.163616
   W   B
  20  23
Direct
    0.733487     0.488415     0.626311 
    0.630572     0.472739     0.495651 
    0.674731     0.626893     0.418423 
    0.443524     0.569897     0.664180 
    0.606592     0.555612     0.660806 
    0.557312     0.617936     0.510228 
    0.515441     0.446641     0.601614 
    0.427859     0.719315     0.461887 
    0.342285     0.621811     0.561557 
    0.458499     0.596759     0.371975 
    0.344338     0.504581     0.332410 
    0.522611     0.368292     0.425198 
    0.392311     0.316775     0.500705 
    0.564708     0.689808     0.339162 
    0.720040     0.460691     0.358736 
    0.588433     0.521112     0.337546 
    0.390391     0.474717     0.487373 
    0.672628     0.332797     0.427597 
    0.615875     0.371828     0.290234 
    0.315259     0.374803     0.627052 
    0.751305     0.425223     0.499689 
    0.693191     0.369247     0.570776 
    0.746705     0.532849     0.486699 
    0.633386     0.418577     0.641445 
    0.687805     0.591823     0.555768 
    0.557856     0.747169     0.461583 
    0.410640     0.439616     0.678121 
    0.518840     0.738349     0.560199 
    0.336415     0.502727     0.638691 
    0.527124     0.666936     0.647729 
    0.263390     0.460623     0.428622 
    0.319581     0.382593     0.398549 
    0.465427     0.460954     0.336547 
    0.275810     0.383268     0.498826 
    0.275823     0.489373     0.546640 
    0.598133     0.345914     0.560963 
    0.511635     0.499467     0.458046 
    0.501449     0.313343     0.563309 
    0.282696     0.555557     0.452104 
    0.407415     0.382831     0.363828 
    0.342494     0.626550     0.413984 
    0.432726     0.342470     0.637100 
    0.443258     0.693116     0.602135 
EA19303 16.930 16.572 16.076 90.00 90.00 90.00 Sym.group:    0
1.0
   16.929784     0.000000     0.000000
    0.000000    16.572383     0.000000
    0.000000     0.000000    16.075933
   W   B
  20  21
Direct
    0.631006     0.412208     0.326162 
    0.474919     0.376023     0.364530 
    0.632069     0.344208     0.488219 
    0.572370     0.496555     0.453819 
    0.595483     0.444139     0.618719 
    0.701275     0.570002     0.508736 
    0.306128     0.443935     0.572906 
    0.407598     0.515437     0.450774 
    0.460646     0.377357     0.523706 
    0.344857     0.471605     0.312340 
    0.517664     0.651198     0.523724 
    0.384640     0.579199     0.612143 
    0.539850     0.604751     0.680510 
    0.361716     0.664792     0.460397 
    0.494884     0.522544     0.304725 
    0.365584     0.461495     0.713805 
    0.266567     0.585823     0.368150 
    0.605111     0.640379     0.383175 
    0.330408     0.357207     0.426555 
    0.556023     0.291940     0.602164 
    0.620647     0.538037     0.297771 
    0.579971     0.299067     0.371794 
    0.523765     0.279692     0.456745 
    0.720402     0.492484     0.619171 
    0.717021     0.437894     0.536462 
    0.470922     0.633494     0.384243 
    0.632827     0.649535     0.592594 
    0.705210     0.450115     0.432085 
    0.477734     0.387608     0.668540 
    0.384720     0.354902     0.641360 
    0.271026     0.475183     0.440390 
    0.481231     0.492069     0.672298 
    0.454628     0.688864     0.650606 
    0.387832     0.600528     0.332417 
    0.287986     0.558940     0.503618 
    0.664299     0.568009     0.642792 
    0.404399     0.715675     0.570740 
    0.685904     0.533728     0.373429 
    0.344158     0.320537     0.551937 
    0.640970     0.689435     0.498427 
    0.495548     0.523407     0.567322 
EA19764 17.721 16.794 15.271 90.00 90.00 90.00 Sym.group:    0
1.0
   17.721036     0.000000     0.000000
    0.000000    16.794408     0.000000
    0.000000     0.000000    15.271010
   W   B
  18  21
Direct
    0.667094     0.309626     0.497998 
    0.644811     0.505895     0.409565 
    0.561790     0.379434     0.360726 
    0.528621     0.433298     0.504951 
    0.422186     0.682445     0.423584 
    0.621158     0.517145     0.606553 
    0.520375     0.597392     0.492839 
    0.620630     0.677339     0.430809 
    0.457764     0.518866     0.355455 
    0.404606     0.380480     0.371461 
    0.388481     0.481025     0.527198 
    0.300269     0.494119     0.381003 
    0.453035     0.336953     0.616145 
    0.311747     0.372138     0.610024 
    0.374839     0.629841     0.569304 
    0.518101     0.624435     0.660666 
    0.513444     0.458696     0.697001 
    0.604660     0.354446     0.636218 
    0.361330     0.597817     0.342183 
    0.730634     0.418800     0.462075 
    0.567104     0.498435     0.299708 
    0.682491     0.378973     0.382148 
    0.566924     0.716431     0.564813 
    0.470003     0.715012     0.561970 
    0.631058     0.647095     0.577733 
    0.690925     0.594304     0.514403 
    0.701451     0.414756     0.568767 
    0.725478     0.502862     0.521439 
    0.571008     0.592614     0.339460 
    0.523020     0.745753     0.473810 
    0.467549     0.309373     0.467278 
    0.305106     0.382137     0.460236 
    0.277928     0.552925     0.506056 
    0.390096     0.445232     0.675674 
    0.375880     0.326394     0.498164 
    0.261100     0.455287     0.514814 
    0.314870     0.617039     0.436470 
    0.548987     0.293534     0.516278 
    0.423441     0.541651     0.665023 
EA20050 16.964 16.239 16.018 90.00 90.00 90.00 Sym.group:    0
1.0
   16.964246     0.000000     0.000000
    0.000000    16.239467     0.000000
    0.000000     0.000000    16.017614
   W   B
  16  24
Direct
    0.399170     0.429540     0.342358 
    0.371324     0.607134     0.392743 
    0.401780     0.484088     0.505276 
    0.396093     0.430424     0.664093 
    0.425186     0.604255     0.626271 
    0.271637     0.403927     0.474381 
    0.280507     0.510154     0.615353 
    0.505845     0.617956     0.470834 
    0.658475     0.625186     0.561148 
    0.580032     0.473109     0.498051 
    0.733001     0.492619     0.515360 
    0.567196     0.412797     0.347942 
    0.490825     0.351189     0.556074 
    0.567910     0.417919     0.677472 
    0.583352     0.578964     0.336458 
    0.597314     0.298052     0.454785 
    0.475268     0.332025     0.405281 
    0.439636     0.565928     0.290250 
    0.386447     0.340805     0.454390 
    0.357918     0.344013     0.555919 
    0.282431     0.381819     0.611210 
    0.271307     0.542255     0.482072 
    0.297116     0.499301     0.390739 
    0.395418     0.685473     0.512046 
    0.327000     0.613152     0.533067 
    0.544606     0.666081     0.611910 
    0.475761     0.719715     0.561031 
    0.574332     0.720931     0.526180 
    0.489041     0.515472     0.699888 
    0.681846     0.591620     0.432125 
    0.682056     0.397771     0.423396 
    0.680763     0.411300     0.608003 
    0.563871     0.562924     0.646218 
    0.619574     0.330303     0.584858 
    0.499628     0.491806     0.270173 
    0.621535     0.674038     0.441248 
    0.480395     0.516039     0.387279 
    0.674149     0.495433     0.386657 
    0.696021     0.357247     0.518700 
    0.654232     0.507243     0.628761 
EA20453 17.483 17.049 15.062 90.00 90.00 90.00 Sym.group:    0
1.0
   17.482630     0.000000     0.000000
    0.000000    17.048678     0.000000
    0.000000     0.000000    15.061728
   W   B
  18  21
Direct
    0.659503     0.339381     0.472318 
    0.644059     0.518388     0.421782 
    0.588653     0.401733     0.329579 
    0.537720     0.426005     0.502089 
    0.413022     0.669169     0.420679 
    0.618100     0.522161     0.622625 
    0.515013     0.593966     0.507470 
    0.613914     0.688034     0.450804 
    0.462588     0.525833     0.356761 
    0.438417     0.379195     0.365853 
    0.392900     0.475287     0.525976 
    0.453097     0.327858     0.605451 
    0.310417     0.354602     0.578254 
    0.361484     0.620359     0.572891 
    0.490464     0.620802     0.670249 
    0.497489     0.456959     0.683931 
    0.607554     0.366947     0.658796 
    0.508466     0.275092     0.439242 
    0.343868     0.567145     0.375197 
    0.738689     0.442417     0.468847 
    0.574279     0.524082     0.298414 
    0.705430     0.414418     0.369648 
    0.545813     0.716041     0.578832 
    0.449105     0.708819     0.563047 
    0.613567     0.652132     0.599567 
    0.681907     0.607515     0.536670 
    0.691816     0.428338     0.567745 
    0.723843     0.519750     0.540483 
    0.567899     0.609560     0.355220 
    0.506228     0.741004     0.480736 
    0.328576     0.377501     0.434339 
    0.280105     0.535305     0.462444 
    0.377258     0.425453     0.664595 
    0.388487     0.307146     0.477816 
    0.268774     0.442389     0.481830 
    0.300311     0.629256     0.445111 
    0.567590     0.292557     0.556800 
    0.395818     0.528306     0.669663 
    0.337777     0.469096     0.388244 
EA20833 17.335 16.347 15.242 90.00 90.00 90.00 Sym.group:    0
1.0
   17.335168     0.000000     0.000000
    0.000000    16.346922     0.000000
    0.000000     0.000000    15.242398
   W   B
  16  22
Direct
    0.495294     0.593013     0.337253 
    0.429955     0.708789     0.423900 
    0.571982     0.660364     0.468429 
    0.632769     0.491282     0.388985 
    0.726898     0.533987     0.514524 
    0.532258     0.565741     0.614734 
    0.737748     0.389064     0.490517 
    0.419960     0.557847     0.491669 
    0.507212     0.415874     0.510389 
    0.410666     0.306186     0.450604 
    0.297203     0.570967     0.582087 
    0.574817     0.422209     0.677041 
    0.409568     0.474293     0.652271 
    0.625670     0.318028     0.566794 
    0.380030     0.445956     0.384314 
    0.471073     0.323649     0.647979 
    0.546279     0.536168     0.470556 
    0.689377     0.432278     0.609257 
    0.626514     0.363816     0.432442 
    0.652355     0.620539     0.589247 
    0.617079     0.618747     0.333346 
    0.695507     0.662287     0.504100 
    0.467832     0.681325     0.560397 
    0.687947     0.622743     0.405780 
    0.655233     0.527047     0.634507 
    0.374933     0.367271     0.573149 
    0.302669     0.437975     0.584427 
    0.281899     0.471288     0.481858 
    0.293536     0.557854     0.430684 
    0.362173     0.602019     0.365046 
    0.320181     0.651957     0.460034 
    0.546359     0.375130     0.369008 
    0.369759     0.680528     0.550562 
    0.410977     0.617534     0.630801 
    0.512576     0.261729     0.531448 
    0.310077     0.374047     0.487995 
    0.548786     0.297174     0.441274 
    0.504851     0.463295     0.352593 
EA21160 16.229 16.411 15.398 90.00 90.00 90.00 Sym.group:    0
1.0
   16.228665     0.000000     0.000000
    0.000000    16.410906     0.000000
    0.000000     0.000000    15.398490
   W   B
  16  22
Direct
    0.414404     0.627507     0.638051 
    0.562099     0.618293     0.567645 
    0.474243     0.472426     0.643585 
    0.418857     0.523006     0.480156 
    0.743850     0.490641     0.490154 
    0.559833     0.598021     0.386044 
    0.416778     0.672762     0.385083 
    0.578401     0.464553     0.508492 
    0.461131     0.350927     0.459767 
    0.402525     0.318365     0.621356 
    0.536975     0.449800     0.341027 
    0.342584     0.298561     0.375556 
    0.659339     0.403988     0.629244 
    0.380730     0.432303     0.315715 
    0.582667     0.272337     0.531331 
    0.713230     0.338410     0.496475 
    0.360602     0.667847     0.509829 
    0.308665     0.605221     0.442348 
    0.307747     0.590290     0.552010 
    0.601835     0.524510     0.668406 
    0.339383     0.513937     0.614984 
    0.457388     0.698957     0.523029 
    0.681554     0.542134     0.601294 
    0.341401     0.558789     0.352899 
    0.538724     0.711227     0.458379 
    0.695284     0.601602     0.421123 
    0.701595     0.616224     0.528416 
    0.442358     0.556327     0.323288 
    0.638982     0.677975     0.465234 
    0.665652     0.514951     0.372310 
    0.531221     0.353417     0.621402 
    0.333414     0.415135     0.443990 
    0.323182     0.329142     0.506720 
    0.346222     0.423057     0.665424 
    0.597581     0.344496     0.415418 
    0.670700     0.415699     0.391400 
    0.345827     0.422605     0.553052 
    0.523037     0.584561     0.699363 
EA21503 16.424 16.577 15.231 90.00 90.00 90.00 Sym.group:    0
1.0
   16.424349     0.000000     0.000000
    0.000000    16.576819     0.000000
    0.000000     0.000000    15.231455
   W   B
  16  22
Direct
    0.558066     0.631600     0.649437 
    0.415150     0.594633     0.581937 
    0.536480     0.468522     0.641582 
    0.571857     0.542170     0.478942 
    0.266885     0.436121     0.489682 
    0.415656     0.588856     0.394045 
    0.532081     0.695203     0.399992 
    0.433974     0.448229     0.505637 
    0.570959     0.370556     0.446220 
    0.636552     0.337182     0.607786 
    0.472636     0.456358     0.334305 
    0.694098     0.350874     0.358485 
    0.374640     0.360100     0.623155 
    0.627720     0.478256     0.311991 
    0.474931     0.261703     0.511237 
    0.333716     0.296764     0.483364 
    0.594057     0.694034     0.523763 
    0.654305     0.652439     0.447227 
    0.663735     0.626016     0.554861 
    0.402153     0.488481     0.674275 
    0.654667     0.540491     0.612220 
    0.494570     0.700527     0.542874 
    0.321621     0.489934     0.605570 
    0.630269     0.609141     0.352690 
    0.411737     0.696231     0.479754 
    0.285481     0.558045     0.429367 
    0.282916     0.561604     0.539279 
    0.535196     0.582832     0.322931 
    0.324158     0.640104     0.482727 
    0.334011     0.485579     0.372560 
    0.506970     0.341331     0.614479 
    0.682148     0.458616     0.437451 
    0.708320     0.371215     0.492513 
    0.671361     0.447908     0.657294 
    0.441557     0.335041     0.400206 
    0.353560     0.388500     0.384205 
    0.665464     0.454360     0.545631 
    0.466341     0.560442     0.710323 
EA21856 15.420 15.720 17.501 90.00 90.00 90.00 Sym.group:    0
1.0
   15.420057     0.000000     0.000000
    0.000000    15.719889     0.000000
    0.000000     0.000000    17.500701
   W   B
  16  21
Direct
    0.486702     0.422389     0.623256 
    0.393304     0.291769     0.537862 
    0.548900     0.330889     0.505334 
    0.420320     0.452976     0.487132 
    0.261545     0.472931     0.425211 
    0.384862     0.556515     0.367729 
    0.366820     0.551951     0.605546 
    0.613989     0.547703     0.634000 
    0.618842     0.479739     0.499913 
    0.551528     0.565974     0.392981 
    0.590381     0.658411     0.518232 
    0.760355     0.460767     0.580578 
    0.708685     0.319963     0.541645 
    0.794459     0.551404     0.460444 
    0.696062     0.483984     0.362233 
    0.526739     0.411398     0.366165 
    0.431597     0.321686     0.419512 
    0.364119     0.671753     0.445529 
    0.280046     0.609839     0.440983 
    0.249436     0.568002     0.525571 
    0.265040     0.469654     0.551092 
    0.341271     0.406648     0.598909 
    0.284103     0.373733     0.516874 
    0.325635     0.343124     0.433098 
    0.377213     0.407665     0.366057 
    0.316948     0.650494     0.529847 
    0.629120     0.399069     0.614403 
    0.429466     0.661014     0.536325 
    0.493971     0.634024     0.616525 
    0.661562     0.364777     0.422023 
    0.726263     0.665497     0.485533 
    0.499985     0.547910     0.547395 
    0.680874     0.618668     0.410866 
    0.753474     0.412285     0.458622 
    0.717188     0.600263     0.560193 
    0.467190     0.665127     0.436795 
    0.482003     0.550002     0.675587 
EA22144 17.453 16.443 15.167 90.00 90.00 90.00 Sym.group:    0
1.0
   17.453063     0.000000     0.000000
    0.000000    16.442503     0.000000
    0.000000     0.000000    15.167079
   W   B
  16  23
Direct
    0.640779     0.406392     0.357443 
    0.676103     0.430554     0.619787 
    0.601156     0.504243     0.499150 
    0.538085     0.660407     0.471403 
    0.519060     0.540831     0.342503 
    0.697748     0.622824     0.454649 
    0.420251     0.649529     0.591487 
    0.321152     0.640907     0.446285 
    0.436298     0.522473     0.493916 
    0.479048     0.538386     0.692206 
    0.294906     0.439854     0.603844 
    0.371752     0.545700     0.312110 
    0.338063     0.419124     0.431122 
    0.510800     0.387991     0.420301 
    0.416145     0.269956     0.468562 
    0.442069     0.394159     0.596606 
    0.739700     0.505659     0.521751 
    0.718735     0.496851     0.414247 
    0.708594     0.413336     0.480520 
    0.694672     0.561576     0.596517 
    0.651820     0.539460     0.347540 
    0.628750     0.632427     0.572079 
    0.614378     0.632220     0.356772 
    0.605832     0.548869     0.650935 
    0.542392     0.632083     0.618561 
    0.434277     0.642711     0.378049 
    0.422530     0.710104     0.461300 
    0.429888     0.432414     0.320505 
    0.273180     0.528940     0.387853 
    0.381226     0.460738     0.700076 
    0.355998     0.551058     0.662149 
    0.307883     0.581490     0.574308 
    0.266047     0.523180     0.496217 
    0.336522     0.331982     0.544077 
    0.412401     0.336932     0.349726 
    0.625706     0.357481     0.495290 
    0.569939     0.362003     0.589258 
    0.518726     0.296053     0.532968 
    0.557384     0.449104     0.647930 
EA22417 17.546 16.355 15.454 90.00 90.00 90.00 Sym.group:    0
1.0
   17.546395     0.000000     0.000000
    0.000000    16.354694     0.000000
    0.000000     0.000000    15.454069
   W   B
  17  23
Direct
    0.440967     0.580650     0.475057 
    0.423203     0.739866     0.525614 
    0.365389     0.520479     0.643939 
    0.304305     0.525150     0.482769 
    0.429396     0.428173     0.528418 
    0.390884     0.314638     0.398475 
    0.466959     0.442481     0.362878 
    0.372885     0.345503     0.654351 
    0.548336     0.664455     0.550858 
    0.520208     0.522933     0.655859 
    0.578802     0.493506     0.489122 
    0.601395     0.385585     0.602642 
    0.610673     0.402145     0.348146 
    0.537811     0.317990     0.464752 
    0.684663     0.608732     0.496922 
    0.729923     0.454852     0.545522 
    0.456768     0.605760     0.315115 
    0.398270     0.701134     0.392616 
    0.349673     0.635350     0.568180 
    0.424079     0.285834     0.526739 
    0.341440     0.617734     0.371920 
    0.331294     0.666482     0.467183 
    0.439406     0.630686     0.617370 
    0.299462     0.424192     0.577622 
    0.495086     0.701350     0.416086 
    0.426447     0.439482     0.729162 
    0.631527     0.598539     0.630246 
    0.573588     0.635156     0.407240 
    0.711358     0.504709     0.414201 
    0.650949     0.496879     0.654697 
    0.719837     0.405652     0.418559 
    0.658065     0.355415     0.478473 
    0.561944     0.530676     0.335530 
    0.502508     0.311018     0.331577 
    0.491045     0.386734     0.675573 
    0.489174     0.309667     0.602256 
    0.645103     0.568563     0.371425 
    0.718550     0.561163     0.621027 
    0.364477     0.522488     0.351809 
    0.314147     0.358195     0.500067 
EA22588 18.361 16.984 14.675 90.00 90.00 90.00 Sym.group:    0
1.0
   18.361047     0.000000     0.000000
    0.000000    16.983926     0.000000
    0.000000     0.000000    14.675367
   W   B
  19  24
Direct
    0.647891     0.461472     0.522055 
    0.766217     0.538012     0.488182 
    0.546715     0.507449     0.668215 
    0.649943     0.601943     0.596633 
    0.416225     0.577973     0.651955 
    0.518709     0.577513     0.513352 
    0.448993     0.706223     0.563450 
    0.630176     0.567867     0.391693 
    0.311107     0.463088     0.367234 
    0.398821     0.339391     0.425254 
    0.482063     0.499151     0.350932 
    0.387276     0.493511     0.507638 
    0.619553     0.312796     0.494511 
    0.448554     0.398979     0.667432 
    0.311144     0.448040     0.644979 
    0.509503     0.412889     0.502875 
    0.604595     0.410318     0.351412 
    0.272568     0.603069     0.442559 
    0.371848     0.596903     0.342296 
    0.533078     0.639932     0.652610 
    0.660286     0.479711     0.673376 
    0.711378     0.470619     0.382120 
    0.735415     0.502599     0.619282 
    0.711396     0.641135     0.471561 
    0.340039     0.646454     0.563491 
    0.567997     0.700106     0.565876 
    0.453044     0.679879     0.419882 
    0.516754     0.626803     0.363449 
    0.541306     0.702024     0.450121 
    0.364424     0.680050     0.457683 
    0.260210     0.485879     0.515763 
    0.294207     0.563879     0.584331 
    0.486924     0.371865     0.325162 
    0.298955     0.394296     0.500046 
    0.531524     0.308518     0.393761 
    0.360352     0.353041     0.571506 
    0.526800     0.306304     0.601832 
    0.502640     0.272450     0.494681 
    0.438598     0.303110     0.566347 
    0.584108     0.383762     0.632203 
    0.403174     0.406562     0.300063 
    0.704501     0.378024     0.420776 
    0.630988     0.686414     0.481421 
EA23176 17.645 16.369 15.046 90.00 90.00 90.00 Sym.group:    0
1.0
   17.644528     0.000000     0.000000
    0.000000    16.368994     0.000000
    0.000000     0.000000    15.046182
   W   B
  16  23
Direct
    0.637019     0.402158     0.358919 
    0.672192     0.425584     0.619922 
    0.602165     0.504180     0.499179 
    0.542568     0.658896     0.467931 
    0.521356     0.539460     0.342196 
    0.702712     0.617554     0.456517 
    0.424616     0.654640     0.587189 
    0.327222     0.642632     0.438825 
    0.436854     0.523215     0.494470 
    0.478862     0.539233     0.692394 
    0.292565     0.447880     0.606730 
    0.374688     0.547835     0.310230 
    0.336931     0.422553     0.431858 
    0.509846     0.383438     0.425596 
    0.405054     0.270687     0.472525 
    0.437002     0.396313     0.600446 
    0.739020     0.499558     0.525025 
    0.718666     0.492211     0.414723 
    0.708791     0.408778     0.479803 
    0.694731     0.556713     0.600420 
    0.653996     0.536110     0.346896 
    0.631762     0.629689     0.573253 
    0.620547     0.630449     0.356253 
    0.605181     0.544382     0.652324 
    0.544410     0.629930     0.616173 
    0.441436     0.645228     0.371419 
    0.429018     0.710703     0.455256 
    0.432353     0.433943     0.324881 
    0.273975     0.530839     0.383082 
    0.378154     0.468392     0.704543 
    0.358211     0.558534     0.660734 
    0.312525     0.586963     0.569729 
    0.267005     0.529604     0.493103 
    0.330063     0.337969     0.548729 
    0.411535     0.338877     0.353329 
    0.627778     0.357461     0.497012 
    0.562604     0.359414     0.581696 
    0.502876     0.291347     0.540410 
    0.553709     0.446647     0.646282 
EA23281 18.276 16.883 14.563 90.00 90.00 90.00 Sym.group:    0
1.0
   18.275555     0.000000     0.000000
    0.000000    16.882622     0.000000
    0.000000     0.000000    14.563052
   W   B
  18  25
Direct
    0.655040     0.540596     0.531903 
    0.763240     0.451778     0.494665 
    0.540658     0.500717     0.664358 
    0.643275     0.384769     0.591245 
    0.423437     0.375909     0.635749 
    0.516953     0.417827     0.512969 
    0.435582     0.274142     0.511989 
    0.601559     0.289766     0.458527 
    0.632803     0.440086     0.395230 
    0.322409     0.542174     0.372678 
    0.408276     0.662315     0.438194 
    0.477774     0.489945     0.355507 
    0.386803     0.508784     0.523303 
    0.629272     0.689003     0.497882 
    0.516961     0.586404     0.497991 
    0.615612     0.592790     0.351969 
    0.264439     0.412105     0.460694 
    0.288205     0.443994     0.622155 
    0.539871     0.371109     0.670807 
    0.653426     0.502042     0.680111 
    0.719404     0.531921     0.387359 
    0.729868     0.477924     0.630651 
    0.706371     0.347786     0.467259 
    0.333550     0.335078     0.549051 
    0.540874     0.297198     0.595863 
    0.439871     0.357515     0.395574 
    0.535762     0.368534     0.361139 
    0.499056     0.282271     0.388481 
    0.348691     0.332803     0.435016 
    0.259125     0.535600     0.510572 
    0.495166     0.623797     0.334795 
    0.366063     0.423079     0.381811 
    0.305053     0.617816     0.494609 
    0.535753     0.695678     0.399214 
    0.361048     0.646035     0.579930 
    0.538044     0.699728     0.603274 
    0.505673     0.726843     0.501857 
    0.447095     0.684083     0.586048 
    0.591239     0.621455     0.627671 
    0.411488     0.596232     0.307482 
    0.299543     0.576083     0.606723 
    0.500800     0.622497     0.658552 
    0.714872     0.623787     0.429143 
EA23852 17.461 16.416 14.926 90.00 90.00 90.00 Sym.group:    0
1.0
   17.461482     0.000000     0.000000
    0.000000    16.416184     0.000000
    0.000000     0.000000    14.925658
   W   B
  16  23
Direct
    0.639177     0.419203     0.346253 
    0.671261     0.410126     0.610937 
    0.604413     0.503576     0.499356 
    0.546694     0.662161     0.489395 
    0.525125     0.556142     0.350214 
    0.707033     0.620262     0.473262 
    0.425293     0.643929     0.603633 
    0.329966     0.649143     0.453366 
    0.439951     0.520801     0.496318 
    0.477690     0.518540     0.696837 
    0.286158     0.441820     0.599436 
    0.377512     0.567502     0.314961 
    0.334960     0.430691     0.424081 
    0.511591     0.388756     0.412155 
    0.395562     0.275497     0.443958 
    0.432212     0.385038     0.588791 
    0.741646     0.494351     0.527242 
    0.722044     0.501173     0.415473 
    0.710928     0.410828     0.468648 
    0.696373     0.542403     0.609604 
    0.657750     0.553210     0.352897 
    0.634071     0.618393     0.590363 
    0.625301     0.646410     0.374375 
    0.605089     0.526190     0.658012 
    0.545687     0.615748     0.633095 
    0.445237     0.658458     0.388457 
    0.432163     0.715967     0.479431 
    0.433470     0.452823     0.321360 
    0.274603     0.544192     0.384098 
    0.373890     0.450464     0.698882 
    0.356145     0.544562     0.667232 
    0.311674     0.581569     0.577996 
    0.265162     0.533065     0.494136 
    0.322279     0.336294     0.531050 
    0.409222     0.355822     0.334464 
    0.628941     0.358817     0.478457 
    0.558421     0.349796     0.559902 
    0.494385     0.285957     0.515744 
    0.550923     0.430326     0.636135 
EA24030 17.689 16.337 16.536 90.00 90.00 90.00 Sym.group:    0
1.0
   17.689193     0.000000     0.000000
    0.000000    16.336556     0.000000
    0.000000     0.000000    16.535692
   W   B
  20  21
Direct
    0.309111     0.537506     0.519713 
    0.274378     0.562497     0.379294 
    0.429508     0.434133     0.485512 
    0.372246     0.439777     0.320914 
    0.278248     0.415736     0.428807 
    0.550259     0.334000     0.523832 
    0.699053     0.372796     0.514173 
    0.417004     0.568334     0.378877 
    0.617952     0.472265     0.318140 
    0.499577     0.361962     0.374501 
    0.420156     0.327343     0.607698 
    0.458656     0.586974     0.528181 
    0.537828     0.676844     0.431030 
    0.658661     0.638149     0.507347 
    0.592974     0.497959     0.469964 
    0.657535     0.622790     0.346755 
    0.470554     0.642624     0.664683 
    0.387823     0.485113     0.648605 
    0.536679     0.479609     0.630261 
    0.742066     0.535863     0.413904 
    0.344786     0.324274     0.497335 
    0.435633     0.290091     0.473499 
    0.322468     0.403720     0.565010 
    0.532518     0.344984     0.660058 
    0.622047     0.362985     0.412600 
    0.378546     0.330616     0.398618 
    0.493605     0.479878     0.306289 
    0.702319     0.413847     0.391982 
    0.417475     0.714298     0.472299 
    0.558036     0.693872     0.567375 
    0.710632     0.505800     0.538037 
    0.472042     0.729473     0.553359 
    0.343260     0.655818     0.462615 
    0.535832     0.573600     0.337100 
    0.586407     0.616530     0.626797 
    0.647846     0.549177     0.603234 
    0.622414     0.362054     0.626121 
    0.462813     0.398112     0.705500 
    0.383779     0.693699     0.572482 
    0.355427     0.614142     0.628665 
    0.661847     0.450751     0.608834 
EA24447 17.634 16.814 15.398 90.00 90.00 90.00 Sym.group:    0
1.0
   17.633941     0.000000     0.000000
    0.000000    16.813790     0.000000
    0.000000     0.000000    15.398403
   W   B
  20  21
Direct
    0.321328     0.443027     0.510951 
    0.295276     0.406897     0.357583 
    0.466396     0.408334     0.492161 
    0.436934     0.349229     0.333317 
    0.352801     0.304552     0.452462 
    0.624690     0.389701     0.567366 
    0.726137     0.508544     0.524226 
    0.403998     0.503271     0.355565 
    0.646466     0.452432     0.305686 
    0.578925     0.345642     0.407040 
    0.502474     0.352065     0.659322 
    0.435337     0.575996     0.501154 
    0.431653     0.669967     0.358850 
    0.556663     0.668891     0.437611 
    0.584249     0.514473     0.462744 
    0.555620     0.571927     0.297596 
    0.393391     0.650501     0.625085 
    0.405425     0.478080     0.649729 
    0.534249     0.580840     0.666783 
    0.680934     0.596689     0.361688 
    0.445535     0.281574     0.552756 
    0.541284     0.291780     0.533717 
    0.385899     0.352217     0.600160 
    0.590242     0.447862     0.691245 
    0.686619     0.412392     0.439307 
    0.479582     0.274267     0.447946 
    0.521473     0.448585     0.342493 
    0.737300     0.481445     0.388926 
    0.326502     0.626723     0.409002 
    0.449649     0.719432     0.497926 
    0.672926     0.624556     0.503543 
    0.360238     0.693156     0.482994 
    0.289284     0.541261     0.433439 
    0.524708     0.475628     0.596022 
    0.510357     0.687360     0.574018 
    0.598597     0.653406     0.567795 
    0.666655     0.493743     0.648750 
    0.504850     0.465721     0.731128 
    0.304113     0.616161     0.520694 
    0.314111     0.554468     0.603021 
    0.657132     0.587204     0.608200 
EA24773 17.102 16.599 15.964 90.00 90.00 90.00 Sym.group:    0
1.0
   17.102130     0.000000     0.000000
    0.000000    16.599356     0.000000
    0.000000     0.000000    15.963789
   W   B
  20  21
Direct
    0.679234     0.577120     0.517258 
    0.699781     0.624730     0.368194 
    0.524844     0.593962     0.492837 
    0.558003     0.663190     0.344427 
    0.636274     0.714706     0.470438 
    0.361082     0.596694     0.561156 
    0.269591     0.466763     0.515079 
    0.604704     0.507798     0.366126 
    0.350588     0.534664     0.304116 
    0.406395     0.649819     0.409676 
    0.480403     0.646959     0.655055 
    0.560849     0.428413     0.503521 
    0.584401     0.328780     0.362386 
    0.455388     0.319307     0.440000 
    0.410511     0.475855     0.458170 
    0.471603     0.426750     0.310430 
    0.621950     0.356704     0.616793 
    0.591802     0.526697     0.645212 
    0.468890     0.411217     0.661625 
    0.333801     0.387389     0.356682 
    0.534689     0.723504     0.556361 
    0.437494     0.705236     0.535185 
    0.600901     0.657085     0.601773 
    0.399543     0.541260     0.681927 
    0.302357     0.572322     0.435961 
    0.501942     0.731135     0.453597 
    0.479705     0.554892     0.348359 
    0.259988     0.496020     0.383688 
    0.680234     0.396717     0.411112 
    0.569575     0.283821     0.499793 
    0.337721     0.354282     0.499039 
    0.655270     0.325892     0.482893 
    0.719169     0.482292     0.435686 
    0.468830     0.518632     0.590232 
    0.505435     0.306578     0.575917 
    0.410914     0.328448     0.569756 
    0.329344     0.486920     0.635044 
    0.488415     0.530469     0.720955 
    0.706969     0.409872     0.518307 
    0.695470     0.462522     0.606412 
    0.345944     0.394586     0.598819 
EA25137 17.950 17.174 14.120 90.00 90.00 90.00 Sym.group:    0
1.0
   17.949930     0.000000     0.000000
    0.000000    17.174429     0.000000
    0.000000     0.000000    14.120013
   W   B
  19  22
Direct
    0.506088     0.420176     0.486170 
    0.625071     0.340437     0.433785 
    0.634400     0.407399     0.596621 
    0.594407     0.546863     0.507493 
    0.713860     0.475847     0.437513 
    0.635625     0.618570     0.648616 
    0.507368     0.679990     0.455897 
    0.504786     0.551233     0.353832 
    0.652099     0.697149     0.500089 
    0.508748     0.255098     0.427513 
    0.381721     0.654189     0.370288 
    0.396416     0.532290     0.495874 
    0.270833     0.555848     0.391191 
    0.277309     0.432739     0.519052 
    0.382623     0.340800     0.433902 
    0.439927     0.276979     0.580436 
    0.394953     0.412239     0.629638 
    0.475843     0.639231     0.629201 
    0.517189     0.498600     0.658496 
    0.559982     0.305301     0.561592 
    0.484317     0.355846     0.346262 
    0.729516     0.359632     0.506878 
    0.429167     0.441163     0.352522 
    0.754651     0.428461     0.575619 
    0.721669     0.592419     0.519364 
    0.631910     0.543355     0.343330 
    0.605065     0.636299     0.373838 
    0.720534     0.516918     0.590844 
    0.691515     0.602814     0.405842 
    0.599691     0.456413     0.375609 
    0.330870     0.448822     0.378770 
    0.379903     0.528062     0.328062 
    0.270261     0.563102     0.546623 
    0.309257     0.639859     0.494690 
    0.316126     0.512597     0.629931 
    0.321684     0.321874     0.566238 
    0.393010     0.674891     0.522722 
    0.348868     0.613078     0.608271 
    0.565157     0.717619     0.598397 
    0.399819     0.541108     0.674631 
    0.517759     0.364692     0.644358 
EA25487 18.044 17.259 14.006 90.00 90.00 90.00 Sym.group:    0
1.0
   18.044078     0.000000     0.000000
    0.000000    17.259235     0.000000
    0.000000     0.000000    14.005755
   W   B
  19  22
Direct
    0.506547     0.579075     0.485846 
    0.626594     0.658410     0.435975 
    0.634391     0.591549     0.599744 
    0.596098     0.455595     0.507717 
    0.715213     0.520695     0.440344 
    0.632388     0.383369     0.652374 
    0.506416     0.322540     0.459026 
    0.506618     0.450093     0.354150 
    0.648033     0.304269     0.505163 
    0.511193     0.743686     0.430489 
    0.384416     0.347157     0.366422 
    0.397803     0.467480     0.495208 
    0.273680     0.446462     0.383815 
    0.278148     0.566259     0.512235 
    0.384756     0.659802     0.432146 
    0.440058     0.721763     0.582005 
    0.393079     0.587961     0.629089 
    0.470857     0.361883     0.631992 
    0.514579     0.500864     0.659139 
    0.560208     0.692926     0.564947 
    0.486709     0.645106     0.345800 
    0.729657     0.637131     0.510521 
    0.432118     0.560052     0.350501 
    0.753716     0.568609     0.580445 
    0.720845     0.405741     0.522254 
    0.633105     0.455846     0.343179 
    0.604586     0.363971     0.375201 
    0.719371     0.480866     0.594929 
    0.690899     0.395465     0.407809 
    0.602565     0.543520     0.375182 
    0.334630     0.552642     0.373496 
    0.383510     0.473223     0.324228 
    0.270386     0.437555     0.540606 
    0.309683     0.361482     0.488238 
    0.314202     0.488148     0.625778 
    0.321254     0.676721     0.562812 
    0.391628     0.326114     0.521077 
    0.346225     0.387822     0.605314 
    0.561114     0.284639     0.604265 
    0.396315     0.460029     0.674183 
    0.516402     0.633482     0.646355 
EA25715 17.385 16.438 16.101 90.00 90.00 90.00 Sym.group:    0
1.0
   17.384938     0.000000     0.000000
    0.000000    16.437871     0.000000
    0.000000     0.000000    16.101276
   W   B
  19  23
Direct
    0.563136     0.671624     0.486699 
    0.434697     0.569073     0.505448 
    0.610769     0.462519     0.352724 
    0.605468     0.514183     0.517052 
    0.745751     0.523198     0.555140 
    0.560755     0.464320     0.699152 
    0.564803     0.356003     0.570352 
    0.396742     0.322702     0.405965 
    0.492685     0.429620     0.445849 
    0.347492     0.650397     0.382459 
    0.336149     0.390249     0.650653 
    0.485458     0.367374     0.282941 
    0.533175     0.607769     0.630747 
    0.272914     0.537324     0.458563 
    0.369883     0.475808     0.358479 
    0.325563     0.683931     0.527193 
    0.421071     0.510176     0.682401 
    0.301066     0.545982     0.609159 
    0.558164     0.299853     0.386040 
    0.451967     0.700069     0.566413 
    0.538636     0.579000     0.380541 
    0.710197     0.538678     0.422027 
    0.688259     0.622871     0.482250 
    0.474467     0.662611     0.388126 
    0.654228     0.546884     0.651650 
    0.691759     0.399352     0.542071 
    0.274341     0.430673     0.541876 
    0.666232     0.442374     0.632125 
    0.713184     0.442470     0.450607 
    0.493344     0.472449     0.580827 
    0.461507     0.382991     0.651034 
    0.331102     0.348386     0.525805 
    0.486648     0.283734     0.492214 
    0.658404     0.627177     0.582240 
    0.436367     0.716656     0.464976 
    0.633749     0.594350     0.397999 
    0.402641     0.639953     0.633153 
    0.643424     0.370901     0.453588 
    0.445378     0.583675     0.332672 
    0.298084     0.403704     0.443065 
    0.495601     0.499275     0.316091 
    0.424738     0.329660     0.561635 
EA26204 17.440 17.119 14.197 90.00 90.00 90.00 Sym.group:    0
1.0
   17.440378     0.000000     0.000000
    0.000000    17.119382     0.000000
    0.000000     0.000000    14.197421
   W   B
  19  21
Direct
    0.362995     0.321868     0.615827 
    0.499882     0.341892     0.426865 
    0.506954     0.478224     0.345174 
    0.347645     0.304251     0.452483 
    0.632333     0.373200     0.352862 
    0.595338     0.479621     0.500624 
    0.739286     0.465193     0.398738 
    0.733517     0.564600     0.530894 
    0.515320     0.357495     0.605587 
    0.628891     0.664044     0.484918 
    0.362252     0.599907     0.625027 
    0.403573     0.453048     0.510061 
    0.481992     0.587123     0.502266 
    0.369738     0.530906     0.346634 
    0.504073     0.723017     0.443054 
    0.608633     0.584697     0.640205 
    0.299335     0.611632     0.465935 
    0.337935     0.459444     0.682428 
    0.477793     0.502043     0.666458 
    0.575715     0.589716     0.368852 
    0.399335     0.395914     0.354018 
    0.310611     0.414814     0.394225 
    0.676574     0.577056     0.390190 
    0.631651     0.503276     0.330613 
    0.734654     0.437704     0.549624 
    0.701648     0.366661     0.480940 
    0.685102     0.479569     0.635021 
    0.611579     0.336522     0.501553 
    0.650387     0.386180     0.597121 
    0.447004     0.263675     0.531875 
    0.595407     0.452418     0.667304 
    0.449184     0.702654     0.588023 
    0.544195     0.692275     0.593566 
    0.488799     0.632988     0.662388 
    0.385597     0.694010     0.502907 
    0.281246     0.408988     0.520826 
    0.477494     0.611453     0.340379 
    0.268909     0.489070     0.445045 
    0.398957     0.655198     0.388550 
    0.278466     0.507651     0.560938 
EA26442 17.883 16.489 14.548 90.00 90.00 90.00 Sym.group:    0
1.0
   17.883038     0.000000     0.000000
    0.000000    16.488759     0.000000
    0.000000     0.000000    14.548163
   W   B
  16  25
Direct
    0.591017     0.414563     0.365792 
    0.438959     0.351109     0.630517 
    0.476928     0.421814     0.490201 
    0.530355     0.561469     0.350168 
    0.469743     0.314041     0.354482 
    0.640508     0.387387     0.535688 
    0.772155     0.446180     0.535010 
    0.740040     0.434961     0.377660 
    0.477108     0.578220     0.514316 
    0.348475     0.642806     0.485783 
    0.361980     0.423013     0.391748 
    0.548874     0.666454     0.625709 
    0.321645     0.448313     0.658122 
    0.563691     0.499089     0.638761 
    0.637500     0.622155     0.475246 
    0.672868     0.554894     0.322996 
    0.479590     0.270755     0.497426 
    0.562150     0.303773     0.452278 
    0.549768     0.297677     0.568930 
    0.560777     0.365605     0.650384 
    0.394348     0.308384     0.481804 
    0.472047     0.442958     0.312870 
    0.733244     0.573658     0.557815 
    0.681232     0.501047     0.607805 
    0.744056     0.551959     0.447417 
    0.414365     0.524080     0.309567 
    0.287907     0.543997     0.562854 
    0.418005     0.664801     0.618410 
    0.456819     0.687677     0.416188 
    0.539491     0.703516     0.475706 
    0.411683     0.619692     0.354254 
    0.285260     0.529410     0.448941 
    0.337435     0.558943     0.364352 
    0.654605     0.598303     0.628969 
    0.285816     0.449887     0.518643 
    0.433131     0.489659     0.633187 
    0.369830     0.573481     0.617139 
    0.461182     0.585584     0.673613 
    0.336912     0.368956     0.539285 
    0.454658     0.716637     0.527807 
    0.583842     0.503093     0.482156 
EA26920 16.445 16.817 15.609 90.00 90.00 90.00 Sym.group:    0
1.0
   16.444586     0.000000     0.000000
    0.000000    16.817414     0.000000
    0.000000     0.000000    15.608972
   W   B
  18  21
Direct
    0.560974     0.547838     0.516008 
    0.644523     0.406778     0.442076 
    0.425626     0.637819     0.460945 
    0.498566     0.660831     0.623219 
    0.542224     0.540645     0.348512 
    0.661170     0.638586     0.423562 
    0.666819     0.464811     0.607531 
    0.593935     0.368974     0.700109 
    0.520129     0.357498     0.553040 
    0.291791     0.566343     0.419205 
    0.408918     0.485239     0.530584 
    0.311067     0.409124     0.434436 
    0.524158     0.499792     0.681790 
    0.327539     0.596575     0.604680 
    0.424575     0.374569     0.681323 
    0.520328     0.295093     0.389370 
    0.612674     0.250134     0.494744 
    0.293346     0.421474     0.624606 
    0.625414     0.667947     0.559286 
    0.692251     0.590011     0.553176 
    0.424642     0.586584     0.701153 
    0.539547     0.675275     0.380668 
    0.516704     0.437808     0.440828 
    0.544475     0.407183     0.328302 
    0.464405     0.644358     0.322882 
    0.553366     0.689999     0.488136 
    0.681295     0.518649     0.368306 
    0.622460     0.593742     0.639129 
    0.703951     0.520421     0.475514 
    0.633522     0.452027     0.309312 
    0.414140     0.326004     0.454475 
    0.383900     0.497591     0.690147 
    0.354787     0.482966     0.335545 
    0.260298     0.500013     0.525254 
    0.436933     0.424375     0.364532 
    0.374218     0.347022     0.551282 
    0.385759     0.702856     0.571920 
    0.400533     0.571860     0.333857 
    0.659038     0.341186     0.570555 
EA27232 17.296 17.075 14.210 90.00 90.00 90.00 Sym.group:    0
1.0
   17.296306     0.000000     0.000000
    0.000000    17.075450     0.000000
    0.000000     0.000000    14.209817
   W   B
  19  21
Direct
    0.633701     0.318164     0.612656 
    0.495676     0.340729     0.423661 
    0.491518     0.478546     0.345396 
    0.649325     0.300523     0.448098 
    0.362592     0.375972     0.352936 
    0.401906     0.483796     0.500572 
    0.256101     0.471968     0.399507 
    0.266096     0.570288     0.531536 
    0.481691     0.357145     0.602720 
    0.375789     0.666725     0.485923 
    0.640422     0.596742     0.624895 
    0.595544     0.450697     0.509459 
    0.520376     0.587893     0.503646 
    0.631047     0.527605     0.346405 
    0.503325     0.725706     0.447173 
    0.394704     0.588532     0.642132 
    0.705293     0.606349     0.464977 
    0.664212     0.453659     0.680484 
    0.522904     0.497797     0.666462 
    0.425092     0.590706     0.369898 
    0.597975     0.393726     0.352734 
    0.688192     0.410351     0.392385 
    0.323531     0.581830     0.391141 
    0.366424     0.505963     0.332285 
    0.262119     0.443826     0.550532 
    0.293215     0.372618     0.480804 
    0.313480     0.484828     0.635466 
    0.383408     0.339786     0.500571 
    0.345435     0.390163     0.596659 
    0.548398     0.261790     0.527934 
    0.402754     0.453790     0.666906 
    0.557771     0.701516     0.591704 
    0.461533     0.693917     0.595923 
    0.515792     0.631471     0.664796 
    0.621078     0.691457     0.504709 
    0.717576     0.403610     0.520168 
    0.524190     0.611460     0.342595 
    0.731800     0.483162     0.444134 
    0.604876     0.652965     0.390242 
    0.723144     0.502230     0.559778 
EA27556 17.495 17.083 14.161 90.00 90.00 90.00 Sym.group:    0
1.0
   17.495072     0.000000     0.000000
    0.000000    17.082703     0.000000
    0.000000     0.000000    14.160780
   W   B
  19  21
Direct
    0.623303     0.680271     0.615699 
    0.494965     0.655936     0.422950 
    0.494041     0.519655     0.344724 
    0.643983     0.700673     0.449328 
    0.364876     0.621815     0.347845 
    0.399883     0.514389     0.498863 
    0.259973     0.524852     0.392383 
    0.268086     0.425264     0.528288 
    0.475882     0.641581     0.601557 
    0.378629     0.332584     0.487614 
    0.639559     0.407409     0.626854 
    0.594537     0.549447     0.510014 
    0.519199     0.414215     0.505893 
    0.633159     0.473811     0.348548 
    0.507136     0.276112     0.451048 
    0.395093     0.410603     0.643568 
    0.707387     0.396181     0.469753 
    0.662053     0.547748     0.685426 
    0.521819     0.504706     0.669450 
    0.429020     0.407035     0.369833 
    0.597812     0.605987     0.351944 
    0.686742     0.592281     0.393086 
    0.328118     0.415961     0.389323 
    0.370578     0.491947     0.330851 
    0.264037     0.552024     0.544184 
    0.293855     0.624037     0.474353 
    0.312824     0.511967     0.631838 
    0.382218     0.657218     0.495892 
    0.343318     0.607606     0.592516 
    0.542987     0.738386     0.526561 
    0.400224     0.544707     0.665289 
    0.559728     0.302025     0.594462 
    0.464335     0.307457     0.597667 
    0.516236     0.371413     0.666990 
    0.622734     0.312100     0.507844 
    0.713342     0.600176     0.521679 
    0.527972     0.388452     0.344170 
    0.730634     0.520251     0.446217 
    0.608114     0.348917     0.393239 
    0.721607     0.502800     0.562256 
EA27778 17.210 16.969 15.357 90.00 90.00 90.00 Sym.group:    0
1.0
   17.210472     0.000000     0.000000
    0.000000    16.969063     0.000000
    0.000000     0.000000    15.357219
   W   B
  17  25
Direct
    0.651309     0.612804     0.568736 
    0.479446     0.591542     0.507931 
    0.597577     0.478077     0.487934 
    0.749274     0.430511     0.445500 
    0.362398     0.577102     0.359231 
    0.599273     0.618142     0.404028 
    0.362433     0.591366     0.617754 
    0.463784     0.750094     0.573887 
    0.376176     0.691006     0.459321 
    0.643269     0.383828     0.354010 
    0.534507     0.541853     0.664306 
    0.446705     0.441094     0.560795 
    0.573095     0.381224     0.629286 
    0.411343     0.351911     0.371139 
    0.533719     0.334528     0.458653 
    0.345862     0.449073     0.669722 
    0.306550     0.382162     0.493584 
    0.572920     0.705418     0.519075 
    0.724306     0.508105     0.554507 
    0.302000     0.587445     0.490701 
    0.490692     0.553510     0.344420 
    0.424552     0.469435     0.322273 
    0.286013     0.500673     0.441130 
    0.709519     0.556490     0.455237 
    0.553291     0.672607     0.623524 
    0.504608     0.715716     0.441052 
    0.331919     0.447807     0.368619 
    0.583087     0.499360     0.330997 
    0.465433     0.652909     0.661628 
    0.470225     0.652274     0.365865 
    0.677291     0.510943     0.364500 
    0.516981     0.417023     0.325363 
    0.288559     0.500775     0.551930 
    0.651488     0.492302     0.631257 
    0.475357     0.437110     0.713172 
    0.658704     0.351327     0.500557 
    0.693721     0.414574     0.574971 
    0.409443     0.303498     0.503146 
    0.374383     0.329972     0.604056 
    0.474877     0.304889     0.584038 
    0.476640     0.458580     0.425226 
    0.447273     0.350943     0.676937 
EA28309 16.765 17.337 15.228 90.00 90.00 90.00 Sym.group:    0
1.0
   16.765448     0.000000     0.000000
    0.000000    17.336926     0.000000
    0.000000     0.000000    15.228430
   W   B
  17  21
Direct
    0.394926     0.679653     0.498892 
    0.422981     0.521298     0.508677 
    0.453920     0.588552     0.358329 
    0.331694     0.397880     0.571465 
    0.351247     0.403533     0.406426 
    0.402957     0.513871     0.693217 
    0.543862     0.647473     0.532623 
    0.605648     0.653314     0.371318 
    0.544432     0.502054     0.643854 
    0.503153     0.243478     0.506223 
    0.564017     0.350721     0.600157 
    0.495378     0.437953     0.353537 
    0.708410     0.547824     0.362813 
    0.588295     0.508506     0.475964 
    0.696077     0.628356     0.499838 
    0.591374     0.344174     0.440726 
    0.712806     0.521864     0.625511 
    0.327636     0.598003     0.423608 
    0.443215     0.633382     0.630920 
    0.348599     0.606472     0.616760 
    0.391223     0.306999     0.490393 
    0.491027     0.704112     0.412155 
    0.298222     0.593015     0.525653 
    0.328481     0.522970     0.358564 
    0.304040     0.519712     0.597542 
    0.393870     0.486749     0.293363 
    0.292827     0.504354     0.473073 
    0.534436     0.626898     0.673054 
    0.460760     0.326332     0.410344 
    0.433313     0.320220     0.590840 
    0.653537     0.422230     0.655401 
    0.626768     0.446827     0.343939 
    0.694820     0.427057     0.424726 
    0.627349     0.610045     0.642950 
    0.732595     0.494008     0.494135 
    0.581793     0.535686     0.319124 
    0.676025     0.416991     0.539202 
    0.448285     0.407437     0.634686 
EA28628 17.468 16.651 15.133 90.00 90.00 90.00 Sym.group:    0
1.0
   17.467905     0.000000     0.000000
    0.000000    16.650540     0.000000
    0.000000     0.000000    15.133082
   W   B
  17  21
Direct
    0.612355     0.357344     0.414448 
    0.580250     0.489781     0.512039 
    0.535825     0.484080     0.348441 
    0.664468     0.586764     0.625401 
    0.589613     0.652251     0.482256 
    0.604717     0.428293     0.673923 
    0.464973     0.351110     0.475097 
    0.398480     0.394807     0.319455 
    0.467373     0.435968     0.634583 
    0.428837     0.589902     0.642632 
    0.466152     0.632732     0.376802 
    0.283454     0.477471     0.366010 
    0.411969     0.504178     0.480821 
    0.375541     0.664332     0.508998 
    0.390667     0.279122     0.583478 
    0.314494     0.360218     0.455731 
    0.690360     0.587830     0.371164 
    0.664142     0.467273     0.379447 
    0.575431     0.333245     0.557609 
    0.660303     0.376498     0.554937 
    0.714860     0.534024     0.508167 
    0.514539     0.352592     0.329714 
    0.700705     0.435709     0.478576 
    0.699871     0.465147     0.588931 
    0.581274     0.618617     0.338542 
    0.713848     0.632924     0.499077 
    0.503242     0.309464     0.623774 
    0.482092     0.724596     0.472973 
    0.548921     0.633045     0.626154 
    0.346602     0.488357     0.629867 
    0.345750     0.591762     0.386998 
    0.287110     0.568241     0.472037 
    0.289049     0.471225     0.529241 
    0.403353     0.523767     0.328653 
    0.313217     0.567930     0.578452 
    0.547150     0.543038     0.678210 
    0.344023     0.395751     0.592651 
    0.484989     0.690615     0.574714 
EA28984 17.087 16.644 14.926 90.00 90.00 90.00 Sym.group:    0
1.0
   17.087082     0.000000     0.000000
    0.000000    16.643878     0.000000
    0.000000     0.000000    14.926124
   W   B
  17  21
Direct
    0.404613     0.353560     0.372054 
    0.421952     0.475921     0.503566 
    0.479427     0.512553     0.345180 
    0.321749     0.538940     0.629581 
    0.400510     0.633019     0.504624 
    0.395184     0.383139     0.641465 
    0.545338     0.362597     0.449018 
    0.623626     0.439588     0.308707 
    0.536931     0.423405     0.628342 
    0.559348     0.575149     0.670786 
    0.530029     0.662366     0.398046 
    0.726407     0.519999     0.385376 
    0.587732     0.519008     0.487505 
    0.609462     0.674785     0.552929 
    0.617176     0.284974     0.554962 
    0.697798     0.387816     0.447264 
    0.310711     0.568954     0.378663 
    0.352775     0.460088     0.339270 
    0.430023     0.314733     0.514032 
    0.343015     0.356577     0.504737 
    0.263056     0.510563     0.502325 
    0.509968     0.386794     0.306792 
    0.304857     0.433994     0.436180 
    0.295024     0.430524     0.558354 
    0.414849     0.631863     0.354743 
    0.276860     0.606843     0.515025 
    0.496903     0.302316     0.595010 
    0.497904     0.724073     0.518903 
    0.432727     0.601830     0.651700 
    0.651938     0.485794     0.642209 
    0.655389     0.630032     0.418080 
    0.708463     0.593606     0.505205 
    0.712700     0.489876     0.542232 
    0.609066     0.569107     0.337996 
    0.679224     0.576243     0.610377 
    0.441036     0.504515     0.684533 
    0.664241     0.399363     0.589681 
    0.491989     0.675495     0.614544 
EA29326 17.122 16.677 14.875 90.00 90.00 90.00 Sym.group:    0
1.0
   17.121570     0.000000     0.000000
    0.000000    16.677306     0.000000
    0.000000     0.000000    14.875210
   W   B
  17  21
Direct
    0.387519     0.362156     0.376418 
    0.420401     0.485346     0.505497 
    0.478297     0.511857     0.344902 
    0.329685     0.559779     0.632572 
    0.414011     0.643310     0.500924 
    0.386253     0.398713     0.646187 
    0.529913     0.358070     0.451594 
    0.612490     0.421999     0.309522 
    0.532262     0.422629     0.629576 
    0.569258     0.571610     0.668620 
    0.545152     0.655294     0.391837 
    0.725436     0.494006     0.380243 
    0.589246     0.509659     0.486097 
    0.626613     0.662728     0.544851 
    0.595150     0.275481     0.559559 
    0.684500     0.367707     0.448866 
    0.316740     0.585743     0.379512 
    0.346659     0.472247     0.341503 
    0.411956     0.324176     0.520349 
    0.329540     0.374613     0.511055 
    0.265975     0.536179     0.506438 
    0.494723     0.381467     0.309595 
    0.298694     0.454756     0.441248 
    0.290073     0.454116     0.563578 
    0.426508     0.636859     0.351001 
    0.288958     0.630770     0.515926 
    0.477753     0.305978     0.601948 
    0.519865     0.721618     0.511894 
    0.446114     0.610489     0.650061 
    0.652642     0.473108     0.642128 
    0.666820     0.610652     0.410976 
    0.716640     0.571126     0.498933 
    0.711429     0.469203     0.540104 
    0.612298     0.552962     0.334100 
    0.687580     0.559211     0.605703 
    0.445774     0.514076     0.685718 
    0.655569     0.384610     0.591450 
    0.511510     0.675700     0.609518 
EA29345 18.794 16.926 14.491 90.00 90.00 90.00 Sym.group:    0
1.0
   18.794166     0.000000     0.000000
    0.000000    16.925600     0.000000
    0.000000     0.000000    14.490768
   W   B
  20  25
Direct
    0.451627     0.522418     0.345748 
    0.331031     0.638404     0.490306 
    0.332256     0.454316     0.316172 
    0.369699     0.485771     0.496701 
    0.252944     0.521387     0.564597 
    0.394241     0.344501     0.558202 
    0.432280     0.357988     0.384020 
    0.557106     0.633590     0.358568 
    0.515408     0.702666     0.623941 
    0.457076     0.523657     0.661286 
    0.488708     0.590554     0.507981 
    0.597922     0.578515     0.642363 
    0.605596     0.357457     0.584687 
    0.504843     0.433138     0.511695 
    0.633354     0.514692     0.479094 
    0.767545     0.504556     0.488646 
    0.595841     0.368390     0.400056 
    0.618308     0.682718     0.509518 
    0.720996     0.623218     0.412752 
    0.425261     0.678526     0.369219 
    0.572744     0.498910     0.326769 
    0.272701     0.541572     0.412006 
    0.336337     0.500813     0.676323 
    0.277841     0.392173     0.531730 
    0.312789     0.418557     0.630384 
    0.258849     0.444469     0.434514 
    0.343500     0.589602     0.636862 
    0.341980     0.582564     0.352617 
    0.320312     0.366592     0.432502 
    0.406045     0.655459     0.610212 
    0.426655     0.713723     0.518906 
    0.507580     0.725750     0.467028 
    0.707225     0.605432     0.562656 
    0.513053     0.292386     0.489841 
    0.559027     0.455449     0.679871 
    0.708386     0.521212     0.619691 
    0.708770     0.423910     0.589752 
    0.495552     0.387981     0.662580 
    0.696200     0.379041     0.487896 
    0.499856     0.304134     0.603280 
    0.647988     0.458051     0.664977 
    0.519174     0.279075     0.374366 
    0.645883     0.559741     0.319428 
    0.655567     0.462700     0.319630 
    0.713947     0.424241     0.390627 
EA29998 17.107 16.680 14.836 90.00 90.00 90.00 Sym.group:    0
1.0
   17.106699     0.000000     0.000000
    0.000000    16.680366     0.000000
    0.000000     0.000000    14.835993
   W   B
  16  22
Direct
    0.394906     0.361462     0.373702 
    0.419714     0.484249     0.502481 
    0.479448     0.505680     0.339354 
    0.331450     0.561850     0.629947 
    0.416670     0.643011     0.499841 
    0.387387     0.401170     0.644916 
    0.531807     0.354847     0.459097 
    0.532999     0.424282     0.633324 
    0.569996     0.574901     0.668425 
    0.545131     0.654762     0.385938 
    0.719281     0.485702     0.378609 
    0.583528     0.514304     0.487548 
    0.626839     0.663275     0.539573 
    0.594623     0.275900     0.572597 
    0.678308     0.365600     0.453101 
    0.318012     0.583036     0.375728 
    0.347495     0.469337     0.337595 
    0.411232     0.323909     0.520730 
    0.329349     0.374463     0.508369 
    0.269310     0.536933     0.503227 
    0.509287     0.381448     0.316715 
    0.299436     0.453464     0.437175 
    0.290486     0.454042     0.561077 
    0.427961     0.630993     0.350458 
    0.292075     0.631961     0.511185 
    0.476996     0.306275     0.605467 
    0.521568     0.723315     0.506256 
    0.447515     0.614647     0.649281 
    0.652612     0.476027     0.643669 
    0.662396     0.606686     0.405167 
    0.715790     0.569319     0.492168 
    0.707270     0.469121     0.536782 
    0.608053     0.542620     0.335624 
    0.686396     0.560345     0.600751 
    0.446725     0.517837     0.683994 
    0.659388     0.385802     0.596025 
    0.513122     0.680194     0.606401 
    0.595439     0.437232     0.347703 
EA30269 18.178 16.126 15.093 90.00 90.00 90.00 Sym.group:    0
1.0
   18.178004     0.000000     0.000000
    0.000000    16.125993     0.000000
    0.000000     0.000000    15.092923
   W   B
  17  23
Direct
    0.440238     0.614543     0.635564 
    0.564003     0.587991     0.366751 
    0.464185     0.523372     0.491139 
    0.400752     0.633247     0.364866 
    0.338586     0.622180     0.515889 
    0.343849     0.478417     0.397298 
    0.563386     0.659924     0.533662 
    0.644659     0.464006     0.665208 
    0.609290     0.479320     0.509837 
    0.713289     0.549756     0.422574 
    0.618588     0.321058     0.449932 
    0.494492     0.445329     0.658781 
    0.489570     0.356012     0.501888 
    0.549612     0.423354     0.344612 
    0.356888     0.441874     0.584846 
    0.443110     0.735223     0.526163 
    0.393956     0.311025     0.390854 
    0.653221     0.661350     0.435113 
    0.392446     0.509426     0.702664 
    0.324833     0.561314     0.650217 
    0.592675     0.358375     0.595416 
    0.498838     0.696726     0.413162 
    0.455395     0.516989     0.333808 
    0.263343     0.527474     0.569607 
    0.258514     0.446444     0.498890 
    0.286483     0.601653     0.383076 
    0.245468     0.544896     0.459223 
    0.720237     0.553315     0.580104 
    0.686104     0.639227     0.532969 
    0.644867     0.502613     0.314832 
    0.717679     0.402452     0.463901 
    0.674169     0.419762     0.368211 
    0.734485     0.457102     0.555489 
    0.643970     0.596897     0.624082 
    0.683157     0.368632     0.564442 
    0.374904     0.311415     0.532755 
    0.307411     0.362197     0.471734 
    0.431046     0.414034     0.323313 
    0.424538     0.337344     0.621068 
    0.557768     0.563731     0.646059 
EA30691 16.986 16.862 14.596 90.00 90.00 90.00 Sym.group:    0
1.0
   16.986474     0.000000     0.000000
    0.000000    16.861505     0.000000
    0.000000     0.000000    14.596143
   W   B
  16  22
Direct
    0.609512     0.376885     0.359458 
    0.581631     0.483830     0.503896 
    0.525003     0.522072     0.340860 
    0.666656     0.548113     0.645870 
    0.581641     0.640690     0.519727 
    0.611648     0.388977     0.638083 
    0.470510     0.361563     0.440709 
    0.463782     0.412307     0.624851 
    0.424896     0.557529     0.676443 
    0.455756     0.663938     0.402706 
    0.282292     0.497477     0.367396 
    0.416138     0.514938     0.485807 
    0.368939     0.656309     0.556562 
    0.405658     0.272757     0.541555 
    0.322496     0.372624     0.426652 
    0.684897     0.594394     0.392036 
    0.657859     0.486114     0.337701 
    0.590676     0.324190     0.502838 
    0.672997     0.375930     0.498836 
    0.731986     0.536299     0.516068 
    0.495951     0.402098     0.300721 
    0.703895     0.460606     0.437575 
    0.710707     0.449045     0.563511 
    0.574964     0.645392     0.366332 
    0.707080     0.628695     0.535711 
    0.522645     0.299160     0.584404 
    0.475331     0.719290     0.533538 
    0.548258     0.597671     0.665820 
    0.343101     0.461664     0.635714 
    0.337895     0.613510     0.412505 
    0.281957     0.567634     0.493404 
    0.290725     0.464714     0.524946 
    0.394721     0.557816     0.335668 
    0.309006     0.548480     0.602949 
    0.549214     0.499378     0.690191 
    0.338638     0.378223     0.574554 
    0.482696     0.666548     0.628882 
    0.408246     0.453144     0.335524 
EA30997 16.986 16.862 14.596 90.00 90.00 90.00 Sym.group:    0
1.0
   16.986474     0.000000     0.000000
    0.000000    16.861505     0.000000
    0.000000     0.000000    14.596143
   W   B
  16  22
Direct
    0.609512     0.376885     0.359458 
    0.581631     0.483830     0.503896 
    0.525003     0.522072     0.340860 
    0.666656     0.548113     0.645870 
    0.581641     0.640690     0.519727 
    0.611648     0.388977     0.638083 
    0.470510     0.361563     0.440709 
    0.463782     0.412307     0.624851 
    0.424896     0.557529     0.676443 
    0.455756     0.663938     0.402706 
    0.282292     0.497477     0.367396 
    0.416138     0.514938     0.485807 
    0.368939     0.656309     0.556562 
    0.405658     0.272757     0.541555 
    0.322496     0.372624     0.426652 
    0.684897     0.594394     0.392036 
    0.657859     0.486114     0.337701 
    0.590676     0.324190     0.502838 
    0.672997     0.375930     0.498836 
    0.731986     0.536299     0.516068 
    0.495951     0.402098     0.300721 
    0.703895     0.460606     0.437575 
    0.710707     0.449045     0.563511 
    0.574964     0.645392     0.366332 
    0.707080     0.628695     0.535711 
    0.522645     0.299160     0.584404 
    0.475331     0.719290     0.533538 
    0.548258     0.597671     0.665820 
    0.343101     0.461664     0.635714 
    0.337895     0.613510     0.412505 
    0.281957     0.567634     0.493404 
    0.290725     0.464714     0.524946 
    0.394721     0.557816     0.335668 
    0.309006     0.548480     0.602949 
    0.549214     0.499378     0.690191 
    0.338638     0.378223     0.574554 
    0.482696     0.666548     0.628882 
    0.408246     0.453144     0.335524 
EA31052 19.006 16.839 14.587 90.00 90.00 90.00 Sym.group:    0
1.0
   19.006120     0.000000     0.000000
    0.000000    16.839064     0.000000
    0.000000     0.000000    14.587075
   W   B
  20  25
Direct
    0.543200     0.474626     0.348248 
    0.667326     0.359980     0.490660 
    0.664111     0.542332     0.317342 
    0.629920     0.514258     0.496609 
    0.745939     0.478638     0.562865 
    0.604280     0.655589     0.556484 
    0.566372     0.639399     0.383422 
    0.439603     0.363872     0.365136 
    0.486724     0.298287     0.627469 
    0.545078     0.480779     0.659945 
    0.511842     0.409657     0.509591 
    0.408152     0.426162     0.640579 
    0.395340     0.646333     0.581187 
    0.495032     0.567919     0.511998 
    0.368056     0.484322     0.476002 
    0.236317     0.494028     0.490214 
    0.405154     0.627958     0.397277 
    0.383893     0.315649     0.516927 
    0.280609     0.372592     0.419579 
    0.571589     0.318798     0.372648 
    0.423868     0.496988     0.324112 
    0.724059     0.456323     0.412099 
    0.664744     0.500752     0.674890 
    0.720385     0.608415     0.528648 
    0.687039     0.583089     0.627869 
    0.738588     0.554068     0.432980 
    0.655932     0.411999     0.635485 
    0.653366     0.416110     0.355943 
    0.677462     0.632471     0.430486 
    0.594027     0.345319     0.611266 
    0.572732     0.285431     0.521920 
    0.492065     0.272933     0.472949 
    0.297001     0.395654     0.567048 
    0.486856     0.709383     0.485157 
    0.443437     0.550078     0.676938 
    0.296801     0.481411     0.619678 
    0.294236     0.578765     0.588614 
    0.506471     0.617778     0.659627 
    0.305715     0.621876     0.485716 
    0.500088     0.700350     0.597862 
    0.355658     0.546985     0.663262 
    0.480742     0.718641     0.370971 
    0.351175     0.435597     0.321979 
    0.342124     0.533457     0.319607 
    0.286895     0.574954     0.390710 
EA31377 19.006 16.839 14.587 90.00 90.00 90.00 Sym.group:    0
1.0
   19.006120     0.000000     0.000000
    0.000000    16.839064     0.000000
    0.000000     0.000000    14.587075
   W   B
  20  25
Direct
    0.543200     0.474626     0.348248 
    0.667326     0.359980     0.490660 
    0.664111     0.542332     0.317342 
    0.629920     0.514258     0.496609 
    0.745939     0.478638     0.562865 
    0.604280     0.655589     0.556484 
    0.566372     0.639399     0.383422 
    0.439603     0.363872     0.365136 
    0.486724     0.298287     0.627469 
    0.545078     0.480779     0.659945 
    0.511842     0.409657     0.509591 
    0.408152     0.426162     0.640579 
    0.395340     0.646333     0.581187 
    0.495032     0.567919     0.511998 
    0.368056     0.484322     0.476002 
    0.236317     0.494028     0.490214 
    0.405154     0.627958     0.397277 
    0.383893     0.315649     0.516927 
    0.280609     0.372592     0.419579 
    0.571589     0.318798     0.372648 
    0.423868     0.496988     0.324112 
    0.724059     0.456323     0.412099 
    0.664744     0.500752     0.674890 
    0.720385     0.608415     0.528648 
    0.687039     0.583089     0.627869 
    0.738588     0.554068     0.432980 
    0.655932     0.411999     0.635485 
    0.653366     0.416110     0.355943 
    0.677462     0.632471     0.430486 
    0.594027     0.345319     0.611266 
    0.572732     0.285431     0.521920 
    0.492065     0.272933     0.472949 
    0.297001     0.395654     0.567048 
    0.486856     0.709383     0.485157 
    0.443437     0.550078     0.676938 
    0.296801     0.481411     0.619678 
    0.294236     0.578765     0.588614 
    0.506471     0.617778     0.659627 
    0.305715     0.621876     0.485716 
    0.500088     0.700350     0.597862 
    0.355658     0.546985     0.663262 
    0.480742     0.718641     0.370971 
    0.351175     0.435597     0.321979 
    0.342124     0.533457     0.319607 
    0.286895     0.574954     0.390710 
EA31721 18.918 16.746 14.695 90.00 90.00 90.00 Sym.group:    0
1.0
   18.918101     0.000000     0.000000
    0.000000    16.745773     0.000000
    0.000000     0.000000    14.694540
   W   B
  20  25
Direct
    0.465530     0.524366     0.349965 
    0.334419     0.642652     0.485520 
    0.341258     0.458583     0.311185 
    0.368887     0.486761     0.490831 
    0.251384     0.520491     0.550460 
    0.392548     0.342183     0.549255 
    0.437870     0.361901     0.377806 
    0.564769     0.639432     0.370161 
    0.512489     0.703413     0.630259 
    0.447249     0.510277     0.657649 
    0.486866     0.591916     0.513084 
    0.586956     0.569168     0.641147 
    0.600463     0.351772     0.584611 
    0.502910     0.432131     0.514392 
    0.631672     0.517892     0.476991 
    0.762959     0.503590     0.501891 
    0.596510     0.376210     0.399981 
    0.617819     0.685370     0.523851 
    0.723246     0.628424     0.431200 
    0.432424     0.683879     0.374524 
    0.583261     0.507503     0.323945 
    0.278721     0.544991     0.402045 
    0.325718     0.500258     0.667241 
    0.277695     0.391559     0.516830 
    0.310019     0.416409     0.617557 
    0.262413     0.446505     0.420805 
    0.340373     0.588445     0.629018 
    0.354487     0.583608     0.353815 
    0.324202     0.367964     0.421322 
    0.403429     0.656277     0.609510 
    0.427912     0.717201     0.522789 
    0.510214     0.729428     0.478027 
    0.700962     0.602023     0.575850 
    0.514099     0.290644     0.482354 
    0.551239     0.445145     0.680835 
    0.698133     0.514944     0.626763 
    0.702742     0.417124     0.598359 
    0.487859     0.377029     0.658740 
    0.692556     0.379341     0.492969 
    0.495677     0.296284     0.593827 
    0.640037     0.448922     0.672220 
    0.523798     0.282883     0.369454 
    0.655170     0.569827     0.326878 
    0.665496     0.470796     0.325292 
    0.715562     0.424477     0.398793 
EA32056 18.918 16.746 14.695 90.00 90.00 90.00 Sym.group:    0
1.0
   18.918101     0.000000     0.000000
    0.000000    16.745773     0.000000
    0.000000     0.000000    14.694540
   W   B
  20  25
Direct
    0.465530     0.524366     0.349965 
    0.334419     0.642652     0.485520 
    0.341258     0.458583     0.311185 
    0.368887     0.486761     0.490831 
    0.251384     0.520491     0.550460 
    0.392548     0.342183     0.549255 
    0.437870     0.361901     0.377806 
    0.564769     0.639432     0.370161 
    0.512489     0.703413     0.630259 
    0.447249     0.510277     0.657649 
    0.486866     0.591916     0.513084 
    0.586956     0.569168     0.641147 
    0.600463     0.351772     0.584611 
    0.502910     0.432131     0.514392 
    0.631672     0.517892     0.476991 
    0.762959     0.503590     0.501891 
    0.596510     0.376210     0.399981 
    0.617819     0.685370     0.523851 
    0.723246     0.628424     0.431200 
    0.432424     0.683879     0.374524 
    0.583261     0.507503     0.323945 
    0.278721     0.544991     0.402045 
    0.325718     0.500258     0.667241 
    0.277695     0.391559     0.516830 
    0.310019     0.416409     0.617557 
    0.262413     0.446505     0.420805 
    0.340373     0.588445     0.629018 
    0.354487     0.583608     0.353815 
    0.324202     0.367964     0.421322 
    0.403429     0.656277     0.609510 
    0.427912     0.717201     0.522789 
    0.510214     0.729428     0.478027 
    0.700962     0.602023     0.575850 
    0.514099     0.290644     0.482354 
    0.551239     0.445145     0.680835 
    0.698133     0.514944     0.626763 
    0.702742     0.417124     0.598359 
    0.487859     0.377029     0.658740 
    0.692556     0.379341     0.492969 
    0.495677     0.296284     0.593827 
    0.640037     0.448922     0.672220 
    0.523798     0.282883     0.369454 
    0.655170     0.569827     0.326878 
    0.665496     0.470796     0.325292 
    0.715562     0.424477     0.398793 
EA32525 16.528 16.400 16.206 90.00 90.00 90.00 Sym.group:    0
1.0
   16.527556     0.000000     0.000000
    0.000000    16.400271     0.000000
    0.000000     0.000000    16.205923
   W   B
  18  24
Direct
    0.562350     0.420600     0.508880 
    0.555780     0.582890     0.456304 
    0.597715     0.717042     0.372736 
    0.619799     0.466892     0.356435 
    0.551722     0.386799     0.666779 
    0.664167     0.306198     0.554787 
    0.461921     0.665839     0.348111 
    0.633122     0.531566     0.609740 
    0.506640     0.648910     0.619616 
    0.269486     0.517051     0.480142 
    0.388779     0.634871     0.504377 
    0.314510     0.444454     0.612101 
    0.427649     0.326318     0.533881 
    0.412940     0.474733     0.462741 
    0.693680     0.601318     0.367853 
    0.439712     0.601487     0.745745 
    0.466851     0.513141     0.317666 
    0.496951     0.354086     0.376525 
    0.695168     0.397185     0.455980 
    0.687951     0.606270     0.502345 
    0.541564     0.281285     0.583790 
    0.379523     0.405794     0.333048 
    0.328085     0.494870     0.343673 
    0.304199     0.378552     0.492389 
    0.626131     0.330465     0.419140 
    0.294543     0.413216     0.394913 
    0.676591     0.405875     0.645918 
    0.574606     0.594542     0.309976 
    0.352097     0.583926     0.384020 
    0.639126     0.659731     0.574756 
    0.505794     0.517418     0.665666 
    0.495903     0.711380     0.475397 
    0.590790     0.716776     0.508877 
    0.300446     0.578017     0.595782 
    0.335672     0.552968     0.691418 
    0.373597     0.636851     0.641524 
    0.682134     0.504067     0.479480 
    0.479074     0.537562     0.560408 
    0.552861     0.281969     0.479527 
    0.707388     0.430597     0.552366 
    0.366858     0.340987     0.414035 
    0.446123     0.445504     0.601154 
EA32846 16.776 16.612 15.818 90.00 90.00 90.00 Sym.group:    0
1.0
   16.775869     0.000000     0.000000
    0.000000    16.612330     0.000000
    0.000000     0.000000    15.817979
   W   B
  20  22
Direct
    0.463842     0.574785     0.449783 
    0.422928     0.708607     0.368025 
    0.371185     0.466282     0.359579 
    0.436462     0.424564     0.684349 
    0.287688     0.361362     0.574640 
    0.554760     0.638255     0.327960 
    0.391127     0.570743     0.607868 
    0.535934     0.661892     0.599305 
    0.736178     0.500445     0.432627 
    0.624670     0.606708     0.472214 
    0.732101     0.430744     0.565301 
    0.520969     0.312839     0.566732 
    0.577859     0.449781     0.473521 
    0.611279     0.596784     0.720437 
    0.522753     0.477872     0.318130 
    0.467470     0.337429     0.401759 
    0.313888     0.324875     0.416930 
    0.329295     0.675920     0.488752 
    0.413418     0.426972     0.520446 
    0.587895     0.434304     0.640667 
    0.282221     0.444689     0.463934 
    0.399138     0.313148     0.618980 
    0.591789     0.361463     0.356109 
    0.653564     0.438868     0.346945 
    0.648156     0.337172     0.534026 
    0.680325     0.372167     0.429834 
    0.318044     0.471304     0.652323 
    0.429810     0.584647     0.305794 
    0.640618     0.540107     0.341396 
    0.408436     0.698065     0.592183 
    0.504657     0.542591     0.679671 
    0.532533     0.706505     0.449695 
    0.450058     0.730022     0.504591 
    0.730982     0.563460     0.550639 
    0.695557     0.528342     0.648209 
    0.666819     0.622519     0.606922 
    0.323844     0.543480     0.466274 
    0.519579     0.528461     0.570019 
    0.394490     0.287464     0.515507 
    0.285878     0.496453     0.557083 
    0.594411     0.308735     0.448083 
    0.347394     0.599170     0.372759 
EA33335 18.148 16.083 15.502 90.00 90.00 90.00 Sym.group:    0
1.0
   18.147847     0.000000     0.000000
    0.000000    16.083190     0.000000
    0.000000     0.000000    15.501771
   W   B
  17  23
Direct
    0.562575     0.587748     0.646825 
    0.448415     0.608567     0.375502 
    0.535002     0.517817     0.491234 
    0.603121     0.644611     0.391039 
    0.664282     0.605908     0.534073 
    0.655312     0.480602     0.392186 
    0.451776     0.655055     0.551543 
    0.349029     0.461255     0.656653 
    0.389533     0.490280     0.509300 
    0.296018     0.569004     0.424791 
    0.368147     0.328680     0.441011 
    0.499839     0.427032     0.652042 
    0.495558     0.348451     0.492394 
    0.462802     0.439101     0.351015 
    0.633934     0.422602     0.574975 
    0.569608     0.729703     0.554206 
    0.586550     0.323859     0.369045 
    0.365814     0.675531     0.450608 
    0.606172     0.474105     0.700488 
    0.677294     0.526813     0.655788 
    0.391356     0.355804     0.580512 
    0.510943     0.717269     0.439399 
    0.550897     0.535851     0.334388 
    0.736123     0.500289     0.572586 
    0.733521     0.430028     0.490064 
    0.714956     0.602272     0.404046 
    0.752564     0.529850     0.466472 
    0.281774     0.565062     0.581157 
    0.326933     0.646746     0.540795 
    0.369006     0.524491     0.322512 
    0.280806     0.423993     0.451174 
    0.336721     0.439335     0.365791 
    0.261115     0.473676     0.544792 
    0.360273     0.595891     0.630952 
    0.304158     0.381129     0.549744 
    0.609695     0.301308     0.506880 
    0.677417     0.353852     0.452004 
    0.573918     0.435802     0.299282 
    0.564029     0.318122     0.599673 
    0.443014     0.552506     0.653057 
EA33496 17.314 17.544 15.102 90.00 90.00 90.00 Sym.group:    0
1.0
   17.314410     0.000000     0.000000
    0.000000    17.543827     0.000000
    0.000000     0.000000    15.101727
   W   B
  18  25
Direct
    0.410919     0.350320     0.575421 
    0.503294     0.441399     0.670585 
    0.590736     0.462933     0.525548 
    0.723736     0.489407     0.591501 
    0.541225     0.579049     0.634669 
    0.670225     0.611331     0.513902 
    0.659412     0.420963     0.348713 
    0.617448     0.320502     0.456900 
    0.505733     0.261172     0.362132 
    0.402947     0.502370     0.523968 
    0.392742     0.599305     0.363091 
    0.422276     0.652114     0.576854 
    0.476664     0.722465     0.435585 
    0.516551     0.573933     0.447902 
    0.289961     0.606985     0.508668 
    0.478555     0.392970     0.405648 
    0.325763     0.378313     0.441965 
    0.638154     0.566719     0.350893 
    0.422633     0.544024     0.677609 
    0.368422     0.455141     0.659099 
    0.676288     0.365755     0.576058 
    0.639077     0.411894     0.663316 
    0.629151     0.501242     0.689895 
    0.667801     0.590685     0.662672 
    0.623238     0.669500     0.626358 
    0.540500     0.352075     0.567544 
    0.714305     0.406873     0.482393 
    0.714667     0.500544     0.443640 
    0.498271     0.283400     0.504491 
    0.302857     0.512485     0.409585 
    0.280762     0.506022     0.604517 
    0.264510     0.476739     0.502962 
    0.361629     0.695334     0.455385 
    0.335324     0.575388     0.643592 
    0.557912     0.683869     0.543425 
    0.594055     0.675537     0.413614 
    0.527222     0.654884     0.327481 
    0.514316     0.567600     0.289459 
    0.373883     0.468285     0.356820 
    0.551470     0.479797     0.320032 
    0.414134     0.279224     0.450885 
    0.304675     0.415114     0.579874 
    0.456562     0.496336     0.315349 
EA33847 16.856 16.592 15.799 90.00 90.00 90.00 Sym.group:    0
1.0
   16.855515     0.000000     0.000000
    0.000000    16.591925     0.000000
    0.000000     0.000000    15.798824
   W   B
  20  22
Direct
    0.471167     0.578552     0.457675 
    0.421941     0.713527     0.377489 
    0.370415     0.472941     0.355348 
    0.276553     0.357908     0.562495 
    0.553083     0.646315     0.329934 
    0.397200     0.566996     0.611491 
    0.541741     0.667941     0.592887 
    0.734514     0.501243     0.428553 
    0.629961     0.612030     0.467473 
    0.731739     0.428693     0.560565 
    0.513715     0.312855     0.557518 
    0.575544     0.453398     0.476282 
    0.586072     0.570813     0.706108 
    0.521991     0.489550     0.318712 
    0.464756     0.345596     0.393608 
    0.304824     0.332327     0.410594 
    0.332386     0.677658     0.499210 
    0.411336     0.434380     0.509779 
    0.598168     0.430309     0.640850 
    0.348698     0.442854     0.680335 
    0.280628     0.450041     0.461393 
    0.395780     0.334842     0.616562 
    0.587308     0.368318     0.351268 
    0.650023     0.444364     0.343360 
    0.643051     0.335513     0.530636 
    0.677046     0.375495     0.427146 
    0.428523     0.592938     0.312476 
    0.641779     0.547040     0.336712 
    0.412444     0.696992     0.602938 
    0.483093     0.488565     0.690274 
    0.532859     0.712219     0.455808 
    0.448811     0.732880     0.512838 
    0.732425     0.562914     0.550191 
    0.697438     0.528492     0.645742 
    0.665925     0.620130     0.606926 
    0.326946     0.544401     0.474488 
    0.523488     0.531903     0.586918 
    0.388493     0.298067     0.509232 
    0.290470     0.490378     0.562422 
    0.588213     0.314923     0.441881 
    0.349655     0.602823     0.383577 
    0.469802     0.390874     0.660302 
EA34121 17.386 17.404 15.718 90.00 90.00 90.00 Sym.group:    0
1.0
   17.386227     0.000000     0.000000
    0.000000    17.403885     0.000000
    0.000000     0.000000    15.717625
   W   B
  20  24
Direct
    0.582081     0.697001     0.406544 
    0.494360     0.590423     0.354720 
    0.405646     0.551929     0.481141 
    0.259587     0.536498     0.448912 
    0.421989     0.437232     0.353430 
    0.318964     0.390246     0.459382 
    0.398799     0.500126     0.657631 
    0.419575     0.652026     0.596725 
    0.561208     0.668643     0.669724 
    0.504919     0.291072     0.597631 
    0.438091     0.288214     0.432156 
    0.463348     0.419628     0.524407 
    0.548304     0.520898     0.632706 
    0.663492     0.578081     0.349201 
    0.600423     0.510006     0.475389 
    0.677989     0.593467     0.604612 
    0.697760     0.379982     0.496215 
    0.563645     0.475312     0.298281 
    0.570124     0.358845     0.421585 
    0.354573     0.562079     0.301874 
    0.377372     0.689780     0.461722 
    0.306231     0.643471     0.510392 
    0.316169     0.637470     0.401711 
    0.296665     0.463205     0.348425 
    0.469872     0.679124     0.466769 
    0.309048     0.571402     0.583699 
    0.296036     0.476713     0.563777 
    0.337683     0.396131     0.597346 
    0.526803     0.707663     0.545864 
    0.467966     0.593947     0.707005 
    0.547211     0.246424     0.479930 
    0.588445     0.388802     0.601694 
    0.616322     0.293152     0.539192 
    0.382144     0.315032     0.560391 
    0.501053     0.404762     0.665291 
    0.412433     0.366487     0.653257 
    0.492295     0.344878     0.316544 
    0.666645     0.436512     0.372609 
    0.670869     0.641887     0.477628 
    0.619672     0.690400     0.548848 
    0.731988     0.492651     0.536088 
    0.658595     0.460478     0.598166 
    0.731000     0.570812     0.474837 
    0.732602     0.487106     0.426551 
EA34762 17.178 15.831 14.134 90.00 90.00 90.00 Sym.group:    0
1.0
   17.178044     0.000000     0.000000
    0.000000    15.831339     0.000000
    0.000000     0.000000    14.134328
   W   B
  16  21
Direct
    0.488901     0.462199     0.344545 
    0.491642     0.620791     0.349970 
    0.718149     0.557170     0.407841 
    0.586921     0.543816     0.487744 
    0.710739     0.434453     0.657702 
    0.626756     0.398152     0.385978 
    0.640498     0.346259     0.552888 
    0.382722     0.651537     0.609870 
    0.420878     0.510669     0.509054 
    0.277061     0.523494     0.452154 
    0.361618     0.663200     0.435165 
    0.243409     0.669472     0.524068 
    0.410838     0.397915     0.644919 
    0.337871     0.354806     0.491510 
    0.560242     0.464786     0.647365 
    0.615206     0.527548     0.283572 
    0.411182     0.350976     0.363460 
    0.438676     0.280716     0.439819 
    0.530844     0.296396     0.485287 
    0.511071     0.327855     0.372184 
    0.488247     0.660720     0.510991 
    0.722476     0.440742     0.499851 
    0.661084     0.675501     0.467763 
    0.566502     0.690457     0.448125 
    0.660446     0.557705     0.634951 
    0.697682     0.623603     0.553261 
    0.621744     0.649846     0.362475 
    0.741136     0.531322     0.562866 
    0.352339     0.523815     0.666677 
    0.301896     0.457509     0.589561 
    0.376499     0.543120     0.349304 
    0.356153     0.439615     0.365220 
    0.280805     0.565317     0.602669 
    0.447406     0.535478     0.676849 
    0.437642     0.290444     0.555071 
    0.518805     0.336064     0.600145 
    0.503913     0.596535     0.609129 
EA35105 17.790 15.727 14.799 90.00 90.00 90.00 Sym.group:    0
1.0
   17.789975     0.000000     0.000000
    0.000000    15.726751     0.000000
    0.000000     0.000000    14.798710
   W   B
  16  21
Direct
    0.510950     0.553346     0.373822 
    0.507658     0.383561     0.354972 
    0.723694     0.444341     0.416752 
    0.587197     0.450210     0.497415 
    0.688236     0.583639     0.644896 
    0.590597     0.636294     0.502123 
    0.396226     0.340615     0.601411 
    0.425789     0.484777     0.508930 
    0.293464     0.460501     0.439057 
    0.381274     0.326337     0.435376 
    0.264084     0.311675     0.511508 
    0.397535     0.601283     0.635301 
    0.333548     0.633395     0.478747 
    0.543052     0.550238     0.635864 
    0.616848     0.474612     0.294905 
    0.650137     0.444013     0.670879 
    0.413693     0.650432     0.365962 
    0.417482     0.727179     0.442088 
    0.501156     0.733878     0.499864 
    0.499912     0.687986     0.400337 
    0.501255     0.341454     0.514683 
    0.702282     0.564085     0.499264 
    0.667233     0.330910     0.473369 
    0.578192     0.309613     0.447309 
    0.705945     0.391187     0.551538 
    0.632227     0.359701     0.372104 
    0.738400     0.487753     0.569735 
    0.353090     0.469699     0.650897 
    0.302864     0.528456     0.572602 
    0.398225     0.451404     0.353239 
    0.371711     0.552871     0.364884 
    0.291965     0.418913     0.584492 
    0.445024     0.464566     0.668654 
    0.413773     0.712187     0.552726 
    0.497923     0.678500     0.597025 
    0.509337     0.407162     0.610244 
    0.648023     0.553226     0.407024 
EA35446 16.956 16.368 14.809 90.00 90.00 90.00 Sym.group:    0
1.0
   16.955555     0.000000     0.000000
    0.000000    16.368464     0.000000
    0.000000     0.000000    14.809314
   W   B
  16  21
Direct
    0.491221     0.550488     0.369059 
    0.465288     0.383992     0.360619 
    0.260383     0.479928     0.425530 
    0.400000     0.469132     0.500340 
    0.326973     0.619359     0.642526 
    0.427116     0.646069     0.499979 
    0.589670     0.334680     0.596122 
    0.573170     0.476868     0.507033 
    0.701880     0.428318     0.428061 
    0.592740     0.318701     0.428446 
    0.713928     0.281094     0.498344 
    0.627239     0.579555     0.629716 
    0.692197     0.600415     0.472229 
    0.469062     0.556777     0.636081 
    0.364375     0.478657     0.303131 
    0.341243     0.481540     0.678763 
    0.604009     0.627074     0.367296 
    0.615862     0.702505     0.438753 
    0.532809     0.724845     0.499715 
    0.522866     0.677932     0.401784 
    0.474210     0.348035     0.524413 
    0.304361     0.596437     0.492966 
    0.299984     0.364109     0.493904 
    0.391002     0.327936     0.467181 
    0.273100     0.431768     0.566749 
    0.334841     0.371647     0.388088 
    0.261110     0.532498     0.570535 
    0.655273     0.447222     0.642140 
    0.712866     0.493559     0.561087 
    0.586488     0.439263     0.349487 
    0.630694     0.529297     0.362194 
    0.709965     0.387810     0.572949 
    0.560225     0.459814     0.666713 
    0.623677     0.690679     0.549529 
    0.532252     0.670254     0.596189 
    0.481451     0.416458     0.612778 
    0.356467     0.575284     0.399569 
EA35763 17.550 16.306 15.428 90.00 90.00 90.00 Sym.group:    0
1.0
   17.549748     0.000000     0.000000
    0.000000    16.306203     0.000000
    0.000000     0.000000    15.427741
   W   B
  17  21
Direct
    0.433937     0.443906     0.509649 
    0.441541     0.438936     0.677582 
    0.321706     0.355040     0.459398 
    0.439436     0.271824     0.483110 
    0.576037     0.416286     0.601336 
    0.465076     0.477675     0.326862 
    0.549846     0.368171     0.413443 
    0.278641     0.509832     0.499776 
    0.551809     0.536885     0.475837 
    0.362992     0.562886     0.619070 
    0.405528     0.598902     0.444528 
    0.761378     0.474263     0.402812 
    0.658251     0.540850     0.613912 
    0.680946     0.602322     0.450436 
    0.537862     0.633854     0.337530 
    0.631255     0.492130     0.343330 
    0.391781     0.716440     0.535610 
    0.383489     0.335218     0.594547 
    0.360374     0.401109     0.332856 
    0.328566     0.423193     0.598187 
    0.639910     0.338057     0.508577 
    0.479628     0.325013     0.604235 
    0.554922     0.295577     0.537993 
    0.676859     0.385191     0.418365 
    0.432319     0.343753     0.366850 
    0.347145     0.486821     0.385830 
    0.548441     0.515332     0.690228 
    0.468957     0.571704     0.694785 
    0.748729     0.512228     0.528246 
    0.456393     0.655661     0.634164 
    0.507521     0.668563     0.536413 
    0.299238     0.635991     0.527319 
    0.691211     0.427801     0.530346 
    0.580410     0.685612     0.464119 
    0.432548     0.691581     0.347075 
    0.420779     0.599057     0.303143 
    0.605949     0.648061     0.560140 
    0.548593     0.614269     0.642361 
EA36128 16.935 16.560 14.829 90.00 90.00 90.00 Sym.group:    0
1.0
   16.935328     0.000000     0.000000
    0.000000    16.559659     0.000000
    0.000000     0.000000    14.828966
   W   B
  16  21
Direct
    0.488436     0.549414     0.368303 
    0.456732     0.387390     0.364217 
    0.258736     0.489024     0.433367 
    0.398981     0.475478     0.508132 
    0.335100     0.630656     0.644149 
    0.433050     0.646970     0.503304 
    0.586459     0.331632     0.595502 
    0.571132     0.472783     0.503906 
    0.697062     0.420348     0.419873 
    0.584285     0.316014     0.429099 
    0.707569     0.275022     0.490370 
    0.634383     0.571347     0.623412 
    0.694453     0.589457     0.461436 
    0.475426     0.556362     0.640074 
    0.358691     0.482560     0.305685 
    0.342742     0.495281     0.685952 
    0.603354     0.621326     0.361324 
    0.621232     0.694427     0.433313 
    0.541347     0.719597     0.498607 
    0.525625     0.674931     0.400408 
    0.469921     0.352272     0.528594 
    0.307347     0.603776     0.497247 
    0.294936     0.375155     0.503078 
    0.384230     0.336562     0.474169 
    0.271566     0.443726     0.575834 
    0.327416     0.380188     0.396116 
    0.263406     0.543992     0.576596 
    0.658445     0.440842     0.635154 
    0.714156     0.484723     0.551622 
    0.579492     0.435300     0.346970 
    0.626222     0.523248     0.356237 
    0.708743     0.380250     0.564431 
    0.565150     0.457340     0.665277 
    0.632278     0.680870     0.543209 
    0.541664     0.664961     0.594646 
    0.482785     0.418154     0.616294 
    0.357447     0.578621     0.404093 
EA36458 16.935 16.560 14.829 90.00 90.00 90.00 Sym.group:    0
1.0
   16.935328     0.000000     0.000000
    0.000000    16.559659     0.000000
    0.000000     0.000000    14.828966
   W   B
  16  21
Direct
    0.488436     0.549414     0.368303 
    0.456732     0.387390     0.364217 
    0.258736     0.489024     0.433367 
    0.398981     0.475478     0.508132 
    0.335100     0.630656     0.644149 
    0.433050     0.646970     0.503304 
    0.586459     0.331632     0.595502 
    0.571132     0.472783     0.503906 
    0.697062     0.420348     0.419873 
    0.584285     0.316014     0.429099 
    0.707569     0.275022     0.490370 
    0.634383     0.571347     0.623412 
    0.694453     0.589457     0.461436 
    0.475426     0.556362     0.640074 
    0.358691     0.482560     0.305685 
    0.342742     0.495281     0.685952 
    0.603354     0.621326     0.361324 
    0.621232     0.694427     0.433313 
    0.541347     0.719597     0.498607 
    0.525625     0.674931     0.400408 
    0.469921     0.352272     0.528594 
    0.307347     0.603776     0.497247 
    0.294936     0.375155     0.503078 
    0.384230     0.336562     0.474169 
    0.271566     0.443726     0.575834 
    0.327416     0.380188     0.396116 
    0.263406     0.543992     0.576596 
    0.658445     0.440842     0.635154 
    0.714156     0.484723     0.551622 
    0.579492     0.435300     0.346970 
    0.626222     0.523248     0.356237 
    0.708743     0.380250     0.564431 
    0.565150     0.457340     0.665277 
    0.632278     0.680870     0.543209 
    0.541664     0.664961     0.594646 
    0.482785     0.418154     0.616294 
    0.357447     0.578621     0.404093 
EA36662 17.696 16.944 15.173 90.00 90.00 90.00 Sym.group:    0
1.0
   17.695604     0.000000     0.000000
    0.000000    16.944148     0.000000
    0.000000     0.000000    15.173173
   W   B
  20  21
Direct
    0.590477     0.432841     0.661346 
    0.455216     0.430974     0.727710 
    0.354726     0.494223     0.625856 
    0.268637     0.495984     0.489400 
    0.460892     0.402091     0.531166 
    0.374942     0.277282     0.506747 
    0.452203     0.461308     0.357229 
    0.579766     0.317719     0.543264 
    0.561370     0.356507     0.374927 
    0.325679     0.378002     0.405461 
    0.741713     0.557658     0.422778 
    0.543055     0.661379     0.503659 
    0.525342     0.595626     0.343340 
    0.591813     0.495426     0.480230 
    0.713582     0.524232     0.591514 
    0.422248     0.561137     0.477749 
    0.504627     0.560466     0.636815 
    0.421715     0.702737     0.400238 
    0.376840     0.334779     0.670325 
    0.296120     0.625032     0.409811 
    0.675221     0.401841     0.560974 
    0.321190     0.388824     0.549886 
    0.335624     0.510107     0.364718 
    0.438763     0.331614     0.387909 
    0.579467     0.476290     0.321879 
    0.663018     0.370157     0.452263 
    0.503095     0.331968     0.658086 
    0.667445     0.444574     0.369937 
    0.666702     0.621244     0.513739 
    0.439545     0.729116     0.536389 
    0.625656     0.548690     0.690656 
    0.633879     0.623261     0.410561 
    0.718571     0.446183     0.472755 
    0.621075     0.610428     0.608176 
    0.396846     0.583758     0.329344 
    0.645585     0.546102     0.340340 
    0.469363     0.680164     0.623642 
    0.353430     0.684653     0.519774 
    0.307332     0.605617     0.558740 
    0.387770     0.624333     0.615312 
    0.489463     0.275673     0.455357 
EA37041 17.021 18.073 14.881 90.00 90.00 90.00 Sym.group:    0
1.0
   17.021029     0.000000     0.000000
    0.000000    18.072645     0.000000
    0.000000     0.000000    14.880545
   W   B
  18  22
Direct
    0.518556     0.609020     0.590380 
    0.492315     0.465070     0.651798 
    0.588330     0.723815     0.572076 
    0.403565     0.509494     0.509169 
    0.280609     0.576083     0.578670 
    0.390148     0.677028     0.562706 
    0.288131     0.428492     0.456899 
    0.362437     0.371561     0.622617 
    0.473810     0.364352     0.502904 
    0.708821     0.379339     0.596130 
    0.571725     0.494114     0.474288 
    0.671379     0.604464     0.561203 
    0.697053     0.408495     0.430244 
    0.353906     0.535040     0.328727 
    0.485118     0.599599     0.397476 
    0.463742     0.437200     0.350397 
    0.613158     0.302382     0.520094 
    0.547327     0.529419     0.272006 
    0.623991     0.445062     0.673076 
    0.602866     0.534772     0.652149 
    0.485473     0.341586     0.647529 
    0.347620     0.622787     0.440101 
    0.355884     0.489815     0.658687 
    0.278857     0.551758     0.438616 
    0.408873     0.697295     0.422011 
    0.498703     0.710094     0.468679 
    0.398290     0.574049     0.648812 
    0.276181     0.459512     0.601489 
    0.347283     0.322481     0.495358 
    0.373551     0.351740     0.393903 
    0.696237     0.500401     0.641584 
    0.578502     0.371088     0.632200 
    0.725928     0.490453     0.534454 
    0.698460     0.535687     0.441321 
    0.604059     0.434254     0.325808 
    0.575253     0.372937     0.406545 
    0.661656     0.508517     0.343039 
    0.586829     0.662057     0.452464 
    0.625564     0.591193     0.381600 
    0.339813     0.417492     0.322790 
EA37396 16.946 16.568 15.155 90.00 90.00 90.00 Sym.group:    0
1.0
   16.946480     0.000000     0.000000
    0.000000    16.568111     0.000000
    0.000000     0.000000    15.155263
   W   B
  18  22
Direct
    0.512042     0.613578     0.613541 
    0.502823     0.445269     0.644820 
    0.579381     0.743348     0.611091 
    0.413887     0.499412     0.511560 
    0.281270     0.545802     0.593927 
    0.373475     0.667830     0.605716 
    0.292967     0.413891     0.456750 
    0.378788     0.329160     0.601641 
    0.476514     0.353392     0.474489 
    0.714893     0.381684     0.555342 
    0.587371     0.487568     0.482841 
    0.662418     0.627335     0.557762 
    0.701623     0.427692     0.398768 
    0.348372     0.546916     0.342379 
    0.474647     0.617677     0.424111 
    0.461721     0.449772     0.340023 
    0.614660     0.297301     0.488851 
    0.531755     0.570742     0.281833 
    0.636612     0.436694     0.653153 
    0.605598     0.532552     0.642357 
    0.510296     0.311329     0.610133 
    0.334340     0.626120     0.473155 
    0.364564     0.454089     0.654697 
    0.275081     0.546278     0.455086 
    0.389335     0.709857     0.476330 
    0.479598     0.725550     0.518378 
    0.401689     0.547743     0.660796 
    0.285423     0.415525     0.604218 
    0.357632     0.298770     0.467991 
    0.376713     0.341898     0.372053 
    0.698550     0.505206     0.611109 
    0.600072     0.348229     0.622547 
    0.736848     0.509156     0.508925 
    0.700792     0.563441     0.427144 
    0.594037     0.462236     0.318999 
    0.580494     0.377347     0.377264 
    0.648572     0.545246     0.336709 
    0.569044     0.691009     0.484896 
    0.609543     0.613736     0.418819 
    0.336561     0.419623     0.319793 
EA37557 18.199 16.429 15.150 90.00 90.00 90.00 Sym.group:    0
1.0
   18.198998     0.000000     0.000000
    0.000000    16.428835     0.000000
    0.000000     0.000000    15.150143
   W   B
  18  25
Direct
    0.530593     0.420202     0.520605 
    0.509784     0.302911     0.404639 
    0.630217     0.365988     0.613241 
    0.653042     0.300195     0.451510 
    0.603030     0.375817     0.320067 
    0.486501     0.469108     0.358053 
    0.633642     0.524072     0.387036 
    0.662020     0.525037     0.559926 
    0.255917     0.506526     0.395514 
    0.389418     0.514988     0.502170 
    0.460812     0.524555     0.657799 
    0.398092     0.384070     0.602177 
    0.299081     0.374626     0.461015 
    0.315807     0.604344     0.634487 
    0.521622     0.585028     0.499578 
    0.528343     0.624811     0.339855 
    0.611363     0.693591     0.569318 
    0.261428     0.473257     0.578112 
    0.405704     0.366134     0.394201 
    0.396832     0.298445     0.477839 
    0.518567     0.407865     0.676935 
    0.710188     0.402452     0.513002 
    0.581275     0.481950     0.662927 
    0.559528     0.275685     0.542220 
    0.467077     0.281913     0.543876 
    0.513401     0.316666     0.630550 
    0.619383     0.661177     0.425664 
    0.703598     0.404241     0.397548 
    0.747003     0.574851     0.456567 
    0.697254     0.645276     0.489170 
    0.741647     0.480233     0.450075 
    0.377662     0.548080     0.345992 
    0.322379     0.609720     0.409915 
    0.360115     0.448300     0.361143 
    0.347040     0.487033     0.676555 
    0.274545     0.589159     0.504065 
    0.506982     0.653324     0.636349 
    0.577131     0.585849     0.646685 
    0.546586     0.720456     0.450072 
    0.405740     0.637795     0.386911 
    0.459125     0.701585     0.436568 
    0.487807     0.712898     0.544542 
    0.422717     0.639784     0.585524 
EA37901 18.114 16.634 14.610 90.00 90.00 90.00 Sym.group:    0
1.0
   18.113877     0.000000     0.000000
    0.000000    16.634040     0.000000
    0.000000     0.000000    14.609617
   W   B
  18  25
Direct
    0.461216     0.575370     0.518120 
    0.471583     0.689138     0.391643 
    0.359863     0.624117     0.616210 
    0.329834     0.678151     0.446453 
    0.383180     0.602193     0.312522 
    0.506620     0.526837     0.352096 
    0.364209     0.452773     0.391333 
    0.340371     0.461329     0.568344 
    0.742952     0.517951     0.386018 
    0.612804     0.496563     0.497481 
    0.543070     0.484013     0.659630 
    0.593083     0.626528     0.598669 
    0.689081     0.643388     0.453491 
    0.693036     0.419928     0.638815 
    0.485975     0.413153     0.502550 
    0.484616     0.370686     0.337351 
    0.406819     0.301668     0.578575 
    0.736761     0.552795     0.577074 
    0.580905     0.636660     0.387084 
    0.586480     0.711205     0.465315 
    0.477245     0.594201     0.678733 
    0.279960     0.577292     0.518701 
    0.420004     0.515094     0.670309 
    0.422711     0.715670     0.535985 
    0.515442     0.718550     0.534277 
    0.474122     0.682549     0.626927 
    0.396612     0.322628     0.426055 
    0.286371     0.568577     0.399516 
    0.255640     0.401932     0.467136 
    0.320690     0.343197     0.486879 
    0.251721     0.494964     0.460558 
    0.623658     0.460820     0.337907 
    0.687673     0.409357     0.404568 
    0.632987     0.561270     0.350839 
    0.652992     0.533570     0.681741 
    0.730970     0.437416     0.502459 
    0.507486     0.351967     0.646823 
    0.431664     0.412237     0.657169 
    0.474301     0.275639     0.456297 
    0.605207     0.372398     0.389798 
    0.559625     0.302720     0.440780 
    0.530380     0.292264     0.554559 
    0.590082     0.371242     0.593207 
EA38483 16.640 15.754 14.640 90.00 90.00 90.00 Sym.group:    0
1.0
   16.639962     0.000000     0.000000
    0.000000    15.753712     0.000000
    0.000000     0.000000    14.639514
   W   B
  16  22
Direct
    0.567446     0.623240     0.493900 
    0.447847     0.391990     0.361166 
    0.558337     0.441490     0.488182 
    0.676689     0.508102     0.381318 
    0.700286     0.407410     0.546718 
    0.408396     0.519214     0.492821 
    0.424197     0.688935     0.494076 
    0.630057     0.651573     0.325711 
    0.439359     0.476596     0.673059 
    0.483722     0.284010     0.504490 
    0.292651     0.585756     0.408031 
    0.344547     0.338853     0.467440 
    0.697690     0.661548     0.595402 
    0.600461     0.443441     0.674715 
    0.525631     0.541814     0.328637 
    0.598679     0.609668     0.690838 
    0.593552     0.325576     0.589467 
    0.621690     0.304077     0.481672 
    0.562380     0.318652     0.388480 
    0.699662     0.632745     0.447492 
    0.712227     0.545685     0.517365 
    0.659427     0.368570     0.400318 
    0.584278     0.411029     0.331981 
    0.397536     0.619380     0.625853 
    0.491809     0.660097     0.619522 
    0.317131     0.624152     0.553380 
    0.404435     0.360733     0.596136 
    0.327109     0.436171     0.582276 
    0.530971     0.532012     0.596191 
    0.501725     0.676725     0.371712 
    0.502009     0.353718     0.632561 
    0.411126     0.623364     0.355405 
    0.328288     0.539245     0.635228 
    0.390537     0.520881     0.322751 
    0.271595     0.454371     0.472738 
    0.267326     0.532744     0.546184 
    0.323191     0.455247     0.371951 
    0.706004     0.531188     0.634830 
EA38810 16.640 15.754 14.640 90.00 90.00 90.00 Sym.group:    0
1.0
   16.639962     0.000000     0.000000
    0.000000    15.753712     0.000000
    0.000000     0.000000    14.639514
   W   B
  16  22
Direct
    0.567446     0.623240     0.493900 
    0.447847     0.391990     0.361166 
    0.558337     0.441490     0.488182 
    0.676689     0.508102     0.381318 
    0.700286     0.407410     0.546718 
    0.408396     0.519214     0.492821 
    0.424197     0.688935     0.494076 
    0.630057     0.651573     0.325711 
    0.439359     0.476596     0.673059 
    0.483722     0.284010     0.504490 
    0.292651     0.585756     0.408031 
    0.344547     0.338853     0.467440 
    0.697690     0.661548     0.595402 
    0.600461     0.443441     0.674715 
    0.525631     0.541814     0.328637 
    0.598679     0.609668     0.690838 
    0.593552     0.325576     0.589467 
    0.621690     0.304077     0.481672 
    0.562380     0.318652     0.388480 
    0.699662     0.632745     0.447492 
    0.712227     0.545685     0.517365 
    0.659427     0.368570     0.400318 
    0.584278     0.411029     0.331981 
    0.397536     0.619380     0.625853 
    0.491809     0.660097     0.619522 
    0.317131     0.624152     0.553380 
    0.404435     0.360733     0.596136 
    0.327109     0.436171     0.582276 
    0.530971     0.532012     0.596191 
    0.501725     0.676725     0.371712 
    0.502009     0.353718     0.632561 
    0.411126     0.623364     0.355405 
    0.328288     0.539245     0.635228 
    0.390537     0.520881     0.322751 
    0.271595     0.454371     0.472738 
    0.267326     0.532744     0.546184 
    0.323191     0.455247     0.371951 
    0.706004     0.531188     0.634830 
EA39166 16.689 15.531 14.676 90.00 90.00 90.00 Sym.group:    0
1.0
   16.688835     0.000000     0.000000
    0.000000    15.530867     0.000000
    0.000000     0.000000    14.676308
   W   B
  16  22
Direct
    0.439476     0.370506     0.488989 
    0.552172     0.617677     0.367536 
    0.443255     0.558265     0.491544 
    0.328413     0.485716     0.381501 
    0.294773     0.581986     0.541255 
    0.592716     0.483468     0.494090 
    0.583859     0.311740     0.490934 
    0.381094     0.343206     0.320223 
    0.554484     0.523206     0.672011 
    0.506613     0.720962     0.511414 
    0.711818     0.427019     0.409475 
    0.649697     0.673764     0.477179 
    0.304299     0.323943     0.586310 
    0.392879     0.549384     0.672016 
    0.480040     0.459388     0.328234 
    0.401789     0.378427     0.681776 
    0.396478     0.671304     0.593018 
    0.371192     0.693097     0.484434 
    0.432803     0.683155     0.392611 
    0.309002     0.357649     0.441712 
    0.278896     0.442373     0.509504 
    0.339452     0.627422     0.401033 
    0.417046     0.589060     0.334214 
    0.606890     0.380476     0.624542 
    0.514176     0.336988     0.616470 
    0.687220     0.381245     0.553083 
    0.586901     0.643957     0.601645 
    0.667974     0.571147     0.587381 
    0.469211     0.461256     0.593886 
    0.508906     0.322768     0.367008 
    0.488375     0.645612     0.636590 
    0.597749     0.382516     0.354589 
    0.670056     0.465322     0.636012 
    0.613145     0.488960     0.324935 
    0.724553     0.557947     0.480177 
    0.733101     0.476108     0.549407 
    0.676172     0.557930     0.377940 
    0.293322     0.455048     0.625320 
EA39481 16.689 15.531 14.676 90.00 90.00 90.00 Sym.group:    0
1.0
   16.688835     0.000000     0.000000
    0.000000    15.530867     0.000000
    0.000000     0.000000    14.676308
   W   B
  16  22
Direct
    0.439476     0.370506     0.488989 
    0.552172     0.617677     0.367536 
    0.443255     0.558265     0.491544 
    0.328413     0.485716     0.381501 
    0.294773     0.581986     0.541255 
    0.592716     0.483468     0.494090 
    0.583859     0.311740     0.490934 
    0.381094     0.343206     0.320223 
    0.554484     0.523206     0.672011 
    0.506613     0.720962     0.511414 
    0.711818     0.427019     0.409475 
    0.649697     0.673764     0.477179 
    0.304299     0.323943     0.586310 
    0.392879     0.549384     0.672016 
    0.480040     0.459388     0.328234 
    0.401789     0.378427     0.681776 
    0.396478     0.671304     0.593018 
    0.371192     0.693097     0.484434 
    0.432803     0.683155     0.392611 
    0.309002     0.357649     0.441712 
    0.278896     0.442373     0.509504 
    0.339452     0.627422     0.401033 
    0.417046     0.589060     0.334214 
    0.606890     0.380476     0.624542 
    0.514176     0.336988     0.616470 
    0.687220     0.381245     0.553083 
    0.586901     0.643957     0.601645 
    0.667974     0.571147     0.587381 
    0.469211     0.461256     0.593886 
    0.508906     0.322768     0.367008 
    0.488375     0.645612     0.636590 
    0.597749     0.382516     0.354589 
    0.670056     0.465322     0.636012 
    0.613145     0.488960     0.324935 
    0.724553     0.557947     0.480177 
    0.733101     0.476108     0.549407 
    0.676172     0.557930     0.377940 
    0.293322     0.455048     0.625320 
EA39817 16.820 15.596 14.546 90.00 90.00 90.00 Sym.group:    0
1.0
   16.820152     0.000000     0.000000
    0.000000    15.595567     0.000000
    0.000000     0.000000    14.546261
   W   B
  17  21
Direct
    0.566191     0.367294     0.490266 
    0.444107     0.616441     0.362766 
    0.550442     0.561269     0.491387 
    0.665962     0.487305     0.384185 
    0.702389     0.585131     0.535991 
    0.407470     0.482858     0.498433 
    0.417585     0.311653     0.493247 
    0.607735     0.340598     0.306288 
    0.448314     0.522938     0.675112 
    0.490168     0.719151     0.508510 
    0.288470     0.424761     0.411984 
    0.347565     0.671543     0.476813 
    0.711682     0.331027     0.595916 
    0.604559     0.551860     0.670268 
    0.517245     0.461482     0.326101 
    0.602746     0.380985     0.679457 
    0.707948     0.332501     0.428290 
    0.601628     0.672835     0.591852 
    0.622105     0.695472     0.480472 
    0.562139     0.683196     0.387316 
    0.730243     0.449368     0.512856 
    0.654521     0.627561     0.398050 
    0.578629     0.588542     0.331297 
    0.394744     0.380363     0.629047 
    0.488063     0.345697     0.617540 
    0.315033     0.379194     0.557006 
    0.412976     0.641734     0.600900 
    0.332092     0.569141     0.590322 
    0.531451     0.460659     0.592161 
    0.490855     0.325165     0.369849 
    0.510090     0.646913     0.637674 
    0.402521     0.382472     0.358918 
    0.332194     0.464414     0.640317 
    0.385568     0.486870     0.326400 
    0.276665     0.554812     0.483573 
    0.268974     0.473617     0.553859 
    0.323050     0.555759     0.379508 
    0.705879     0.467425     0.626069 
EA40178 16.957 15.679 14.654 90.00 90.00 90.00 Sym.group:    0
1.0
   16.957375     0.000000     0.000000
    0.000000    15.679349     0.000000
    0.000000     0.000000    14.654361
   W   B
  17  21
Direct
    0.429448     0.629326     0.490988 
    0.559250     0.388846     0.363640 
    0.452053     0.435254     0.492601 
    0.333907     0.507989     0.386503 
    0.301533     0.406609     0.533462 
    0.591034     0.522074     0.495015 
    0.573656     0.690132     0.497879 
    0.388971     0.656408     0.307583 
    0.550532     0.480709     0.671527 
    0.519859     0.283497     0.505380 
    0.707558     0.586166     0.413885 
    0.659153     0.337617     0.475276 
    0.282480     0.656840     0.597201 
    0.397699     0.440556     0.668034 
    0.481198     0.541363     0.328619 
    0.390593     0.608676     0.680255 
    0.287884     0.657832     0.432147 
    0.406485     0.320851     0.589475 
    0.387466     0.299765     0.477913 
    0.445590     0.317076     0.385751 
    0.265750     0.539224     0.514261 
    0.352469     0.368133     0.397669 
    0.426105     0.412120     0.332791 
    0.601931     0.621555     0.629783 
    0.506943     0.643501     0.621057 
    0.679645     0.627721     0.557573 
    0.592924     0.362710     0.598957 
    0.669350     0.438398     0.587755 
    0.464188     0.536356     0.590817 
    0.502256     0.679401     0.373004 
    0.496720     0.351967     0.635030 
    0.592013     0.623293     0.362796 
    0.665842     0.540254     0.638613 
    0.612781     0.520775     0.327976 
    0.724549     0.456482     0.481109 
    0.729137     0.535968     0.553122 
    0.677727     0.454376     0.378976 
    0.293323     0.520181     0.625574 
EA40515 17.021 15.494 14.661 90.00 90.00 90.00 Sym.group:    0
1.0
   17.021460     0.000000     0.000000
    0.000000    15.493572     0.000000
    0.000000     0.000000    14.660819
   W   B
  17  21
Direct
    0.568771     0.368214     0.492646 
    0.438465     0.609027     0.360960 
    0.547813     0.564282     0.489684 
    0.661591     0.486867     0.381296 
    0.698730     0.591669     0.525074 
    0.408700     0.478461     0.497473 
    0.423207     0.309309     0.505942 
    0.604243     0.334216     0.308739 
    0.453281     0.524722     0.671835 
    0.484098     0.719468     0.499300 
    0.289353     0.413996     0.424263 
    0.344859     0.667331     0.475010 
    0.719028     0.340456     0.592606 
    0.607775     0.560990     0.662537 
    0.513467     0.452377     0.332080 
    0.612619     0.391587     0.678371 
    0.707355     0.334075     0.428800 
    0.597996     0.681574     0.581505 
    0.614427     0.699978     0.468865 
    0.553449     0.681100     0.378978 
    0.732870     0.456626     0.506561 
    0.645688     0.628212     0.389537 
    0.570276     0.583191     0.328630 
    0.399605     0.383235     0.636746 
    0.493601     0.359432     0.625610 
    0.320271     0.376539     0.568081 
    0.412797     0.643565     0.597779 
    0.335292     0.568470     0.590471 
    0.537368     0.464740     0.591240 
    0.492425     0.314315     0.379289 
    0.509430     0.652658     0.631064 
    0.402594     0.372792     0.370075 
    0.337354     0.466982     0.645346 
    0.382434     0.475610     0.332658 
    0.276801     0.548563     0.487187 
    0.272502     0.470642     0.562086 
    0.320025     0.546035     0.383170 
    0.709440     0.478699     0.618503 
EA40833 17.076 15.595 14.659 90.00 90.00 90.00 Sym.group:    0
1.0
   17.076144     0.000000     0.000000
    0.000000    15.594826     0.000000
    0.000000     0.000000    14.659109
   W   B
  16  22
Direct
    0.428781     0.373966     0.498021 
    0.563342     0.608088     0.357155 
    0.453059     0.562559     0.487218 
    0.339846     0.486152     0.384685 
    0.303678     0.591636     0.526120 
    0.589488     0.475202     0.492465 
    0.573041     0.308031     0.508084 
    0.548667     0.524910     0.668508 
    0.519005     0.715956     0.492244 
    0.707403     0.408603     0.424951 
    0.658532     0.662835     0.470181 
    0.287454     0.339637     0.589287 
    0.392325     0.565401     0.661803 
    0.488203     0.453285     0.335330 
    0.385916     0.398314     0.684684 
    0.287678     0.341745     0.425592 
    0.406288     0.683562     0.577468 
    0.388080     0.698742     0.465239 
    0.446688     0.679110     0.374014 
    0.264957     0.458896     0.507806 
    0.355410     0.627276     0.387256 
    0.429468     0.581392     0.325323 
    0.599880     0.383918     0.635979 
    0.504928     0.366391     0.630519 
    0.677983     0.373990     0.567441 
    0.589056     0.641887     0.592823 
    0.663983     0.565955     0.585377 
    0.461089     0.466779     0.593865 
    0.499149     0.319983     0.383408 
    0.493278     0.652679     0.627163 
    0.591342     0.367404     0.370340 
    0.663264     0.465937     0.644066 
    0.616641     0.469438     0.331474 
    0.722973     0.542815     0.483598 
    0.728055     0.466076     0.559764 
    0.679185     0.540223     0.379935 
    0.290920     0.478367     0.619363 
    0.400970     0.352857     0.351450 
EA40960 16.890 17.359 14.546 90.00 90.00 90.00 Sym.group:    0
1.0
   16.890141     0.000000     0.000000
    0.000000    17.358710     0.000000
    0.000000     0.000000    14.545601
   W   B
  19  24
Direct
    0.416507     0.477977     0.489857 
    0.292696     0.487993     0.374919 
    0.256339     0.467714     0.557282 
    0.394916     0.607376     0.406755 
    0.525887     0.512267     0.349979 
    0.533470     0.292016     0.508540 
    0.657141     0.546701     0.635323 
    0.544422     0.596201     0.508398 
    0.420099     0.625198     0.607368 
    0.471490     0.732331     0.478580 
    0.575896     0.439157     0.509686 
    0.688182     0.641356     0.484794 
    0.687242     0.339623     0.570855 
    0.726053     0.481389     0.495036 
    0.502782     0.491698     0.655004 
    0.607313     0.767289     0.534372 
    0.562084     0.354005     0.352427 
    0.423593     0.402932     0.295661 
    0.361171     0.395749     0.647451 
    0.476846     0.367849     0.604678 
    0.406845     0.330755     0.525704 
    0.274557     0.581511     0.468977 
    0.249632     0.386238     0.442436 
    0.306688     0.353637     0.523710 
    0.343638     0.368277     0.404195 
    0.299054     0.584683     0.585986 
    0.324960     0.659137     0.516741 
    0.511930     0.652761     0.366451 
    0.357665     0.519280     0.643276 
    0.587150     0.703496     0.413394 
    0.621668     0.667771     0.619181 
    0.524783     0.704730     0.617763 
    0.544055     0.615393     0.667417 
    0.661995     0.544224     0.384661 
    0.649748     0.450357     0.368670 
    0.607374     0.620147     0.364035 
    0.632008     0.425037     0.670915 
    0.687846     0.372865     0.422587 
    0.646839     0.287854     0.440951 
    0.727244     0.442920     0.639721 
    0.571583     0.354110     0.638504 
    0.398899     0.522346     0.299069 
    0.439710     0.325650     0.408687 
EA41284 17.598 18.163 14.167 90.00 90.00 90.00 Sym.group:    0
1.0
   17.598039     0.000000     0.000000
    0.000000    18.163003     0.000000
    0.000000     0.000000    14.166580
   W   B
  18  25
Direct
    0.432667     0.451593     0.476014 
    0.407652     0.338050     0.596462 
    0.321212     0.440538     0.365949 
    0.276128     0.384494     0.543360 
    0.338146     0.576093     0.433844 
    0.542586     0.519446     0.340178 
    0.548869     0.366708     0.385601 
    0.630010     0.308011     0.530563 
    0.611136     0.582195     0.627935 
    0.492467     0.591811     0.509428 
    0.372853     0.564712     0.618413 
    0.379007     0.698941     0.497224 
    0.594018     0.467393     0.506301 
    0.604492     0.690517     0.494796 
    0.723836     0.411027     0.571238 
    0.712115     0.581432     0.497900 
    0.493324     0.465568     0.651170 
    0.491121     0.764348     0.553003 
    0.531107     0.338748     0.623480 
    0.512787     0.288605     0.526139 
    0.448918     0.439929     0.310410 
    0.254767     0.491735     0.478482 
    0.413762     0.526768     0.326595 
    0.356494     0.341223     0.444054 
    0.446751     0.315969     0.454013 
    0.420093     0.359665     0.355647 
    0.275234     0.487132     0.607105 
    0.262529     0.566121     0.549812 
    0.642071     0.442005     0.349505 
    0.449571     0.614801     0.360624 
    0.360330     0.444921     0.636789 
    0.484946     0.700832     0.418799 
    0.535512     0.676012     0.633169 
    0.436759     0.670067     0.628720 
    0.488481     0.594697     0.671743 
    0.634195     0.611054     0.380221 
    0.671020     0.528944     0.370086 
    0.544156     0.640775     0.370227 
    0.610493     0.384797     0.644512 
    0.638893     0.468813     0.670497 
    0.718109     0.466552     0.434099 
    0.676681     0.379409     0.424684 
    0.714698     0.517553     0.631211 
EA41610 17.598 18.163 14.167 90.00 90.00 90.00 Sym.group:    0
1.0
   17.598039     0.000000     0.000000
    0.000000    18.163003     0.000000
    0.000000     0.000000    14.166580
   W   B
  18  25
Direct
    0.432667     0.451593     0.476014 
    0.407652     0.338050     0.596462 
    0.321212     0.440538     0.365949 
    0.276128     0.384494     0.543360 
    0.338146     0.576093     0.433844 
    0.542586     0.519446     0.340178 
    0.548869     0.366708     0.385601 
    0.630010     0.308011     0.530563 
    0.611136     0.582195     0.627935 
    0.492467     0.591811     0.509428 
    0.372853     0.564712     0.618413 
    0.379007     0.698941     0.497224 
    0.594018     0.467393     0.506301 
    0.604492     0.690517     0.494796 
    0.723836     0.411027     0.571238 
    0.712115     0.581432     0.497900 
    0.493324     0.465568     0.651170 
    0.491121     0.764348     0.553003 
    0.531107     0.338748     0.623480 
    0.512787     0.288605     0.526139 
    0.448918     0.439929     0.310410 
    0.254767     0.491735     0.478482 
    0.413762     0.526768     0.326595 
    0.356494     0.341223     0.444054 
    0.446751     0.315969     0.454013 
    0.420093     0.359665     0.355647 
    0.275234     0.487132     0.607105 
    0.262529     0.566121     0.549812 
    0.642071     0.442005     0.349505 
    0.449571     0.614801     0.360624 
    0.360330     0.444921     0.636789 
    0.484946     0.700832     0.418799 
    0.535512     0.676012     0.633169 
    0.436759     0.670067     0.628720 
    0.488481     0.594697     0.671743 
    0.634195     0.611054     0.380221 
    0.671020     0.528944     0.370086 
    0.544156     0.640775     0.370227 
    0.610493     0.384797     0.644512 
    0.638893     0.468813     0.670497 
    0.718109     0.466552     0.434099 
    0.676681     0.379409     0.424684 
    0.714698     0.517553     0.631211 
EA42138 17.157 16.660 15.025 90.00 90.00 90.00 Sym.group:    0
1.0
   17.156604     0.000000     0.000000
    0.000000    16.659860     0.000000
    0.000000     0.000000    15.024709
   W   B
  16  23
Direct
    0.494678     0.505836     0.340216 
    0.375963     0.663386     0.491919 
    0.408801     0.430299     0.628810 
    0.537641     0.404352     0.490191 
    0.417022     0.518459     0.480723 
    0.460944     0.293470     0.553245 
    0.261525     0.538647     0.540333 
    0.319865     0.384203     0.508532 
    0.686552     0.346219     0.489108 
    0.642785     0.441901     0.619830 
    0.733359     0.494132     0.498564 
    0.579223     0.555021     0.495744 
    0.504163     0.659741     0.393248 
    0.454947     0.590923     0.635693 
    0.649575     0.460574     0.367062 
    0.587643     0.243033     0.475657 
    0.596541     0.336287     0.374716 
    0.527047     0.376517     0.647757 
    0.417775     0.340604     0.420676 
    0.368620     0.420492     0.377452 
    0.503349     0.303554     0.394243 
    0.328271     0.622207     0.617952 
    0.328227     0.532754     0.664323 
    0.292509     0.477087     0.412815 
    0.282430     0.447787     0.632491 
    0.586746     0.559708     0.658124 
    0.672466     0.574941     0.603520 
    0.693650     0.584057     0.401010 
    0.690365     0.627783     0.505933 
    0.596464     0.693274     0.510065 
    0.574020     0.650006     0.609948 
    0.525754     0.479535     0.665990 
    0.501231     0.678801     0.537309 
    0.635824     0.663139     0.416106 
    0.393654     0.605826     0.354285 
    0.606862     0.586134     0.345681 
    0.594070     0.317551     0.597646 
    0.361080     0.512897     0.335924 
    0.308357     0.578863     0.407159 
EA42550 16.883 15.576 14.561 90.00 90.00 90.00 Sym.group:    0
1.0
   16.882971     0.000000     0.000000
    0.000000    15.575579     0.000000
    0.000000     0.000000    14.560723
   W   B
  16  22
Direct
    0.436623     0.371229     0.493417 
    0.557555     0.608595     0.361444 
    0.445898     0.557155     0.486759 
    0.332421     0.485107     0.376529 
    0.297221     0.587632     0.528655 
    0.592571     0.482637     0.499391 
    0.578578     0.311504     0.506927 
    0.386441     0.337850     0.323024 
    0.549575     0.526730     0.672356 
    0.511841     0.719450     0.498388 
    0.710905     0.417553     0.420765 
    0.652935     0.668734     0.472833 
    0.299991     0.331417     0.585040 
    0.388145     0.558698     0.664411 
    0.484373     0.452189     0.328335 
    0.390728     0.390393     0.685733 
    0.399282     0.677437     0.580592 
    0.378055     0.694337     0.469457 
    0.440760     0.677682     0.379774 
    0.308122     0.360915     0.440338 
    0.275187     0.448317     0.503482 
    0.347242     0.626152     0.387945 
    0.424528     0.581884     0.325662 
    0.603121     0.385601     0.637299 
    0.508256     0.354958     0.630934 
    0.682620     0.380476     0.567285 
    0.586580     0.644257     0.596282 
    0.666645     0.571735     0.590632 
    0.463983     0.464892     0.595818 
    0.508895     0.316123     0.377841 
    0.488067     0.649669     0.627921 
    0.597793     0.373599     0.366770 
    0.666037     0.469683     0.645106 
    0.616492     0.477059     0.329565 
    0.724594     0.551609     0.484130 
    0.730312     0.474138     0.559420 
    0.678839     0.547522     0.380429 
    0.288791     0.465081     0.619312 
