EA20568 14.012 13.799 12.014 90.00 90.00 90.00 Sym.group:    0
1.0
   14.011692     0.000000     0.000000
    0.000000    13.798985     0.000000
    0.000000     0.000000    12.013916
   W
  11
Direct
    0.670830     0.455312     0.385564 
    0.408064     0.662275     0.408525 
    0.379575     0.350105     0.428811 
    0.691649     0.492235     0.569399 
    0.450922     0.680782     0.591240 
    0.397808     0.357606     0.616693 
    0.589625     0.621831     0.468463 
    0.350607     0.522531     0.525526 
    0.558416     0.357402     0.506524 
    0.514547     0.508770     0.614070 
    0.487958     0.491148     0.385186 
EA20513 13.854 13.189 12.139 90.00 90.00 90.00 Sym.group:    0
1.0
   13.853965     0.000000     0.000000
    0.000000    13.189330     0.000000
    0.000000     0.000000    12.138603
   W
  12
Direct
    0.665988     0.521319     0.383841 
    0.344155     0.357917     0.468125 
    0.655878     0.641777     0.531625 
    0.334040     0.478746     0.616523 
    0.332749     0.526598     0.391356 
    0.646992     0.354229     0.459793 
    0.353155     0.645888     0.540267 
    0.666969     0.473184     0.608478 
    0.504929     0.576103     0.627843 
    0.495142     0.424205     0.372164 
    0.498377     0.379913     0.577311 
    0.501626     0.620119     0.422673 
EA7074 14.220 13.845 12.827 90.00 90.00 90.00 Sym.group:    0
1.0
   14.220361     0.000000     0.000000
    0.000000    13.844609     0.000000
    0.000000     0.000000    12.827036
   W
  13
Direct
    0.544211     0.343940     0.455930 
    0.678613     0.475156     0.407015 
    0.567241     0.645925     0.467209 
    0.689851     0.403782     0.567071 
    0.706373     0.582456     0.552668 
    0.487721     0.506936     0.373704 
    0.528877     0.493181     0.574238 
    0.374531     0.352910     0.390238 
    0.392761     0.667066     0.407252 
    0.398522     0.339782     0.566585 
    0.335028     0.512774     0.484332 
    0.419468     0.667812     0.586993 
    0.376803     0.508281     0.666766 
EA20417 15.526 14.357 12.910 90.00 90.00 90.00 Sym.group:    0
1.0
   15.526029     0.000000     0.000000
    0.000000    14.356782     0.000000
    0.000000     0.000000    12.910256
   W
  14
Direct
    0.613230     0.627325     0.486708 
    0.686336     0.500030     0.595295 
    0.513195     0.521311     0.601083 
    0.491341     0.701882     0.577146 
    0.379638     0.586334     0.501438 
    0.613465     0.356356     0.575195 
    0.370175     0.459345     0.656708 
    0.505000     0.511028     0.394019 
    0.582626     0.338110     0.394959 
    0.677708     0.464391     0.415235 
    0.479699     0.691766     0.398316 
    0.354610     0.447619     0.370441 
    0.280947     0.424708     0.522862 
    0.452032     0.369792     0.510595 
EA20394 15.737 13.844 12.016 90.00 90.00 90.00 Sym.group:    0
1.0
   15.736794     0.000000     0.000000
    0.000000    13.843685     0.000000
    0.000000     0.000000    12.015550
   W
  15
Direct
    0.502062     0.663567     0.542642 
    0.516997     0.500018     0.414691 
    0.667923     0.660887     0.563357 
    0.598434     0.665323     0.388191 
    0.511949     0.336518     0.544877 
    0.608902     0.342159     0.391422 
    0.596577     0.504796     0.625692 
    0.681979     0.508313     0.447547 
    0.676231     0.354425     0.566513 
    0.373573     0.608794     0.397816 
    0.336383     0.656182     0.571273 
    0.424029     0.496778     0.590537 
    0.382233     0.380392     0.395638 
    0.277005     0.491071     0.490299 
    0.345723     0.330778     0.569508 
