EA17   15.315 15.315 15.315 90.00 90.00 90.00 Sym.group:    0
1.0
   15.314972     0.000000     0.000000
    0.000000    15.314972     0.000000
    0.000000     0.000000    15.314972
   W
  15
Direct
    0.500004     0.499984     0.499938 
    0.500016     0.499990     0.695123 
    0.500011     0.499984     0.304897 
    0.500016     0.695155     0.499981 
    0.499998     0.304793     0.499974 
    0.695140     0.500002     0.499971 
    0.304882     0.499980     0.499972 
    0.594794     0.594885     0.595048 
    0.594747     0.594945     0.404951 
    0.595002     0.404994     0.594672 
    0.595010     0.405016     0.405245 
    0.405076     0.594902     0.594902 
    0.405067     0.595057     0.405201 
    0.405104     0.405213     0.595064 
    0.405132     0.405101     0.405062 
EA184  15.315 15.315 15.315 90.00 90.00 90.00 Sym.group:    0
1.0
   15.314972     0.000000     0.000000
    0.000000    15.314972     0.000000
    0.000000     0.000000    15.314972
   W
  15
Direct
    0.500004     0.499984     0.499938 
    0.500016     0.499990     0.695123 
    0.500011     0.499984     0.304897 
    0.500016     0.695155     0.499981 
    0.499998     0.304793     0.499974 
    0.695140     0.500002     0.499971 
    0.304882     0.499980     0.499972 
    0.594794     0.594885     0.595048 
    0.594747     0.594945     0.404951 
    0.595002     0.404994     0.594672 
    0.595010     0.405016     0.405245 
    0.405076     0.594902     0.594902 
    0.405067     0.595057     0.405201 
    0.405104     0.405213     0.595064 
    0.405132     0.405101     0.405062 
EA459  14.521 14.290 13.351 90.00 90.00 90.00 Sym.group:    0
1.0
   14.521003     0.000000     0.000000
    0.000000    14.290491     0.000000
    0.000000     0.000000    13.351365
   W
  14
Direct
    0.493774     0.325316     0.423889 
    0.362949     0.579784     0.387435 
    0.630573     0.574015     0.380242 
    0.653575     0.410337     0.448665 
    0.493349     0.684570     0.452904 
    0.325534     0.420541     0.447758 
    0.356129     0.582266     0.571358 
    0.641079     0.592992     0.563061 
    0.527957     0.335780     0.596245 
    0.496756     0.678276     0.624096 
    0.355889     0.406753     0.611846 
    0.664360     0.430914     0.624803 
    0.500654     0.500097     0.528231 
    0.497421     0.478360     0.339469 
EA724  14.178 12.619 14.121 90.00 90.00 90.00 Sym.group:    0
1.0
   14.177518     0.000000     0.000000
    0.000000    12.618580     0.000000
    0.000000     0.000000    14.121049
   W
  13
Direct
    0.620275     0.618820     0.465720 
    0.669393     0.409283     0.431076 
    0.485005     0.318831     0.463019 
    0.711101     0.493703     0.570033 
    0.623048     0.307411     0.563206 
    0.493191     0.500791     0.382473 
    0.525162     0.485521     0.565963 
    0.469179     0.708236     0.401299 
    0.328423     0.406969     0.403660 
    0.490767     0.710360     0.562609 
    0.352331     0.585383     0.480124 
    0.344139     0.387564     0.565224 
    0.387984     0.567128     0.645595 
EA1067 14.215 13.176 12.936 90.00 90.00 90.00 Sym.group:    0
1.0
   14.215176     0.000000     0.000000
    0.000000    13.175587     0.000000
    0.000000     0.000000    12.936208
   W
  11
Direct
    0.491525     0.587995     0.596727 
    0.642196     0.630588     0.492859 
    0.644247     0.532248     0.337419 
    0.657986     0.521698     0.637677 
    0.490454     0.505563     0.415241 
    0.670781     0.425160     0.478510 
    0.518327     0.403281     0.588296 
    0.313675     0.487514     0.390387 
    0.343555     0.450211     0.598500 
    0.332944     0.614215     0.503723 
    0.394311     0.341526     0.460663 
EA1187 14.470 13.673 13.130 90.00 90.00 90.00 Sym.group:    0
1.0
   14.470301     0.000000     0.000000
    0.000000    13.673408     0.000000
    0.000000     0.000000    13.130267
   W
  13
Direct
    0.445962     0.346065     0.463277 
    0.319786     0.489092     0.414340 
    0.441394     0.653856     0.461254 
    0.309234     0.409803     0.566830 
    0.308381     0.598416     0.558310 
    0.511446     0.501627     0.375513 
    0.470976     0.499687     0.571083 
    0.614157     0.342241     0.398333 
    0.613909     0.657717     0.400536 
    0.590896     0.333867     0.572169 
    0.663164     0.500893     0.483494 
    0.589442     0.666596     0.573182 
    0.621253     0.500141     0.661677 
EA1555 14.827 13.405 12.064 90.00 90.00 90.00 Sym.group:    0
1.0
   14.827391     0.000000     0.000000
    0.000000    13.404691     0.000000
    0.000000     0.000000    12.064128
   W
  11
Direct
    0.369138     0.498952     0.631278 
    0.320695     0.507952     0.408552 
    0.489909     0.494441     0.393881 
    0.360173     0.360756     0.498267 
    0.519060     0.376683     0.559646 
    0.628661     0.387146     0.402287 
    0.378037     0.641314     0.523149 
    0.539944     0.661755     0.443036 
    0.539917     0.559040     0.608302 
    0.677526     0.559377     0.437717 
    0.676942     0.452584     0.593886 
EA1598 13.235 13.780 12.822 90.00 90.00 90.00 Sym.group:    0
1.0
   13.235119     0.000000     0.000000
    0.000000    13.780444     0.000000
    0.000000     0.000000    12.822240
   W
  14
Direct
    0.536660     0.667961     0.633525 
    0.684836     0.559436     0.380226 
    0.633140     0.386259     0.633645 
    0.461397     0.318209     0.379582 
    0.329116     0.444492     0.632777 
    0.355707     0.623578     0.380609 
    0.689031     0.560366     0.563936 
    0.633346     0.387335     0.450041 
    0.458560     0.315333     0.565557 
    0.329876     0.445212     0.449997 
    0.354091     0.624585     0.566500 
    0.534263     0.666921     0.449839 
    0.499315     0.500308     0.354715 
    0.500661     0.500004     0.559053 
EA1801 15.000 14.247 13.265 90.00 90.00 90.00 Sym.group:    0
1.0
   14.999577     0.000000     0.000000
    0.000000    14.247040     0.000000
    0.000000     0.000000    13.265216
   W
  15
Direct
    0.653486     0.668406     0.479094 
    0.487847     0.631100     0.548016 
    0.386561     0.613054     0.379464 
    0.545354     0.558376     0.378689 
    0.417882     0.433831     0.353840 
    0.304843     0.617038     0.537244 
    0.383280     0.540820     0.661610 
    0.320276     0.446283     0.495223 
    0.513108     0.452116     0.552851 
    0.720968     0.525115     0.434430 
    0.646986     0.566739     0.619372 
    0.593267     0.387535     0.410696 
    0.692247     0.415828     0.564632 
    0.442783     0.295256     0.462008 
    0.391111     0.348503     0.622832 
EA2230 14.533 13.879 11.529 90.00 90.00 90.00 Sym.group:    0
1.0
   14.532521     0.000000     0.000000
    0.000000    13.879055     0.000000
    0.000000     0.000000    11.529209
   W
  11
Direct
    0.595037     0.470842     0.605186 
    0.693599     0.459709     0.440150 
    0.554888     0.339989     0.433464 
    0.465917     0.344361     0.612581 
    0.385746     0.375417     0.432446 
    0.527499     0.640424     0.616469 
    0.640623     0.620671     0.456521 
    0.420973     0.670428     0.452771 
    0.505332     0.518515     0.413040 
    0.398891     0.515214     0.603449 
    0.311495     0.544429     0.433924 
EA2289 14.735 14.070 13.409 90.00 90.00 90.00 Sym.group:    0
1.0
   14.735192     0.000000     0.000000
    0.000000    14.070423     0.000000
    0.000000     0.000000    13.408827
   W
  15
Direct
    0.384364     0.531368     0.652848 
    0.432372     0.680918     0.576611 
    0.455093     0.670521     0.409820 
    0.411716     0.517465     0.332442 
    0.390897     0.363110     0.416343 
    0.359499     0.372917     0.582992 
    0.598281     0.476388     0.671013 
    0.602227     0.632079     0.589441 
    0.650593     0.606183     0.422910 
    0.584960     0.479399     0.328535 
    0.588355     0.334787     0.421720 
    0.532626     0.337198     0.588856 
    0.322430     0.543376     0.488250 
    0.685071     0.453247     0.514517 
    0.501518     0.501047     0.503703 
EA2511 16.534 16.534 13.004 90.00 90.00 90.00 Sym.group:    0
1.0
   16.534386     0.000000     0.000000
    0.000000    16.534386     0.000000
    0.000000     0.000000    13.004093
   W
  15
Direct
    0.588449     0.588202     0.612945 
    0.409644     0.586270     0.616220 
    0.414807     0.412075     0.609942 
    0.584443     0.411761     0.609024 
    0.413132     0.410962     0.392720 
    0.413784     0.591007     0.384358 
    0.589701     0.586861     0.384250 
    0.585856     0.412304     0.390728 
    0.320585     0.499716     0.500178 
    0.500216     0.315445     0.499518 
    0.680070     0.499387     0.500068 
    0.499872     0.679469     0.500172 
    0.499843     0.499909     0.269480 
    0.500055     0.500605     0.731241 
    0.499542     0.506028     0.499156 
EA2745 13.830 15.026 15.052 90.00 90.00 90.00 Sym.group:    0
1.0
   13.830146     0.000000     0.000000
    0.000000    15.026179     0.000000
    0.000000     0.000000    15.052338
   W
  15
Direct
    0.516324     0.477558     0.565832 
    0.697683     0.457427     0.603698 
    0.631056     0.611440     0.564305 
    0.276144     0.583698     0.524650 
    0.449823     0.642420     0.476332 
    0.344454     0.417803     0.582434 
    0.402267     0.590281     0.627139 
    0.636970     0.374974     0.475990 
    0.758009     0.509454     0.467500 
    0.671080     0.643602     0.419113 
    0.487468     0.303999     0.554439 
    0.433419     0.377225     0.425598 
    0.557628     0.515604     0.405976 
    0.371625     0.551554     0.366538 
    0.266048     0.442963     0.440456 
EA3007 15.313 14.053 12.976 90.00 90.00 90.00 Sym.group:    0
1.0
   15.312519     0.000000     0.000000
    0.000000    14.053221     0.000000
    0.000000     0.000000    12.976095
   W
  15
Direct
    0.551937     0.365573     0.554348 
    0.693547     0.457266     0.610449 
    0.659393     0.433068     0.426500 
    0.612002     0.584055     0.360161 
    0.692865     0.599966     0.524542 
    0.548310     0.554979     0.644587 
    0.496125     0.311875     0.389457 
    0.314690     0.517044     0.494627 
    0.348294     0.409841     0.351182 
    0.391165     0.657776     0.432622 
    0.390279     0.647629     0.619517 
    0.403437     0.469749     0.640609 
    0.374965     0.323568     0.498640 
    0.483461     0.495769     0.444159 
    0.539531     0.671841     0.508598 
EA3212 16.027 14.496 13.275 90.00 90.00 90.00 Sym.group:    0
1.0
   16.027407     0.000000     0.000000
    0.000000    14.495529     0.000000
    0.000000     0.000000    13.275446
   W
  15
Direct
    0.520470     0.455621     0.578963 
    0.686664     0.431192     0.595284 
    0.627002     0.587525     0.591009 
    0.313113     0.600369     0.540274 
    0.464606     0.647948     0.517023 
    0.352793     0.411627     0.572958 
    0.410345     0.550867     0.664481 
    0.606879     0.367149     0.452501 
    0.721140     0.503625     0.442156 
    0.652232     0.652424     0.432578 
    0.468383     0.295146     0.529703 
    0.434122     0.396586     0.393605 
    0.545158     0.529259     0.406330 
    0.398902     0.596119     0.364972 
    0.298189     0.474542     0.418163 
EA3580 13.865 12.996 12.444 90.00 90.00 90.00 Sym.group:    0
1.0
   13.865419     0.000000     0.000000
    0.000000    12.995912     0.000000
    0.000000     0.000000    12.444053
   W
  12
Direct
    0.349066     0.370169     0.579856 
    0.662834     0.557647     0.597492 
    0.501466     0.460365     0.640968 
    0.651826     0.371092     0.579132 
    0.500083     0.360620     0.466014 
    0.670006     0.446692     0.404712 
    0.648864     0.629456     0.417006 
    0.337824     0.555596     0.599795 
    0.349102     0.628682     0.420406 
    0.330185     0.445406     0.405898 
    0.499527     0.639485     0.532033 
    0.499215     0.534791     0.356688 
EA3903 13.248 12.548 12.411 90.00 90.00 90.00 Sym.group:    0
1.0
   13.248185     0.000000     0.000000
    0.000000    12.548484     0.000000
    0.000000     0.000000    12.410959
   W
  11
Direct
    0.587870     0.508187     0.293485 
    0.587650     0.319073     0.594496 
    0.587489     0.671939     0.611464 
    0.412262     0.507350     0.293727 
    0.412603     0.318805     0.594598 
    0.412530     0.671908     0.611334 
    0.499928     0.498004     0.673537 
    0.499634     0.648961     0.416442 
    0.500177     0.354552     0.410763 
    0.604141     0.500844     0.499865 
    0.395716     0.500377     0.500288 
EA3939 14.714 14.158 13.911 90.00 90.00 90.00 Sym.group:    0
1.0
   14.714002     0.000000     0.000000
    0.000000    14.158001     0.000000
    0.000000     0.000000    13.910775
   W
  15
Direct
    0.343778     0.410109     0.511718 
    0.376871     0.560267     0.648984 
    0.490444     0.682994     0.465272 
    0.414394     0.521967     0.360081 
    0.522124     0.331299     0.525696 
    0.570815     0.440890     0.372500 
    0.656109     0.579532     0.472106 
    0.626651     0.471252     0.640234 
    0.429260     0.399060     0.666893 
    0.578524     0.638228     0.617129 
    0.560002     0.620565     0.323377 
    0.425757     0.335951     0.375824 
    0.324239     0.598432     0.492264 
    0.688598     0.399983     0.501091 
    0.492433     0.509470     0.526831 
EA4160 15.398 15.398 13.430 90.00 90.00 90.00 Sym.group:    0
1.0
   15.397685     0.000000     0.000000
    0.000000    15.397685     0.000000
    0.000000     0.000000    13.430097
   W
  15
Direct
    0.505594     0.361827     0.385254 
    0.634726     0.504545     0.389012 
    0.494673     0.637892     0.385507 
    0.365295     0.495471     0.388946 
    0.505208     0.364197     0.612267 
    0.639732     0.506452     0.615755 
    0.494567     0.636023     0.612250 
    0.360205     0.493549     0.615207 
    0.632547     0.367502     0.500301 
    0.632137     0.632362     0.501097 
    0.367719     0.632453     0.500251 
    0.367766     0.368266     0.500700 
    0.499801     0.500070     0.280905 
    0.500162     0.499790     0.713945 
    0.499868     0.499599     0.498603 
EA4550 14.847 13.842 13.018 90.00 90.00 90.00 Sym.group:    0
1.0
   14.846671     0.000000     0.000000
    0.000000    13.842363     0.000000
    0.000000     0.000000    13.017873
   W
  12
Direct
    0.357613     0.525713     0.367885 
    0.525178     0.493246     0.419549 
    0.397414     0.358995     0.453388 
    0.570714     0.321043     0.435558 
    0.691190     0.532444     0.430728 
    0.428853     0.638944     0.482074 
    0.473585     0.404599     0.600727 
    0.578174     0.580703     0.595045 
    0.412247     0.568487     0.658235 
    0.610334     0.674080     0.450873 
    0.644289     0.407157     0.564385 
    0.310411     0.494588     0.541551 
EA4768 14.977 13.154 12.612 90.00 90.00 90.00 Sym.group:    0
1.0
   14.977147     0.000000     0.000000
    0.000000    13.154374     0.000000
    0.000000     0.000000    12.612181
   W
  12
Direct
    0.651519     0.628135     0.438187 
    0.635030     0.466240     0.361782 
    0.690607     0.487293     0.569905 
    0.329750     0.649098     0.465017 
    0.485604     0.580575     0.447557 
    0.579611     0.613577     0.615213 
    0.358440     0.545608     0.611844 
    0.617977     0.338636     0.501722 
    0.508350     0.446652     0.609203 
    0.476127     0.395298     0.409643 
    0.315165     0.478134     0.412990 
    0.351820     0.370754     0.556937 
EA5026 14.644 13.371 11.898 90.00 90.00 90.00 Sym.group:    0
1.0
   14.644017     0.000000     0.000000
    0.000000    13.370859     0.000000
    0.000000     0.000000    11.898432
   W
  12
Direct
    0.505090     0.425262     0.607005 
    0.689644     0.409992     0.569822 
    0.582925     0.358406     0.426464 
    0.669750     0.505961     0.381900 
    0.664728     0.579340     0.594271 
    0.486328     0.597596     0.603152 
    0.585193     0.653569     0.438543 
    0.319798     0.487579     0.611120 
    0.369912     0.357241     0.491299 
    0.308165     0.489224     0.382905 
    0.481374     0.506633     0.398622 
    0.337094     0.629197     0.494896 
EA5091 13.771 14.304 12.957 90.00 90.00 90.00 Sym.group:    0
1.0
   13.771316     0.000000     0.000000
    0.000000    14.304480     0.000000
    0.000000     0.000000    12.956644
   W
  15
Direct
    0.511705     0.461236     0.300721 
    0.323097     0.513813     0.398136 
    0.285125     0.403428     0.526394 
    0.436128     0.347514     0.427835 
    0.454363     0.398454     0.618380 
    0.639104     0.397260     0.411610 
    0.562947     0.282843     0.539575 
    0.630095     0.450122     0.594968 
    0.661482     0.572426     0.387125 
    0.496281     0.528674     0.475019 
    0.560313     0.703195     0.500652 
    0.371291     0.666056     0.490317 
    0.527214     0.613981     0.651908 
    0.344105     0.551435     0.613904 
    0.696748     0.609563     0.563456 
EA5338 15.539 14.896 13.404 90.00 90.00 90.00 Sym.group:    0
1.0
   15.538551     0.000000     0.000000
    0.000000    14.895872     0.000000
    0.000000     0.000000    13.404386
   W
  15
Direct
    0.465354     0.577233     0.319693 
    0.370396     0.404513     0.393308 
    0.294193     0.440606     0.537586 
    0.360941     0.586776     0.460213 
    0.424225     0.529246     0.628549 
    0.520613     0.678556     0.442283 
    0.427033     0.690579     0.585361 
    0.576505     0.587289     0.594852 
    0.654916     0.553584     0.411644 
    0.511865     0.485012     0.461829 
    0.658860     0.386453     0.458593 
    0.495598     0.309897     0.437818 
    0.592403     0.412817     0.620205 
    0.425138     0.356640     0.584122 
    0.721962     0.500801     0.563946 
EA5592 19.558 12.771 11.970 90.00 90.00 90.00 Sym.group:    0
1.0
   19.557921     0.000000     0.000000
    0.000000    12.770674     0.000000
    0.000000     0.000000    11.970403
   W
  14
Direct
    0.341179     0.608530     0.424078 
    0.658787     0.608644     0.575900 
    0.341303     0.391804     0.423958 
    0.658810     0.391392     0.575916 
    0.556561     0.500003     0.630401 
    0.443588     0.499937     0.369438 
    0.558804     0.398932     0.444768 
    0.441237     0.398738     0.555380 
    0.558758     0.601164     0.444333 
    0.441180     0.600946     0.555231 
    0.253750     0.500002     0.495646 
    0.746253     0.500046     0.504723 
    0.341080     0.499921     0.628026 
    0.658710     0.499942     0.372203 
EA5797 15.329 14.250 14.293 90.00 90.00 90.00 Sym.group:    0
1.0
   15.328981     0.000000     0.000000
    0.000000    14.250334     0.000000
    0.000000     0.000000    14.292995
   W
  15
Direct
    0.693562     0.528817     0.532703 
    0.511865     0.491583     0.541024 
    0.638595     0.357993     0.534475 
    0.495118     0.319307     0.606104 
    0.618535     0.409159     0.379899 
    0.330501     0.414631     0.406713 
    0.471265     0.512455     0.360026 
    0.481154     0.332338     0.438472 
    0.591850     0.609651     0.425959 
    0.354682     0.579788     0.472175 
    0.450866     0.694134     0.390604 
    0.353294     0.401539     0.567089 
    0.402858     0.570308     0.637494 
    0.493412     0.684934     0.557597 
    0.612443     0.593365     0.649666 
EA6119 15.770 13.941 12.555 90.00 90.00 90.00 Sym.group:    0
1.0
   15.769766     0.000000     0.000000
    0.000000    13.940714     0.000000
    0.000000     0.000000    12.555294
   W
  13
Direct
    0.303469     0.510701     0.521971 
    0.394243     0.552819     0.373132 
    0.405577     0.656411     0.556069 
    0.549786     0.496586     0.402445 
    0.581665     0.625697     0.555825 
    0.488688     0.685993     0.406651 
    0.351382     0.361952     0.592805 
    0.397968     0.368404     0.416854 
    0.471037     0.483344     0.587532 
    0.696777     0.554358     0.454840 
    0.630640     0.468310     0.637886 
    0.692316     0.391058     0.489473 
    0.536452     0.344369     0.504517 
EA6426 13.902 13.322 12.504 90.00 90.00 90.00 Sym.group:    0
1.0
   13.902272     0.000000     0.000000
    0.000000    13.321728     0.000000
    0.000000     0.000000    12.503724
   W
  12
Direct
    0.499099     0.632970     0.457981 
    0.494688     0.367056     0.539454 
    0.357878     0.366553     0.410247 
    0.654158     0.453602     0.614093 
    0.347001     0.548228     0.382953 
    0.644559     0.629325     0.587565 
    0.488147     0.546712     0.645751 
    0.511649     0.455663     0.358416 
    0.670856     0.551579     0.416282 
    0.345326     0.627613     0.561245 
    0.654762     0.372430     0.440487 
    0.331876     0.448269     0.585528 
EA6735 13.886 13.668 13.426 90.00 90.00 90.00 Sym.group:    0
1.0
   13.886250     0.000000     0.000000
    0.000000    13.667535     0.000000
    0.000000     0.000000    13.425728
   W
  11
Direct
    0.551808     0.337280     0.619637 
    0.583637     0.483741     0.307477 
    0.601894     0.649325     0.600697 
    0.391844     0.344989     0.585084 
    0.422574     0.499201     0.305906 
    0.446437     0.687671     0.574899 
    0.489206     0.360031     0.431063 
    0.524771     0.628664     0.414341 
    0.487314     0.509690     0.658340 
    0.401552     0.513257     0.494150 
    0.598962     0.486150     0.508405 
EA6963 13.991 14.019 11.983 90.00 90.00 90.00 Sym.group:    0
1.0
   13.991493     0.000000     0.000000
    0.000000    14.019328     0.000000
    0.000000     0.000000    11.983110
   W
  11
Direct
    0.317548     0.541758     0.410665 
    0.578850     0.335990     0.402030 
    0.607274     0.648789     0.404983 
    0.315539     0.505145     0.596173 
    0.565342     0.327553     0.591440 
    0.618102     0.639922     0.594682 
    0.408326     0.378517     0.488121 
    0.651480     0.481931     0.498352 
    0.441321     0.640018     0.512957 
    0.498503     0.495026     0.616422 
    0.497715     0.505354     0.384176 
EA7030 15.550 14.546 12.832 90.00 90.00 90.00 Sym.group:    0
1.0
   15.550103     0.000000     0.000000
    0.000000    14.545768     0.000000
    0.000000     0.000000    12.832383
   W
  14
Direct
    0.388092     0.373762     0.498605 
    0.314438     0.509391     0.596384 
    0.484360     0.489228     0.601172 
    0.507741     0.306650     0.597601 
    0.620262     0.414720     0.516187 
    0.386802     0.648323     0.556441 
    0.622022     0.561219     0.654382 
    0.498140     0.479439     0.393733 
    0.416446     0.646125     0.372424 
    0.321847     0.526490     0.411904 
    0.524559     0.303741     0.418141 
    0.649830     0.536101     0.369013 
    0.718044     0.575032     0.522556 
    0.547416     0.629782     0.491457 
EA7306 15.410 14.737 12.347 90.00 90.00 90.00 Sym.group:    0
1.0
   15.409799     0.000000     0.000000
    0.000000    14.736730     0.000000
    0.000000     0.000000    12.347103
   W
  13
Direct
    0.540796     0.676601     0.407570 
    0.613833     0.525450     0.404081 
    0.596503     0.639594     0.583397 
    0.442888     0.535547     0.379128 
    0.426052     0.640898     0.550284 
    0.300132     0.561463     0.469838 
    0.348279     0.499964     0.634209 
    0.527566     0.359722     0.377095 
    0.491211     0.306997     0.562530 
    0.690778     0.510272     0.571729 
    0.375490     0.400323     0.477688 
    0.637000     0.358788     0.509463 
    0.509473     0.484377     0.572987 
EA7575 14.765 13.531 13.117 90.00 90.00 90.00 Sym.group:    0
1.0
   14.764545     0.000000     0.000000
    0.000000    13.530951     0.000000
    0.000000     0.000000    13.117140
   W
  12
Direct
    0.674755     0.603600     0.451681 
    0.704979     0.517446     0.590238 
    0.457751     0.316697     0.538634 
    0.522533     0.536331     0.361504 
    0.608297     0.411515     0.479385 
    0.478265     0.355848     0.362822 
    0.355930     0.639894     0.567292 
    0.362574     0.475099     0.437812 
    0.377389     0.458188     0.616141 
    0.548474     0.442225     0.650246 
    0.387113     0.654034     0.402008 
    0.521939     0.589123     0.542235 
EA7706 15.693 14.624 12.174 90.00 90.00 90.00 Sym.group:    0
1.0
   15.692827     0.000000     0.000000
    0.000000    14.623687     0.000000
    0.000000     0.000000    12.173726
   W
  15
Direct
    0.523669     0.649146     0.550907 
    0.482833     0.502605     0.416330 
    0.364160     0.677771     0.573691 
    0.427979     0.673237     0.398246 
    0.462701     0.346900     0.535537 
    0.367288     0.375189     0.384390 
    0.405193     0.515743     0.625116 
    0.321095     0.541864     0.450135 
    0.302054     0.392527     0.556024 
    0.636866     0.577418     0.388682 
    0.686052     0.627296     0.551567 
    0.574259     0.482356     0.590298 
    0.603648     0.364473     0.404821 
    0.716441     0.457680     0.494901 
    0.625765     0.315795     0.579357 
EA7910 15.457 13.938 12.109 90.00 90.00 90.00 Sym.group:    0
1.0
   15.457435     0.000000     0.000000
    0.000000    13.937715     0.000000
    0.000000     0.000000    12.109252
   W
  15
Direct
    0.500720     0.338135     0.548762 
    0.483437     0.496911     0.414972 
    0.332507     0.339776     0.563533 
    0.406061     0.332168     0.392822 
    0.484644     0.662285     0.543815 
    0.391023     0.654320     0.387427 
    0.399654     0.496001     0.623133 
    0.315467     0.490704     0.444627 
    0.316459     0.643574     0.557896 
    0.629465     0.394855     0.396239 
    0.668907     0.344353     0.568368 
    0.576002     0.504341     0.591455 
    0.618035     0.622505     0.401145 
    0.724094     0.510962     0.490568 
    0.653525     0.669109     0.575237 
EA8155 15.293 15.293 15.293 90.00 90.00 90.00 Sym.group:    0
1.0
   15.292965     0.000000     0.000000
    0.000000    15.292965     0.000000
    0.000000     0.000000    15.292965
   W
  15
Direct
    0.497622     0.501558     0.499207 
    0.500791     0.502398     0.686954 
    0.502613     0.496498     0.310943 
    0.498077     0.687784     0.497543 
    0.500992     0.312343     0.500842 
    0.686496     0.504089     0.501045 
    0.312480     0.495904     0.502309 
    0.606811     0.593934     0.605952 
    0.592529     0.595609     0.400301 
    0.596954     0.400503     0.593905 
    0.601572     0.394366     0.403523 
    0.401602     0.599338     0.592567 
    0.399107     0.606568     0.402893 
    0.401944     0.398977     0.603747 
    0.400410     0.410132     0.398269 
EA8371 14.170 14.384 14.174 90.00 90.00 90.00 Sym.group:    0
1.0
   14.170081     0.000000     0.000000
    0.000000    14.383996     0.000000
    0.000000     0.000000    14.173916
   W
  15
Direct
    0.621446     0.327275     0.496877 
    0.502301     0.340960     0.619269 
    0.330543     0.407460     0.600863 
    0.475134     0.456928     0.485048 
    0.596231     0.452457     0.357501 
    0.300262     0.421778     0.436422 
    0.612081     0.480063     0.619006 
    0.730711     0.448867     0.488322 
    0.546749     0.618134     0.310216 
    0.300810     0.565262     0.517803 
    0.558630     0.657976     0.629305 
    0.625149     0.590159     0.473216 
    0.455552     0.645132     0.478964 
    0.437186     0.545936     0.649431 
    0.407214     0.541612     0.337756 
EA8718 15.668 13.538 12.853 90.00 90.00 90.00 Sym.group:    0
1.0
   15.667800     0.000000     0.000000
    0.000000    13.537992     0.000000
    0.000000     0.000000    12.852906
   W
  13
Direct
    0.673057     0.537542     0.392417 
    0.512347     0.578741     0.409080 
    0.587352     0.647967     0.555864 
    0.297936     0.474555     0.523723 
    0.414468     0.615297     0.588691 
    0.354360     0.611400     0.413519 
    0.381377     0.435276     0.361838 
    0.388260     0.456236     0.669386 
    0.554394     0.401953     0.397878 
    0.419694     0.342502     0.509014 
    0.664944     0.381425     0.522315 
    0.714474     0.543801     0.565933 
    0.537337     0.473304     0.590343 
EA8835 13.273 13.882 15.569 90.00 90.00 90.00 Sym.group:    0
1.0
   13.272547     0.000000     0.000000
    0.000000    13.882498     0.000000
    0.000000     0.000000    15.568998
   W
  15
Direct
    0.346714     0.520424     0.363903 
    0.434633     0.301244     0.557297 
    0.229358     0.581627     0.459066 
    0.476266     0.501961     0.562329 
    0.396449     0.662943     0.491566 
    0.302263     0.558508     0.598130 
    0.307424     0.413701     0.504671 
    0.522641     0.575032     0.407940 
    0.757156     0.483085     0.542265 
    0.620596     0.634579     0.554722 
    0.712269     0.600841     0.425649 
    0.678301     0.422927     0.409802 
    0.628779     0.495018     0.654206 
    0.479059     0.392640     0.421045 
    0.608095     0.355471     0.547406 
EA9079 15.459 12.701 15.583 90.00 90.00 90.00 Sym.group:    0
1.0
   15.458982     0.000000     0.000000
    0.000000    12.700803     0.000000
    0.000000     0.000000    15.583183
   W
  15
Direct
    0.646440     0.712328     0.525879 
    0.678343     0.589129     0.417716 
    0.675619     0.408671     0.491686 
    0.616303     0.531234     0.587782 
    0.492209     0.664156     0.530341 
    0.534924     0.651631     0.384109 
    0.411399     0.319494     0.524665 
    0.335172     0.616026     0.572450 
    0.554978     0.325946     0.611094 
    0.565643     0.266709     0.468071 
    0.445707     0.472915     0.614089 
    0.288319     0.454051     0.519439 
    0.366507     0.418730     0.388117 
    0.371772     0.605228     0.412208 
    0.516665     0.463751     0.452354 
EA9304 15.599 14.298 12.787 90.00 90.00 90.00 Sym.group:    0
1.0
   15.599494     0.000000     0.000000
    0.000000    14.297626     0.000000
    0.000000     0.000000    12.786974
   W
  15
Direct
    0.298295     0.604329     0.562061 
    0.307752     0.504589     0.418882 
    0.364959     0.346933     0.483044 
    0.380714     0.463251     0.611749 
    0.459528     0.628379     0.572320 
    0.415812     0.626335     0.388730 
    0.639772     0.391227     0.499382 
    0.619995     0.653391     0.608806 
    0.499436     0.308719     0.585958 
    0.522961     0.296107     0.411137 
    0.564794     0.482972     0.628836 
    0.712030     0.552574     0.514484 
    0.642053     0.511097     0.353444 
    0.580317     0.653292     0.420368 
    0.491581     0.476805     0.440800 
EA9545 15.303 15.303 15.303 90.00 90.00 90.00 Sym.group:    0
1.0
   15.302996     0.000000     0.000000
    0.000000    15.302996     0.000000
    0.000000     0.000000    15.302996
   W
  15
Direct
    0.500018     0.499983     0.499929 
    0.500012     0.305915     0.499998 
    0.499982     0.694084     0.500015 
    0.321386     0.499991     0.425074 
    0.678629     0.500011     0.574935 
    0.425054     0.499993     0.678668 
    0.574912     0.500017     0.321432 
    0.375918     0.406608     0.552000 
    0.375917     0.593416     0.552007 
    0.552005     0.406586     0.624078 
    0.552019     0.593412     0.624081 
    0.447976     0.406596     0.375917 
    0.447992     0.593401     0.375900 
    0.624080     0.406592     0.447987 
    0.624101     0.593396     0.447979 
EA9798 14.513 14.150 12.705 90.00 90.00 90.00 Sym.group:    0
1.0
   14.513238     0.000000     0.000000
    0.000000    14.149922     0.000000
    0.000000     0.000000    12.705246
   W
  14
Direct
    0.502948     0.495694     0.453543 
    0.490544     0.498443     0.648372 
    0.662056     0.441142     0.407442 
    0.643870     0.629586     0.409802 
    0.477763     0.669227     0.399642 
    0.339549     0.563201     0.385970 
    0.366437     0.390529     0.411109 
    0.539292     0.309420     0.414993 
    0.298521     0.509984     0.562017 
    0.401353     0.363486     0.587775 
    0.585050     0.334722     0.580169 
    0.672710     0.497665     0.581820 
    0.604059     0.659117     0.581790 
    0.415850     0.637784     0.575555 
EA10166 14.714 13.320 13.780 90.00 90.00 90.00 Sym.group:    0
1.0
   14.713607     0.000000     0.000000
    0.000000    13.319893     0.000000
    0.000000     0.000000    13.779923
   W
  11
Direct
    0.315019     0.619240     0.496220 
    0.600564     0.606164     0.409094 
    0.453984     0.512655     0.385440 
    0.482618     0.632482     0.531620 
    0.664892     0.550757     0.562620 
    0.415179     0.445911     0.557675 
    0.499288     0.343114     0.442037 
    0.649299     0.425247     0.427984 
    0.596880     0.371899     0.587854 
    0.532496     0.521914     0.665645 
    0.289781     0.470618     0.433812 
EA10348 14.403 14.082 12.211 90.00 90.00 90.00 Sym.group:    0
1.0
   14.403166     0.000000     0.000000
    0.000000    14.082009     0.000000
    0.000000     0.000000    12.211225
   W
  12
Direct
    0.679645     0.508370     0.589637 
    0.543823     0.672068     0.591204 
    0.433450     0.655565     0.450438 
    0.628739     0.611468     0.443030 
    0.652559     0.416020     0.432021 
    0.502584     0.509852     0.346450 
    0.493978     0.497241     0.554987 
    0.581782     0.333106     0.574529 
    0.470001     0.346186     0.429200 
    0.327130     0.487787     0.428263 
    0.333722     0.580733     0.588807 
    0.352588     0.381603     0.571433 
EA10469 15.205 14.507 13.159 90.00 90.00 90.00 Sym.group:    0
1.0
   15.204674     0.000000     0.000000
    0.000000    14.507348     0.000000
    0.000000     0.000000    13.159436
   W
  15
Direct
    0.462084     0.665468     0.389634 
    0.317570     0.458945     0.559867 
    0.313353     0.635147     0.442429 
    0.392295     0.316389     0.521215 
    0.500167     0.347711     0.385845 
    0.420102     0.591745     0.576509 
    0.375642     0.483855     0.395534 
    0.542035     0.518095     0.443634 
    0.703380     0.456496     0.537820 
    0.554207     0.696072     0.544477 
    0.450986     0.408251     0.675645 
    0.565359     0.358242     0.555973 
    0.572209     0.530622     0.632950 
    0.660894     0.411874     0.377294 
    0.669718     0.621088     0.461174 
EA10696 15.641 14.905 12.724 90.00 90.00 90.00 Sym.group:    0
1.0
   15.641410     0.000000     0.000000
    0.000000    14.905499     0.000000
    0.000000     0.000000    12.724128
   W
  15
Direct
    0.548306     0.432952     0.630494 
    0.542026     0.553767     0.479237 
    0.692099     0.596022     0.450587 
    0.548979     0.372951     0.453770 
    0.668315     0.467529     0.353561 
    0.706605     0.424179     0.529879 
    0.671632     0.551373     0.629438 
    0.432268     0.637433     0.358545 
    0.402053     0.475992     0.412978 
    0.415186     0.542262     0.627704 
    0.408355     0.346038     0.587850 
    0.314770     0.632405     0.477902 
    0.294988     0.472630     0.549957 
    0.408015     0.304822     0.412881 
    0.446401     0.689643     0.545217 
EA11122 14.453 13.333 12.804 90.00 90.00 90.00 Sym.group:    0
1.0
   14.452987     0.000000     0.000000
    0.000000    13.333080     0.000000
    0.000000     0.000000    12.804208
   W
  11
Direct
    0.670752     0.479297     0.612846 
    0.657400     0.501228     0.399760 
    0.613090     0.356315     0.501067 
    0.649623     0.632516     0.520829 
    0.500419     0.495564     0.582780 
    0.331623     0.454189     0.612414 
    0.416077     0.348613     0.492874 
    0.364983     0.638282     0.555379 
    0.322405     0.523100     0.433282 
    0.493987     0.618949     0.429445 
    0.479640     0.451948     0.359324 
EA11146 14.171 15.279 12.961 90.00 90.00 90.00 Sym.group:    0
1.0
   14.171293     0.000000     0.000000
    0.000000    15.278903     0.000000
    0.000000     0.000000    12.961283
   W
  15
Direct
    0.418947     0.524421     0.322883 
    0.443207     0.311201     0.525411 
    0.435245     0.618345     0.613784 
    0.291629     0.591195     0.470273 
    0.339064     0.423720     0.435455 
    0.328591     0.495876     0.604715 
    0.520203     0.350744     0.376093 
    0.447797     0.654739     0.416246 
    0.505391     0.490397     0.505374 
    0.606795     0.647612     0.556780 
    0.678959     0.421919     0.429866 
    0.705318     0.523986     0.585860 
    0.601427     0.364966     0.579415 
    0.605023     0.572807     0.386533 
    0.572406     0.508072     0.691310 
EA11392 16.123 15.810 15.920 90.00 90.00 90.00 Sym.group:    0
1.0
   16.123317     0.000000     0.000000
    0.000000    15.810356     0.000000
    0.000000     0.000000    15.920189
   W
  15
Direct
    0.497053     0.499151     0.499012 
    0.445180     0.516220     0.661877 
    0.538708     0.330239     0.460685 
    0.381107     0.561512     0.394171 
    0.638777     0.587565     0.475666 
    0.548039     0.478212     0.349337 
    0.468416     0.654551     0.526256 
    0.607527     0.453859     0.604013 
    0.369023     0.418537     0.527172 
    0.659094     0.435438     0.453277 
    0.342409     0.572398     0.544629 
    0.427200     0.387239     0.383581 
    0.579415     0.605840     0.618750 
    0.518526     0.628442     0.375623 
    0.479524     0.370797     0.625951 
EA11799 14.727 13.847 12.162 90.00 90.00 90.00 Sym.group:    0
1.0
   14.727177     0.000000     0.000000
    0.000000    13.847350     0.000000
    0.000000     0.000000    12.161617
   W
  12
Direct
    0.557208     0.633705     0.586190 
    0.375021     0.641088     0.505066 
    0.685864     0.597941     0.463718 
    0.299034     0.508758     0.585417 
    0.344907     0.527511     0.370972 
    0.471297     0.480885     0.591829 
    0.519942     0.567983     0.393570 
    0.653029     0.495041     0.636123 
    0.671011     0.430753     0.431117 
    0.497962     0.395278     0.395149 
    0.341868     0.374680     0.473511 
    0.582859     0.346378     0.567340 
EA11866 15.352 14.795 13.262 90.00 90.00 90.00 Sym.group:    0
1.0
   15.352340     0.000000     0.000000
    0.000000    14.794932     0.000000
    0.000000     0.000000    13.261787
   W
  15
Direct
    0.599534     0.533869     0.354324 
    0.492474     0.692909     0.577818 
    0.576339     0.372262     0.590012 
    0.717338     0.466457     0.498574 
    0.626576     0.623392     0.504730 
    0.645934     0.511143     0.643805 
    0.464528     0.665440     0.411257 
    0.607115     0.374922     0.412467 
    0.494029     0.508443     0.514635 
    0.433636     0.326836     0.486610 
    0.336121     0.557359     0.404760 
    0.303647     0.417916     0.516229 
    0.363386     0.586989     0.581711 
    0.441386     0.439605     0.351810 
    0.397957     0.422456     0.651257 
EA12086 15.627 14.498 13.161 90.00 90.00 90.00 Sym.group:    0
1.0
   15.627154     0.000000     0.000000
    0.000000    14.498392     0.000000
    0.000000     0.000000    13.160889
   W
  15
Direct
    0.590688     0.533288     0.354005 
    0.504525     0.691535     0.580232 
    0.576350     0.370184     0.593186 
    0.714731     0.455944     0.484679 
    0.633146     0.622391     0.499975 
    0.655617     0.508454     0.637881 
    0.472290     0.667546     0.412851 
    0.598399     0.366373     0.412830 
    0.499050     0.507788     0.521477 
    0.428745     0.330991     0.490187 
    0.336623     0.563673     0.407839 
    0.298197     0.424055     0.514614 
    0.366246     0.589881     0.583900 
    0.434012     0.439934     0.354108 
    0.391381     0.427963     0.652234 
EA12297 14.676 14.676 15.244 90.00 90.00 90.00 Sym.group:    0
1.0
   14.675934     0.000000     0.000000
    0.000000    14.675934     0.000000
    0.000000     0.000000    15.244218
   W
  15
Direct
    0.499457     0.500042     0.499933 
    0.370849     0.602551     0.544548 
    0.450776     0.405907     0.370684 
    0.628056     0.601989     0.453060 
    0.547167     0.405681     0.629639 
    0.641566     0.388746     0.452951 
    0.554967     0.602393     0.643416 
    0.360298     0.388089     0.548887 
    0.446204     0.603314     0.356829 
    0.500792     0.305549     0.499653 
    0.500297     0.692922     0.500528 
    0.581101     0.500354     0.330797 
    0.418641     0.501001     0.669164 
    0.676735     0.500653     0.575648 
    0.323094     0.500809     0.424265 
EA12536 13.882 14.903 13.761 90.00 90.00 90.00 Sym.group:    0
1.0
   13.882053     0.000000     0.000000
    0.000000    14.902833     0.000000
    0.000000     0.000000    13.761263
   W
  15
Direct
    0.497989     0.497475     0.502508 
    0.492106     0.373900     0.380469 
    0.357208     0.603829     0.472409 
    0.490079     0.425883     0.664990 
    0.660689     0.579220     0.486984 
    0.509877     0.643124     0.623822 
    0.656806     0.391086     0.531909 
    0.513364     0.568728     0.316839 
    0.320564     0.418314     0.518533 
    0.518517     0.684946     0.456012 
    0.488828     0.311448     0.543575 
    0.348950     0.534509     0.635157 
    0.648133     0.461012     0.364853 
    0.637277     0.522565     0.652473 
    0.359617     0.483963     0.349466 
EA12800 15.764 14.268 12.881 90.00 90.00 90.00 Sym.group:    0
1.0
   15.764488     0.000000     0.000000
    0.000000    14.268099     0.000000
    0.000000     0.000000    12.880765
   W
  14
Direct
    0.701284     0.501050     0.604134 
    0.502319     0.299708     0.411052 
    0.513307     0.493516     0.430159 
    0.541523     0.490263     0.625666 
    0.613788     0.363688     0.520278 
    0.422076     0.371979     0.554031 
    0.678331     0.503107     0.425923 
    0.541813     0.653239     0.367125 
    0.607476     0.640504     0.529502 
    0.371766     0.414542     0.389295 
    0.383829     0.605062     0.388281 
    0.440553     0.636074     0.553840 
    0.382057     0.510911     0.676186 
    0.299877     0.516360     0.524528 
EA12995 13.932 14.945 13.792 90.00 90.00 90.00 Sym.group:    0
1.0
   13.931530     0.000000     0.000000
    0.000000    14.944732     0.000000
    0.000000     0.000000    13.792110
   W
  15
Direct
    0.499706     0.498258     0.501780 
    0.508104     0.406877     0.348757 
    0.658855     0.576600     0.525387 
    0.473070     0.390505     0.635725 
    0.359750     0.608235     0.490675 
    0.492135     0.611568     0.658796 
    0.322732     0.419907     0.480533 
    0.528517     0.604772     0.340470 
    0.656738     0.386573     0.517362 
    0.518834     0.686883     0.509557 
    0.480206     0.310048     0.486578 
    0.626192     0.478401     0.661039 
    0.371819     0.519749     0.340641 
    0.343663     0.508044     0.632498 
    0.659677     0.493580     0.370202 
EA13384 13.883 13.221 12.565 90.00 90.00 90.00 Sym.group:    0
1.0
   13.882886     0.000000     0.000000
    0.000000    13.220730     0.000000
    0.000000     0.000000    12.564746
   W
  12
Direct
    0.666385     0.495799     0.389343 
    0.343348     0.358971     0.494213 
    0.656442     0.641459     0.506988 
    0.332971     0.504471     0.609938 
    0.334993     0.509677     0.387128 
    0.643040     0.346311     0.496707 
    0.356529     0.653281     0.502360 
    0.664846     0.489669     0.612542 
    0.503805     0.598122     0.605080 
    0.496004     0.401848     0.395154 
    0.494399     0.397362     0.599909 
    0.507237     0.603031     0.400639 
EA13491 14.869 13.124 12.362 90.00 90.00 90.00 Sym.group:    0
1.0
   14.868609     0.000000     0.000000
    0.000000    13.123525     0.000000
    0.000000     0.000000    12.361587
   W
  13
Direct
    0.676643     0.458157     0.632185 
    0.674917     0.632892     0.597734 
    0.647804     0.386372     0.456200 
    0.713380     0.550080     0.435550 
    0.545312     0.555054     0.431893 
    0.507994     0.401327     0.578814 
    0.506236     0.580106     0.625928 
    0.341231     0.510960     0.622198 
    0.372447     0.640727     0.492051 
    0.354805     0.342991     0.519144 
    0.291356     0.493429     0.427406 
    0.415029     0.560230     0.309126 
    0.452847     0.387674     0.371773 
EA13686 15.572 14.202 12.797 90.00 90.00 90.00 Sym.group:    0
1.0
   15.572055     0.000000     0.000000
    0.000000    14.202047     0.000000
    0.000000     0.000000    12.797251
   W
  15
Direct
    0.528563     0.698526     0.558796 
    0.482696     0.508757     0.534840 
    0.295270     0.514342     0.418146 
    0.336917     0.430470     0.577593 
    0.410919     0.659939     0.431866 
    0.334531     0.600997     0.578572 
    0.403126     0.383222     0.402120 
    0.461703     0.523709     0.325725 
    0.620686     0.559261     0.619100 
    0.595407     0.617318     0.419537 
    0.522322     0.390963     0.673621 
    0.715398     0.506499     0.474321 
    0.662935     0.377246     0.592091 
    0.534847     0.308979     0.504756 
    0.594680     0.419772     0.388916 
EA14024 14.519 13.734 12.076 90.00 90.00 90.00 Sym.group:    0
1.0
   14.519184     0.000000     0.000000
    0.000000    13.733942     0.000000
    0.000000     0.000000    12.076265
   W
  12
Direct
    0.544158     0.498561     0.380737 
    0.363755     0.500284     0.372657 
    0.579414     0.661330     0.611689 
    0.296629     0.567266     0.528276 
    0.457713     0.651835     0.463562 
    0.627914     0.660291     0.425327 
    0.318063     0.407789     0.567416 
    0.458369     0.348885     0.468441 
    0.637583     0.346173     0.433360 
    0.656417     0.504149     0.544671 
    0.583299     0.349086     0.614913 
    0.476685     0.504354     0.588951 
EA14317 15.366 12.910 12.744 90.00 90.00 90.00 Sym.group:    0
1.0
   15.365745     0.000000     0.000000
    0.000000    12.909565     0.000000
    0.000000     0.000000    12.744107
   W
  11
Direct
    0.479120     0.395156     0.522873 
    0.388902     0.494183     0.355267 
    0.352786     0.493990     0.624331 
    0.312495     0.597507     0.478004 
    0.318602     0.386253     0.481251 
    0.559460     0.499411     0.397195 
    0.641544     0.651991     0.517337 
    0.714827     0.506045     0.448587 
    0.607341     0.509343     0.624599 
    0.651203     0.362303     0.530611 
    0.473722     0.603818     0.519945 
EA14495 15.395 13.839 12.243 90.00 90.00 90.00 Sym.group:    0
1.0
   15.394963     0.000000     0.000000
    0.000000    13.838949     0.000000
    0.000000     0.000000    12.242771
   W
  12
Direct
    0.523040     0.495690     0.388375 
    0.609462     0.656536     0.592985 
    0.460438     0.642458     0.485018 
    0.624847     0.643161     0.408794 
    0.601317     0.332368     0.425469 
    0.658269     0.490720     0.515152 
    0.588893     0.338948     0.607909 
    0.348153     0.546982     0.595121 
    0.279280     0.433252     0.488890 
    0.359012     0.531014     0.374429 
    0.437845     0.380157     0.504131 
    0.509445     0.508713     0.613726 
EA14707 14.427 14.287 12.148 90.00 90.00 90.00 Sym.group:    0
1.0
   14.427425     0.000000     0.000000
    0.000000    14.286736     0.000000
    0.000000     0.000000    12.147934
   W
  12
Direct
    0.677136     0.459604     0.581982 
    0.593632     0.658525     0.581950 
    0.379622     0.638768     0.581109 
    0.332829     0.426721     0.581513 
    0.515651     0.319057     0.580548 
    0.337605     0.536138     0.435644 
    0.414843     0.354726     0.434787 
    0.611425     0.373343     0.435870 
    0.652937     0.565850     0.436530 
    0.485949     0.666183     0.435422 
    0.498183     0.502855     0.561105 
    0.500185     0.498230     0.353539 
EA14809 14.676 14.155 13.390 90.00 90.00 90.00 Sym.group:    0
1.0
   14.676056     0.000000     0.000000
    0.000000    14.155305     0.000000
    0.000000     0.000000    13.389614
   W
  15
Direct
    0.502528     0.413302     0.628836 
    0.646300     0.496272     0.447584 
    0.633413     0.667299     0.562665 
    0.658028     0.498577     0.625376 
    0.609717     0.662229     0.392304 
    0.643763     0.328616     0.386873 
    0.652763     0.328127     0.553447 
    0.489894     0.391800     0.446233 
    0.482089     0.550885     0.345838 
    0.330013     0.468545     0.383178 
    0.377626     0.653179     0.427195 
    0.337465     0.388436     0.551926 
    0.276945     0.556317     0.525393 
    0.489487     0.579119     0.548826 
    0.369967     0.517297     0.674328 
EA15239 14.412 13.327 12.674 90.00 90.00 90.00 Sym.group:    0
1.0
   14.411809     0.000000     0.000000
    0.000000    13.326925     0.000000
    0.000000     0.000000    12.673960
   W
  11
Direct
    0.534686     0.573951     0.340304 
    0.642807     0.582598     0.634905 
    0.678871     0.568237     0.448533 
    0.684327     0.423913     0.559615 
    0.548495     0.413631     0.424505 
    0.508381     0.430210     0.615668 
    0.365191     0.485749     0.380921 
    0.333429     0.470558     0.591815 
    0.320102     0.619167     0.496087 
    0.493651     0.593343     0.528992 
    0.390058     0.338641     0.478656 
EA15303 16.413 12.938 12.508 90.00 90.00 90.00 Sym.group:    0
1.0
   16.413447     0.000000     0.000000
    0.000000    12.937872     0.000000
    0.000000     0.000000    12.507538
   W
  14
Direct
    0.573818     0.431059     0.431582 
    0.426405     0.430585     0.567903 
    0.586262     0.459094     0.623595 
    0.413580     0.459097     0.375745 
    0.583732     0.637039     0.517481 
    0.415893     0.636776     0.482878 
    0.520595     0.281971     0.587904 
    0.480301     0.281738     0.412051 
    0.320093     0.545894     0.648306 
    0.679710     0.546150     0.351710 
    0.713643     0.538092     0.527034 
    0.286602     0.537903     0.473286 
    0.529914     0.607209     0.340651 
    0.469452     0.607392     0.659875 
EA15633 15.289 14.692 11.975 90.00 90.00 90.00 Sym.group:    0
1.0
   15.289338     0.000000     0.000000
    0.000000    14.691933     0.000000
    0.000000     0.000000    11.975023
   W
  12
Direct
    0.483800     0.528449     0.381043 
    0.524459     0.599829     0.575971 
    0.441736     0.379259     0.416225 
    0.315020     0.501822     0.414416 
    0.637204     0.603577     0.413277 
    0.633433     0.436632     0.394677 
    0.517177     0.436928     0.589870 
    0.672263     0.375828     0.566457 
    0.366985     0.553498     0.630477 
    0.337663     0.403149     0.572187 
    0.383293     0.645733     0.467504 
    0.686968     0.535295     0.577896 
EA15867 14.872 14.165 12.107 90.00 90.00 90.00 Sym.group:    0
1.0
   14.871754     0.000000     0.000000
    0.000000    14.164612     0.000000
    0.000000     0.000000    12.107412
   W
  12
Direct
    0.680005     0.517856     0.598189 
    0.608745     0.365649     0.554592 
    0.702809     0.444771     0.425016 
    0.497785     0.683843     0.565544 
    0.613348     0.609431     0.446590 
    0.497233     0.512153     0.583752 
    0.433192     0.342276     0.477683 
    0.326249     0.455595     0.404615 
    0.354343     0.422283     0.621992 
    0.528306     0.462765     0.383250 
    0.433322     0.609161     0.394983 
    0.324664     0.574216     0.543793 
EA16138 14.482 13.657 12.737 90.00 90.00 90.00 Sym.group:    0
1.0
   14.482431     0.000000     0.000000
    0.000000    13.656515     0.000000
    0.000000     0.000000    12.737493
   W
  11
Direct
    0.613120     0.615824     0.456448 
    0.641265     0.458544     0.376430 
    0.461662     0.511880     0.373000 
    0.517722     0.371110     0.490207 
    0.673515     0.451187     0.560859 
    0.308345     0.531430     0.510609 
    0.647158     0.602592     0.638898 
    0.425667     0.654627     0.477389 
    0.491281     0.528140     0.591733 
    0.373093     0.391022     0.606781 
    0.347171     0.383645     0.417647 
EA16194 15.539 14.353 13.247 90.00 90.00 90.00 Sym.group:    0
1.0
   15.539357     0.000000     0.000000
    0.000000    14.352941     0.000000
    0.000000     0.000000    13.246753
   W
  14
Direct
    0.423024     0.650628     0.474641 
    0.322478     0.541776     0.401128 
    0.303292     0.572780     0.580593 
    0.510064     0.316690     0.490178 
    0.363582     0.417409     0.549727 
    0.465501     0.536031     0.615694 
    0.479957     0.348626     0.657095 
    0.606718     0.447219     0.574372 
    0.677263     0.455677     0.406091 
    0.726942     0.558352     0.532741 
    0.628472     0.611980     0.378151 
    0.592598     0.648762     0.550347 
    0.395632     0.386305     0.370158 
    0.504476     0.507765     0.419085 
EA16562 15.460 13.772 13.263 90.00 90.00 90.00 Sym.group:    0
1.0
   15.460096     0.000000     0.000000
    0.000000    13.771592     0.000000
    0.000000     0.000000    13.263497
   W
  11
Direct
    0.616328     0.367632     0.562950 
    0.410051     0.438112     0.359380 
    0.454687     0.370677     0.527064 
    0.569964     0.451490     0.394504 
    0.390630     0.477465     0.655126 
    0.321763     0.504120     0.490372 
    0.622374     0.631912     0.453782 
    0.400682     0.635116     0.577606 
    0.544023     0.529895     0.582288 
    0.703879     0.488918     0.482931 
    0.465620     0.604661     0.413998 
EA16735 15.431 12.924 12.732 90.00 90.00 90.00 Sym.group:    0
1.0
   15.431455     0.000000     0.000000
    0.000000    12.924105     0.000000
    0.000000     0.000000    12.732252
   W
  12
Direct
    0.365739     0.470711     0.633548 
    0.527133     0.486074     0.606909 
    0.689898     0.492496     0.603560 
    0.468254     0.362581     0.479985 
    0.310243     0.389462     0.475841 
    0.640570     0.361910     0.481036 
    0.302520     0.595562     0.515874 
    0.457259     0.638133     0.528252 
    0.372705     0.521074     0.365621 
    0.636077     0.644919     0.516566 
    0.535578     0.520205     0.395828 
    0.694021     0.516874     0.396980 
EA16834 15.204 14.766 14.557 90.00 90.00 90.00 Sym.group:    0
1.0
   15.204443     0.000000     0.000000
    0.000000    14.766185     0.000000
    0.000000     0.000000    14.556859
   W
  15
Direct
    0.425511     0.307950     0.479599 
    0.376257     0.479277     0.397163 
    0.526817     0.496267     0.461462 
    0.493173     0.349283     0.347662 
    0.703340     0.503590     0.452872 
    0.604219     0.631864     0.390901 
    0.607684     0.343534     0.470568 
    0.665822     0.479604     0.600412 
    0.531322     0.367267     0.606618 
    0.368459     0.458958     0.561076 
    0.287493     0.599813     0.467776 
    0.443615     0.654672     0.478697 
    0.615464     0.650707     0.544146 
    0.348446     0.623813     0.616055 
    0.502381     0.553402     0.624993 
EA17065 15.200 15.200 15.200 90.00 90.00 90.00 Sym.group:    0
1.0
   15.199623     0.000000     0.000000
    0.000000    15.199623     0.000000
    0.000000     0.000000    15.199623
   W
  15
Direct
    0.501296     0.498576     0.500746 
    0.494250     0.495098     0.687926 
    0.503722     0.501131     0.310638 
    0.499290     0.689359     0.502411 
    0.502131     0.311013     0.497263 
    0.687812     0.504758     0.504630 
    0.311278     0.500179     0.496653 
    0.607883     0.605753     0.596298 
    0.597229     0.595950     0.403472 
    0.596329     0.404237     0.596542 
    0.595056     0.393966     0.392443 
    0.405822     0.597822     0.598450 
    0.400118     0.599636     0.400494 
    0.395150     0.401214     0.606272 
    0.402633     0.401307     0.405762 
EA17271 15.698 13.970 12.955 90.00 90.00 90.00 Sym.group:    0
1.0
   15.698150     0.000000     0.000000
    0.000000    13.970349     0.000000
    0.000000     0.000000    12.954595
   W
  15
Direct
    0.682052     0.494859     0.476410 
    0.654559     0.655730     0.594675 
    0.649329     0.654087     0.413870 
    0.596337     0.370539     0.374989 
    0.521816     0.535087     0.414587 
    0.492951     0.343124     0.649218 
    0.615834     0.323735     0.549216 
    0.589850     0.498213     0.634050 
    0.456299     0.357061     0.460311 
    0.384449     0.645787     0.411335 
    0.352571     0.484373     0.357321 
    0.501145     0.661518     0.547479 
    0.291169     0.402993     0.498630 
    0.286949     0.573052     0.533210 
    0.424688     0.499842     0.584699 
EA17626 14.435 13.494 12.887 90.00 90.00 90.00 Sym.group:    0
1.0
   14.434673     0.000000     0.000000
    0.000000    13.493578     0.000000
    0.000000     0.000000    12.887278
   W
  12
Direct
    0.507711     0.588281     0.375340 
    0.355187     0.463700     0.424808 
    0.352913     0.397140     0.599382 
    0.328973     0.572411     0.606476 
    0.356697     0.643320     0.444344 
    0.494434     0.342081     0.510991 
    0.648144     0.457775     0.438010 
    0.508044     0.404048     0.335027 
    0.668300     0.562902     0.625176 
    0.496724     0.533775     0.561178 
    0.650038     0.640639     0.466963 
    0.632833     0.393927     0.612305 
EA17838 14.155 13.351 13.521 90.00 90.00 90.00 Sym.group:    0
1.0
   14.155182     0.000000     0.000000
    0.000000    13.350841     0.000000
    0.000000     0.000000    13.521099
   W
  12
Direct
    0.488720     0.628877     0.412970 
    0.653671     0.496586     0.421141 
    0.656718     0.375139     0.552795 
    0.672046     0.536979     0.622997 
    0.640412     0.658041     0.503505 
    0.509521     0.345623     0.457872 
    0.344992     0.471519     0.431533 
    0.496557     0.467543     0.327291 
    0.330026     0.514407     0.632425 
    0.501544     0.513036     0.561197 
    0.339615     0.635561     0.510422 
    0.366179     0.356687     0.565853 
EA18059 13.745 12.723 12.720 90.00 90.00 90.00 Sym.group:    0
1.0
   13.745044     0.000000     0.000000
    0.000000    12.722720     0.000000
    0.000000     0.000000    12.720314
   W
  12
Direct
    0.345426     0.434082     0.629389 
    0.340749     0.385549     0.444251 
    0.346295     0.563716     0.371606 
    0.339018     0.612614     0.556487 
    0.666635     0.553168     0.402592 
    0.649986     0.366031     0.428100 
    0.667588     0.449240     0.594719 
    0.649233     0.635281     0.570882 
    0.497011     0.544763     0.637437 
    0.500162     0.359120     0.546600 
    0.499435     0.455004     0.364069 
    0.498463     0.641432     0.453869 
EA18168 14.345 13.839 14.335 90.00 90.00 90.00 Sym.group:    0
1.0
   14.344950     0.000000     0.000000
    0.000000    13.838704     0.000000
    0.000000     0.000000    14.334671
   W
  15
Direct
    0.363207     0.343068     0.491972 
    0.612152     0.642531     0.452014 
    0.357217     0.616374     0.547022 
    0.634444     0.364296     0.491213 
    0.380897     0.452327     0.639308 
    0.667088     0.528181     0.575554 
    0.340874     0.493897     0.410406 
    0.650640     0.477963     0.370121 
    0.501887     0.343738     0.616864 
    0.526538     0.664271     0.599869 
    0.435423     0.672659     0.416188 
    0.492273     0.353160     0.381972 
    0.490610     0.529204     0.316342 
    0.546338     0.519060     0.692669 
    0.500413     0.499273     0.498485 
EA18361 15.235 15.235 15.235 90.00 90.00 90.00 Sym.group:    0
1.0
   15.234995     0.000000     0.000000
    0.000000    15.234995     0.000000
    0.000000     0.000000    15.234995
   W
  15
Direct
    0.498605     0.499914     0.501331 
    0.499973     0.500415     0.302588 
    0.500747     0.498244     0.697362 
    0.500330     0.303077     0.499428 
    0.502109     0.697616     0.501769 
    0.303142     0.500440     0.499642 
    0.696821     0.499628     0.500079 
    0.402375     0.405817     0.403286 
    0.402756     0.402873     0.594488 
    0.406274     0.596858     0.403484 
    0.403225     0.596059     0.596148 
    0.597285     0.405315     0.402661 
    0.593494     0.402996     0.596776 
    0.597140     0.595220     0.404340 
    0.595721     0.595529     0.596617 
EA18599 14.289 14.052 14.300 90.00 90.00 90.00 Sym.group:    0
1.0
   14.288637     0.000000     0.000000
    0.000000    14.051691     0.000000
    0.000000     0.000000    14.300118
   W
  15
Direct
    0.496554     0.496922     0.500163 
    0.673546     0.536521     0.509312 
    0.438558     0.431894     0.651450 
    0.402515     0.646375     0.464616 
    0.465914     0.378510     0.375789 
    0.312259     0.460886     0.488316 
    0.563816     0.577472     0.336917 
    0.611413     0.343241     0.536510 
    0.535587     0.629651     0.636730 
    0.579120     0.682018     0.475425 
    0.416173     0.315837     0.526429 
    0.641403     0.421138     0.383265 
    0.361144     0.584775     0.619163 
    0.616723     0.466030     0.657706 
    0.385274     0.528730     0.338209 
EA19021 14.379 13.924 14.100 90.00 90.00 90.00 Sym.group:    0
1.0
   14.378654     0.000000     0.000000
    0.000000    13.924330     0.000000
    0.000000     0.000000    14.099902
   W
  11
Direct
    0.675645     0.491994     0.599201 
    0.394578     0.356456     0.502052 
    0.505448     0.494618     0.576208 
    0.621440     0.374364     0.489369 
    0.671527     0.515884     0.407375 
    0.488602     0.608885     0.436617 
    0.644104     0.637109     0.520583 
    0.497561     0.456637     0.381326 
    0.339795     0.463760     0.619447 
    0.341837     0.611652     0.540816 
    0.319464     0.488640     0.427009 
EA19273 14.377 12.870 12.494 90.00 90.00 90.00 Sym.group:    0
1.0
   14.376903     0.000000     0.000000
    0.000000    12.870304     0.000000
    0.000000     0.000000    12.493860
   W
  11
Direct
    0.332287     0.475902     0.373264 
    0.612851     0.357274     0.497845 
    0.500192     0.503628     0.413700 
    0.393493     0.351818     0.494774 
    0.320913     0.489949     0.592783 
    0.498778     0.619733     0.574170 
    0.338694     0.629769     0.474145 
    0.500100     0.453352     0.633429 
    0.669201     0.481453     0.375929 
    0.655322     0.637213     0.474444 
    0.678169     0.499909     0.595516 
EA19295 16.268 15.051 12.817 90.00 90.00 90.00 Sym.group:    0
1.0
   16.267876     0.000000     0.000000
    0.000000    15.051440     0.000000
    0.000000     0.000000    12.817294
   W
  15
Direct
    0.709364     0.460557     0.581667 
    0.543007     0.673842     0.623882 
    0.458559     0.413776     0.551954 
    0.419239     0.567909     0.629989 
    0.607883     0.347766     0.593335 
    0.580091     0.537845     0.542653 
    0.558303     0.704571     0.453835 
    0.281674     0.567808     0.497029 
    0.584841     0.570446     0.350922 
    0.310886     0.450445     0.614231 
    0.320606     0.434932     0.416236 
    0.471780     0.444480     0.362421 
    0.427548     0.590872     0.443488 
    0.666952     0.422125     0.409983 
    0.559269     0.312625     0.428375 
EA19523 15.376 13.860 12.289 90.00 90.00 90.00 Sym.group:    0
1.0
   15.376295     0.000000     0.000000
    0.000000    13.859649     0.000000
    0.000000     0.000000    12.288860
   W
  14
Direct
    0.363924     0.349373     0.401937 
    0.368769     0.657320     0.408361 
    0.366273     0.652294     0.599115 
    0.365596     0.345784     0.593323 
    0.629526     0.421038     0.374577 
    0.633242     0.592740     0.388336 
    0.629928     0.577412     0.624687 
    0.631365     0.404425     0.609835 
    0.512385     0.657070     0.508522 
    0.468016     0.496815     0.609660 
    0.509343     0.343538     0.490782 
    0.468207     0.503903     0.390651 
    0.320890     0.501328     0.500299 
    0.732534     0.496961     0.499915 
EA19743 16.215 15.081 12.795 90.00 90.00 90.00 Sym.group:    0
1.0
   16.215164     0.000000     0.000000
    0.000000    15.080859     0.000000
    0.000000     0.000000    12.794613
   W
  15
Direct
    0.284155     0.520725     0.586176 
    0.517355     0.688487     0.584788 
    0.522325     0.417105     0.565807 
    0.605783     0.556910     0.627072 
    0.365850     0.393292     0.623755 
    0.429803     0.560057     0.540328 
    0.484981     0.700693     0.409024 
    0.728807     0.515222     0.483863 
    0.417830     0.570892     0.344448 
    0.679331     0.408909     0.608713 
    0.652899     0.390296     0.419019 
    0.506186     0.433639     0.374144 
    0.587012     0.568166     0.437391 
    0.313577     0.450648     0.428465 
    0.404108     0.324961     0.467008 
EA20009 14.345 14.132 12.523 90.00 90.00 90.00 Sym.group:    0
1.0
   14.345009     0.000000     0.000000
    0.000000    14.132324     0.000000
    0.000000     0.000000    12.523089
   W
  13
Direct
    0.504257     0.328476     0.375431 
    0.498172     0.590879     0.637267 
    0.618668     0.441359     0.627690 
    0.351025     0.592143     0.376702 
    0.381431     0.437675     0.624808 
    0.647636     0.596255     0.378636 
    0.671103     0.595936     0.558901 
    0.346328     0.420995     0.437578 
    0.497324     0.668103     0.470972 
    0.502362     0.319308     0.556193 
    0.324463     0.590313     0.556242 
    0.656917     0.425438     0.441054 
    0.500314     0.493120     0.458526 
EA20178 14.131 14.164 13.920 90.00 90.00 90.00 Sym.group:    0
1.0
   14.130924     0.000000     0.000000
    0.000000    14.164404     0.000000
    0.000000     0.000000    13.920396
   W
  15
Direct
    0.454350     0.665283     0.600049 
    0.324585     0.610755     0.494853 
    0.454017     0.659486     0.400284 
    0.409454     0.493116     0.344013 
    0.618616     0.643516     0.539719 
    0.616136     0.580622     0.361896 
    0.439811     0.310837     0.425104 
    0.580348     0.333955     0.528927 
    0.435813     0.367844     0.617410 
    0.323262     0.425171     0.483744 
    0.564500     0.414047     0.351294 
    0.494040     0.506925     0.507960 
    0.468947     0.520945     0.703903 
    0.618490     0.464011     0.650682 
    0.697632     0.503486     0.490162 
EA20390 14.641 14.327 14.702 90.00 90.00 90.00 Sym.group:    0
1.0
   14.640722     0.000000     0.000000
    0.000000    14.326704     0.000000
    0.000000     0.000000    14.701913
   W
  15
Direct
    0.351238     0.394236     0.562176 
    0.457492     0.302753     0.475849 
    0.385461     0.414189     0.376390 
    0.555367     0.425478     0.355157 
    0.338236     0.566731     0.538326 
    0.410831     0.588996     0.360270 
    0.697827     0.510000     0.458178 
    0.612895     0.627103     0.554410 
    0.624388     0.474139     0.626486 
    0.623497     0.357263     0.494753 
    0.578956     0.598159     0.375632 
    0.494779     0.493504     0.504659 
    0.463805     0.445415     0.681206 
    0.468579     0.611943     0.647973 
    0.436648     0.690092     0.488537 
