# =========================================================
# System
# =========================================================
SYSTEM = WB

# =========================================================
# General precision settings
# =========================================================
PREC   = Accurate
ENCUT  = 480
ISTART = 0
ISPIN  = 2
GGA    = RP

# =========================================================
# Ionic relaxation
# =========================================================
NSW    = 100
IBRION = 2
ISIF   = 2
POTIM  = 0.02

# =========================================================
# Electronic relaxation
# =========================================================
NELM   = 180
ISMEAR = 0
SIGMA  = 0.05
EDIFF  = 1e-5

# =========================================================
# Output files
# =========================================================
LCHARG = F
LWAVE  = F
LAECHG = F
LORBIT = 11

# =========================================================
# van der Waals correction
# =========================================================
IVDW   = 11

# =========================================================
# Real-space projection and parallelization
# =========================================================
LREAL      = A
LSCALAPACK = .FALSE.

# =========================================================
# Additional settings for NEB calculations
# =========================================================
# ICHAIN = 0
# IMAGES = 8
# LCLIMB = .TRUE.