EA26051 13.434 13.513 13.781 90.00 90.00
   1.00000000000000     
    13.4336599999999997    0.0000000000000000    0.0000000000000000
     0.0000000000000000   13.5125740000000008    0.0000000000000000
     0.0000000000000000    0.0000000000000000   13.7805479999999996
   W    B 
     1    24
Direct
  0.5000067632550388  0.4999904510450883  0.5000012213240891
  0.5241397393597899  0.4427760878568252  0.6642439527095966
  0.5589467403785233  0.3310800530317688  0.5055101376246435
  0.5848750739935163  0.3909863032812562  0.3881959058538942
  0.5879645745438673  0.5903714436946313  0.3755838856595626
  0.5643998500294832  0.6662074803564934  0.4843288351724458
  0.5266066070675792  0.5788927903373816  0.6552077798087925
  0.4410631799247322  0.6689102102695083  0.4944694316753966
  0.4758400981666125  0.5572185643566898  0.3357560771054569
  0.4734106793124389  0.4211122332342240  0.3447815216493065
  0.4356163823950572  0.3338038137818191  0.5156694173789925
  0.4120176288173098  0.4096782493047699  0.6244217208781594
  0.4151182213256935  0.6089741871557258  0.6118276069780239
  0.6261799791442606  0.5071736444479245  0.6340693225416328
  0.6198889040335708  0.3921991921525577  0.5974731338019648
  0.6585623774631186  0.4027520813337535  0.4855028270003698
  0.6625286945094401  0.4908553002463742  0.4043452426760516
  0.6616509612618221  0.5890133516974734  0.4737459425694059
  0.6240987504248244  0.6162569241184152  0.5832010414222926
  0.3414396933827339  0.5973029501701316  0.5145146741916771
  0.3800740372198427  0.6077820650368683  0.4025248060554072
  0.3738054131455105  0.4928251019634838  0.3659656032582952
  0.3759369955844801  0.3837186263618842  0.4168009905682601
  0.3383734130679997  0.4109719599403883  0.5262437473508322
  0.3374562421927514  0.5091439348245506  0.5956161747454485
 
  0.00000000E+00  0.00000000E+00  0.00000000E+00
  0.00000000E+00  0.00000000E+00  0.00000000E+00
  0.00000000E+00  0.00000000E+00  0.00000000E+00
  0.00000000E+00  0.00000000E+00  0.00000000E+00
  0.00000000E+00  0.00000000E+00  0.00000000E+00
  0.00000000E+00  0.00000000E+00  0.00000000E+00
  0.00000000E+00  0.00000000E+00  0.00000000E+00
  0.00000000E+00  0.00000000E+00  0.00000000E+00
  0.00000000E+00  0.00000000E+00  0.00000000E+00
  0.00000000E+00  0.00000000E+00  0.00000000E+00
  0.00000000E+00  0.00000000E+00  0.00000000E+00
  0.00000000E+00  0.00000000E+00  0.00000000E+00
  0.00000000E+00  0.00000000E+00  0.00000000E+00
  0.00000000E+00  0.00000000E+00  0.00000000E+00
  0.00000000E+00  0.00000000E+00  0.00000000E+00
  0.00000000E+00  0.00000000E+00  0.00000000E+00
  0.00000000E+00  0.00000000E+00  0.00000000E+00
  0.00000000E+00  0.00000000E+00  0.00000000E+00
  0.00000000E+00  0.00000000E+00  0.00000000E+00
  0.00000000E+00  0.00000000E+00  0.00000000E+00
  0.00000000E+00  0.00000000E+00  0.00000000E+00
  0.00000000E+00  0.00000000E+00  0.00000000E+00
  0.00000000E+00  0.00000000E+00  0.00000000E+00
  0.00000000E+00  0.00000000E+00  0.00000000E+00
  0.00000000E+00  0.00000000E+00  0.00000000E+00
