EA27920 13.732 13.569 10.931 90.00 90.00
   1.00000000000000     
    13.7315489999999993    0.0000000000000000    0.0000000000000000
     0.0000000000000000   13.5687300000000004    0.0000000000000000
     0.0000000000000000    0.0000000000000000   10.9309860000000008
   W    B 
     1    16
Direct
  0.4999905123297463  0.5000385854121684  0.5097188080338332
  0.5637238747021502  0.6436966780172092  0.5735086439498138
  0.4430557286238234  0.6530859482765397  0.5688817339735057
  0.6440734459736980  0.5539389775005872  0.5747973729230962
  0.6435315931513602  0.4315611907146381  0.5722650297597448
  0.6579425419016461  0.4973898080558395  0.4272340847766988
  0.5087831215254146  0.6524333781539617  0.4229277644654728
  0.3990427471093420  0.6081542104923205  0.4217652213969177
  0.6207567279035269  0.6110248756812535  0.4303243080260178
  0.4363283834316880  0.3567613301964666  0.5749739370795290
  0.5570069243348771  0.3473412301438135  0.5702423006320613
  0.3559974447885880  0.4465216513130196  0.5755135931915157
  0.3565417405860558  0.5688876412173706  0.5717863089872416
  0.4911457360039074  0.3470881198304719  0.4244170762090328
  0.3791945076050647  0.3885530941160104  0.4315380538335152
  0.3419886467558538  0.5021723311180628  0.4274391440399893
  0.6008963232732575  0.3913519497602497  0.4226646187220047
 
  0.00000000E+00  0.00000000E+00  0.00000000E+00
  0.00000000E+00  0.00000000E+00  0.00000000E+00
  0.00000000E+00  0.00000000E+00  0.00000000E+00
  0.00000000E+00  0.00000000E+00  0.00000000E+00
  0.00000000E+00  0.00000000E+00  0.00000000E+00
  0.00000000E+00  0.00000000E+00  0.00000000E+00
  0.00000000E+00  0.00000000E+00  0.00000000E+00
  0.00000000E+00  0.00000000E+00  0.00000000E+00
  0.00000000E+00  0.00000000E+00  0.00000000E+00
  0.00000000E+00  0.00000000E+00  0.00000000E+00
  0.00000000E+00  0.00000000E+00  0.00000000E+00
  0.00000000E+00  0.00000000E+00  0.00000000E+00
  0.00000000E+00  0.00000000E+00  0.00000000E+00
  0.00000000E+00  0.00000000E+00  0.00000000E+00
  0.00000000E+00  0.00000000E+00  0.00000000E+00
  0.00000000E+00  0.00000000E+00  0.00000000E+00
  0.00000000E+00  0.00000000E+00  0.00000000E+00
