EA39972 13.076 12.869 10.821 90.00 90.00
   1.00000000000000     
    13.0757340000000006    0.0000000000000000    0.0000000000000000
     0.0000000000000000   12.8688520000000004    0.0000000000000000
     0.0000000000000000    0.0000000000000000   10.8214319999999997
   W    B 
     1     9
Direct
  0.4991223066077246  0.5068403621459557  0.3768140878785701
  0.5631966724561471  0.4876296090965376  0.5927129191325695
  0.6103062841622708  0.4098153953300583  0.4754934367280966
  0.3840910217118239  0.4176438748714921  0.4792853149775210
  0.5639132823039771  0.6200473935318555  0.5049724460575831
  0.6450605435569819  0.5290239699193783  0.4851514510779633
  0.4384277740531630  0.4943407185305877  0.5944611760368874
  0.3565121011569202  0.5387069196900912  0.4891274477625456
  0.4434269269293705  0.6246341739450298  0.5053560959387970
  0.4959430870616277  0.3713185829390042  0.4966256244094668
 
  0.00000000E+00  0.00000000E+00  0.00000000E+00
  0.00000000E+00  0.00000000E+00  0.00000000E+00
  0.00000000E+00  0.00000000E+00  0.00000000E+00
  0.00000000E+00  0.00000000E+00  0.00000000E+00
  0.00000000E+00  0.00000000E+00  0.00000000E+00
  0.00000000E+00  0.00000000E+00  0.00000000E+00
  0.00000000E+00  0.00000000E+00  0.00000000E+00
  0.00000000E+00  0.00000000E+00  0.00000000E+00
  0.00000000E+00  0.00000000E+00  0.00000000E+00
  0.00000000E+00  0.00000000E+00  0.00000000E+00
