EA27692 13.843 13.855 12.135 90.00 90.00
   1.00000000000000     
    13.8432779999999998    0.0000000000000000    0.0000000000000000
     0.0000000000000000   13.8547490000000000    0.0000000000000000
     0.0000000000000000    0.0000000000000000   12.1353860000000005
   W    B 
     1    20
Direct
  0.4975442142280463  0.4994513325057360  0.4774609936150933
  0.5836844914992436  0.6486574666982209  0.5450167621477789
  0.3652397383905820  0.6039582275092981  0.5570090529018867
  0.4682597321974997  0.6547289633296342  0.5634082150255681
  0.5434426225957564  0.4461139098135981  0.6370371593333394
  0.5407484770138536  0.5619537931417289  0.6337642578590091
  0.4737657326591844  0.3473108709512624  0.5723454752261488
  0.5888755650616065  0.3567278616831118  0.5537332709441115
  0.6608357032955950  0.4460326149115653  0.5422623485507249
  0.6586497902752647  0.5614701561398214  0.5389641729385950
  0.3249020363765346  0.4980079929459381  0.5565817640031975
  0.3689031733621796  0.3936916419473616  0.5628715303986119
  0.4067693106450616  0.6417407741097917  0.4220622027396966
  0.6235810318835029  0.3898346859991569  0.4123589126581089
  0.4120737161222456  0.3517484652267509  0.4301446574945165
  0.5247297774550372  0.3310930769213709  0.4258531257602578
  0.6539231910343195  0.5004110239031089  0.3977768589087715
  0.6193800653234676  0.6102508821730378  0.4056645858263586
  0.5186327222700795  0.6662175168263060  0.4160902983165222
  0.3320050263973540  0.5532892548929005  0.4231606248286380
  0.3340538819135714  0.4373104883703039  0.4264327305230317
 
  0.00000000E+00  0.00000000E+00  0.00000000E+00
  0.00000000E+00  0.00000000E+00  0.00000000E+00
  0.00000000E+00  0.00000000E+00  0.00000000E+00
  0.00000000E+00  0.00000000E+00  0.00000000E+00
  0.00000000E+00  0.00000000E+00  0.00000000E+00
  0.00000000E+00  0.00000000E+00  0.00000000E+00
  0.00000000E+00  0.00000000E+00  0.00000000E+00
  0.00000000E+00  0.00000000E+00  0.00000000E+00
  0.00000000E+00  0.00000000E+00  0.00000000E+00
  0.00000000E+00  0.00000000E+00  0.00000000E+00
  0.00000000E+00  0.00000000E+00  0.00000000E+00
  0.00000000E+00  0.00000000E+00  0.00000000E+00
  0.00000000E+00  0.00000000E+00  0.00000000E+00
  0.00000000E+00  0.00000000E+00  0.00000000E+00
  0.00000000E+00  0.00000000E+00  0.00000000E+00
  0.00000000E+00  0.00000000E+00  0.00000000E+00
  0.00000000E+00  0.00000000E+00  0.00000000E+00
  0.00000000E+00  0.00000000E+00  0.00000000E+00
  0.00000000E+00  0.00000000E+00  0.00000000E+00
  0.00000000E+00  0.00000000E+00  0.00000000E+00
  0.00000000E+00  0.00000000E+00  0.00000000E+00
