EA26180 13.876 14.177 13.233 90.00 90.00
   1.00000000000000     
    13.8756170000000001    0.0000000000000000    0.0000000000000000
     0.0000000000000000   14.1772600000000004    0.0000000000000000
     0.0000000000000000    0.0000000000000000   13.2330590000000008
   W    B 
     1    22
Direct
  0.5000460583049215  0.5000179461935955  0.4835481883686123
  0.6659750820053718  0.5087318070180274  0.4774892300007327
  0.3834706897672668  0.3973217823504990  0.5489680177226141
  0.5057775993592879  0.3618161057199408  0.5820343527945466
  0.6318422875259400  0.4056175878608384  0.5455586304671044
  0.4645560498164000  0.4505645102264502  0.6523033656485649
  0.6420241847850520  0.5033917739863875  0.6056741139974374
  0.6338185957907324  0.4063150668344837  0.4090552182534064
  0.6360389958123975  0.5029914832797121  0.3493067928646476
  0.3827121680867438  0.3982794790480004  0.3971417727474643
  0.4483947959376058  0.3298090393174360  0.4686926168988784
  0.5660031927158108  0.3326880036263861  0.4734594550125362
  0.5347649673336313  0.5495275441286790  0.6524363411703356
  0.4938286868750964  0.6382099569558627  0.5818869950776970
  0.6162729927294918  0.6027025357438123  0.5494729515419586
  0.3646153525699921  0.4969038027002749  0.3486656049399858
  0.3341175168644229  0.4912623475045310  0.4766966948710888
  0.3575316426149738  0.4966892621835093  0.6049866297263389
  0.4341309336189530  0.6672973976764842  0.4729870996623171
  0.3679823607555286  0.5944224925653572  0.5448363742727824
  0.3665955326260927  0.5936194335724087  0.4083282792410748
  0.6177543904272176  0.6016517111623666  0.3976571582392944
  0.5517459236770557  0.6701659303449430  0.4688131164805618
 
  0.00000000E+00  0.00000000E+00  0.00000000E+00
  0.00000000E+00  0.00000000E+00  0.00000000E+00
  0.00000000E+00  0.00000000E+00  0.00000000E+00
  0.00000000E+00  0.00000000E+00  0.00000000E+00
  0.00000000E+00  0.00000000E+00  0.00000000E+00
  0.00000000E+00  0.00000000E+00  0.00000000E+00
  0.00000000E+00  0.00000000E+00  0.00000000E+00
  0.00000000E+00  0.00000000E+00  0.00000000E+00
  0.00000000E+00  0.00000000E+00  0.00000000E+00
  0.00000000E+00  0.00000000E+00  0.00000000E+00
  0.00000000E+00  0.00000000E+00  0.00000000E+00
  0.00000000E+00  0.00000000E+00  0.00000000E+00
  0.00000000E+00  0.00000000E+00  0.00000000E+00
  0.00000000E+00  0.00000000E+00  0.00000000E+00
  0.00000000E+00  0.00000000E+00  0.00000000E+00
  0.00000000E+00  0.00000000E+00  0.00000000E+00
  0.00000000E+00  0.00000000E+00  0.00000000E+00
  0.00000000E+00  0.00000000E+00  0.00000000E+00
  0.00000000E+00  0.00000000E+00  0.00000000E+00
  0.00000000E+00  0.00000000E+00  0.00000000E+00
  0.00000000E+00  0.00000000E+00  0.00000000E+00
  0.00000000E+00  0.00000000E+00  0.00000000E+00
  0.00000000E+00  0.00000000E+00  0.00000000E+00
