EA27847 14.064 11.828 14.078 90.00 90.00
   1.00000000000000     
    14.0643890000000003    0.0000000000000000    0.0000000000000000
     0.0000000000000000   11.8284649999999996    0.0000000000000000
     0.0000000000000000    0.0000000000000000   14.0783480000000001
   W    B 
     1    18
Direct
  0.5001620690718648  0.4998619832431069  0.4948932967747454
  0.6735082233512512  0.4973253641855374  0.5578729098014386
  0.6558609046571982  0.5677383632172773  0.4463385286751723
  0.6246602268765421  0.6176428986871453  0.5618233807878559
  0.6497652072812248  0.4326356076107577  0.4444082617940599
  0.5813677958275445  0.3250955149391853  0.4496584769752222
  0.6331138403381920  0.3697037005760742  0.5595635800950414
  0.5299314394816383  0.3174145205443608  0.5654860666449500
  0.4705242316766312  0.2972452116395909  0.4521798722699090
  0.4185542295502420  0.3483595691779616  0.5637743717904002
  0.3728980300356383  0.3681611460068188  0.4444950442687207
  0.3427809989333195  0.4963901357664015  0.4328826372233994
  0.3818292930351295  0.6245028961269028  0.4322920821370907
  0.3321380328962300  0.5743921139951499  0.5433170007504647
  0.3369371622320196  0.4394238710813194  0.5500615647577731
  0.5880932423284361  0.6753205344848684  0.4485438064065806
  0.4750637425500693  0.6983850038832486  0.4422566686844928
  0.5225050836159388  0.6784266587643820  0.5612243872934826
  0.4103082462608920  0.6719789060698945  0.5489290628692045
 
  0.00000000E+00  0.00000000E+00  0.00000000E+00
  0.00000000E+00  0.00000000E+00  0.00000000E+00
  0.00000000E+00  0.00000000E+00  0.00000000E+00
  0.00000000E+00  0.00000000E+00  0.00000000E+00
  0.00000000E+00  0.00000000E+00  0.00000000E+00
  0.00000000E+00  0.00000000E+00  0.00000000E+00
  0.00000000E+00  0.00000000E+00  0.00000000E+00
  0.00000000E+00  0.00000000E+00  0.00000000E+00
  0.00000000E+00  0.00000000E+00  0.00000000E+00
  0.00000000E+00  0.00000000E+00  0.00000000E+00
  0.00000000E+00  0.00000000E+00  0.00000000E+00
  0.00000000E+00  0.00000000E+00  0.00000000E+00
  0.00000000E+00  0.00000000E+00  0.00000000E+00
  0.00000000E+00  0.00000000E+00  0.00000000E+00
  0.00000000E+00  0.00000000E+00  0.00000000E+00
  0.00000000E+00  0.00000000E+00  0.00000000E+00
  0.00000000E+00  0.00000000E+00  0.00000000E+00
  0.00000000E+00  0.00000000E+00  0.00000000E+00
  0.00000000E+00  0.00000000E+00  0.00000000E+00
