EA39716 12.422 11.111 11.179 90.00 90.00
   1.00000000000000     
    12.4219410000000003    0.0000000000000000    0.0000000000000000
     0.0000000000000000   11.1111839999999997    0.0000000000000000
     0.0000000000000000    0.0000000000000000   11.1792750000000005
   W    B 
     2     4
Direct
  0.4936095540642801  0.3835182249849503  0.4586252081062834
  0.4999296756959655  0.4995423562892152  0.6230166722985002
  0.6341250790128916  0.4717791248283119  0.5127960635865271
  0.3638309346134277  0.4908352613589302  0.5132720036282026
  0.4421727694637803  0.5813665273122383  0.4460325869831164
  0.5663309871496571  0.5729585052263538  0.4462574653973633
 
  0.00000000E+00  0.00000000E+00  0.00000000E+00
  0.00000000E+00  0.00000000E+00  0.00000000E+00
  0.00000000E+00  0.00000000E+00  0.00000000E+00
  0.00000000E+00  0.00000000E+00  0.00000000E+00
  0.00000000E+00  0.00000000E+00  0.00000000E+00
  0.00000000E+00  0.00000000E+00  0.00000000E+00
