EA27896 13.659 13.681 12.686 90.00 90.00
   1.00000000000000     
    13.6587779999999999    0.0000000000000000    0.0000000000000000
     0.0000000000000000   13.6812380000000005    0.0000000000000000
     0.0000000000000000    0.0000000000000000   12.6864760000000008
   W    B 
     2    16
Direct
  0.4990906179697376  0.5009819739379209  0.5346708355714801
  0.5037654725845835  0.4958784066187045  0.3564230301114979
  0.4549724817774483  0.3518583818197903  0.4461054789292101
  0.6215221798297139  0.3984581429607892  0.5781354765640495
  0.5119635400074666  0.3416855655474082  0.5767741632422172
  0.5723255990788495  0.3620856166833045  0.4492768182657446
  0.6481693607202086  0.4520915831827977  0.4485823025579227
  0.6381516168203547  0.5692319787342797  0.4444614546263361
  0.6587752084611974  0.5159263424616505  0.5754694004647960
  0.6019296952674557  0.6252294361840476  0.5701935427704758
  0.3747238108346928  0.6056182937814941  0.5636864391090757
  0.3943292989955848  0.3788420039525351  0.5720388310553037
  0.3648759974588364  0.4274742568672674  0.4408220487265408
  0.3548493341663799  0.5446290586604129  0.4365247626097686
  0.3374745631994809  0.4881371251657121  0.5665548227191018
  0.4842986636473199  0.6623938824775485  0.5652327101519845
  0.4307171871537285  0.6346373509321769  0.4358635858317250
  0.5480683720269744  0.6448416000321574  0.4391812966927633
 
  0.00000000E+00  0.00000000E+00  0.00000000E+00
  0.00000000E+00  0.00000000E+00  0.00000000E+00
  0.00000000E+00  0.00000000E+00  0.00000000E+00
  0.00000000E+00  0.00000000E+00  0.00000000E+00
  0.00000000E+00  0.00000000E+00  0.00000000E+00
  0.00000000E+00  0.00000000E+00  0.00000000E+00
  0.00000000E+00  0.00000000E+00  0.00000000E+00
  0.00000000E+00  0.00000000E+00  0.00000000E+00
  0.00000000E+00  0.00000000E+00  0.00000000E+00
  0.00000000E+00  0.00000000E+00  0.00000000E+00
  0.00000000E+00  0.00000000E+00  0.00000000E+00
  0.00000000E+00  0.00000000E+00  0.00000000E+00
  0.00000000E+00  0.00000000E+00  0.00000000E+00
  0.00000000E+00  0.00000000E+00  0.00000000E+00
  0.00000000E+00  0.00000000E+00  0.00000000E+00
  0.00000000E+00  0.00000000E+00  0.00000000E+00
  0.00000000E+00  0.00000000E+00  0.00000000E+00
  0.00000000E+00  0.00000000E+00  0.00000000E+00
