EA39973 11.371 13.067 12.661 90.00 90.00
   1.00000000000000     
    11.3711350000000007    0.0000000000000000    0.0000000000000000
     0.0000000000000000   13.0672060000000005    0.0000000000000000
     0.0000000000000000    0.0000000000000000   12.6612030000000004
   W    B 
     2     8
Direct
  0.4952702914969772  0.5070796137690200  0.5892854962673820
  0.5047283866232712  0.4929244100563061  0.4107210913213017
  0.6794075689157748  0.5035608715289348  0.5072728081809049
  0.6293550513396998  0.3924938813320088  0.5145119953181767
  0.5034625493540812  0.3443010599556947  0.5132640575925670
  0.6243642435493042  0.6126903691677371  0.4957077587044444
  0.4965593669119787  0.6556914156773885  0.4867322460230061
  0.3706577268223447  0.6075237990270816  0.4855228328542598
  0.3756045787794668  0.3873173064853584  0.5042468005061508
  0.3205902362071013  0.4964182730004817  0.4927349132318136
 
  0.00000000E+00  0.00000000E+00  0.00000000E+00
  0.00000000E+00  0.00000000E+00  0.00000000E+00
  0.00000000E+00  0.00000000E+00  0.00000000E+00
  0.00000000E+00  0.00000000E+00  0.00000000E+00
  0.00000000E+00  0.00000000E+00  0.00000000E+00
  0.00000000E+00  0.00000000E+00  0.00000000E+00
  0.00000000E+00  0.00000000E+00  0.00000000E+00
  0.00000000E+00  0.00000000E+00  0.00000000E+00
  0.00000000E+00  0.00000000E+00  0.00000000E+00
  0.00000000E+00  0.00000000E+00  0.00000000E+00
