EA39782 12.320 11.797 11.272 90.00 90.00
   1.00000000000000     
    12.3203849999999999    0.0000000000000000    0.0000000000000000
     0.0000000000000000   11.7965079999999993    0.0000000000000000
     0.0000000000000000    0.0000000000000000   11.2723350000000000
   W    B 
     3     2
Direct
  0.5075911356652649  0.6106543182844236  0.5435191125749528
  0.4907561180207440  0.5107655592380757  0.3769389940983872
  0.6369558836494100  0.4689638456601992  0.5039685542506573
  0.4865985507862762  0.4184497962975638  0.5548427919373872
  0.3780973118783146  0.4911664805197451  0.5207285471386205
 
  0.00000000E+00  0.00000000E+00  0.00000000E+00
  0.00000000E+00  0.00000000E+00  0.00000000E+00
  0.00000000E+00  0.00000000E+00  0.00000000E+00
  0.00000000E+00  0.00000000E+00  0.00000000E+00
  0.00000000E+00  0.00000000E+00  0.00000000E+00
