EA25921 16.005 13.869 13.471 90.00 90.00
   1.00000000000000     
    16.0046250000000008    0.0000000000000000    0.0000000000000000
     0.0000000000000000   13.8686710000000009    0.0000000000000000
     0.0000000000000000    0.0000000000000000   13.4705110000000001
   W    B 
     3    24
Direct
  0.3874771607486180  0.5717295637782219  0.5229330083483475
  0.4142585573212889  0.3835215952167359  0.5453458986266349
  0.5463270745968666  0.4967672995269858  0.5009951167261580
  0.3148794002024988  0.4791759438214204  0.6300124581901854
  0.2721167224470838  0.4810391664894921  0.5235107964488744
  0.2830753973667621  0.5513382802038044  0.4218389987611266
  0.3304896901355852  0.4441356976669110  0.4253828529881524
  0.3639141949356287  0.5365583282961143  0.3513664139606823
  0.4652208183584944  0.5723864065601374  0.3598784171970036
  0.4277106962873390  0.4390116940119533  0.3811862373795141
  0.4939288340676277  0.6559156638967206  0.4462430678883804
  0.5678399364149754  0.6043510421393680  0.3706896279960230
  0.4934212546531818  0.3561002203734101  0.4019114910763688
  0.5922245783895911  0.6519031684346777  0.4941184709008415
  0.5904792369720869  0.6170284735745347  0.6232685674476270
  0.6569710587146637  0.5656941438758055  0.4224939890618469
  0.6697729385363984  0.5865791077796849  0.5561924109686122
  0.6964810584736716  0.4840089797802423  0.5157013258398425
  0.5966368635522432  0.3592391104485065  0.4025671351276173
  0.6412490863173538  0.3747254226575845  0.5240162416251072
  0.6644206291568698  0.4407300094024758  0.4082870617060824
  0.5024208261437777  0.6543981355104627  0.5675346835206485
  0.5684347785481048  0.3679381264693039  0.6153615017243076
  0.4985589523906458  0.5682571720151465  0.6553485670737393
  0.5071140280374558  0.4449431054979426  0.6633700959761621
  0.4105017079615969  0.4899421674037133  0.6673072621617546
  0.5440745192695756  0.3225819751686598  0.5031383012783522
 
  0.00000000E+00  0.00000000E+00  0.00000000E+00
  0.00000000E+00  0.00000000E+00  0.00000000E+00
  0.00000000E+00  0.00000000E+00  0.00000000E+00
  0.00000000E+00  0.00000000E+00  0.00000000E+00
  0.00000000E+00  0.00000000E+00  0.00000000E+00
  0.00000000E+00  0.00000000E+00  0.00000000E+00
  0.00000000E+00  0.00000000E+00  0.00000000E+00
  0.00000000E+00  0.00000000E+00  0.00000000E+00
  0.00000000E+00  0.00000000E+00  0.00000000E+00
  0.00000000E+00  0.00000000E+00  0.00000000E+00
  0.00000000E+00  0.00000000E+00  0.00000000E+00
  0.00000000E+00  0.00000000E+00  0.00000000E+00
  0.00000000E+00  0.00000000E+00  0.00000000E+00
  0.00000000E+00  0.00000000E+00  0.00000000E+00
  0.00000000E+00  0.00000000E+00  0.00000000E+00
  0.00000000E+00  0.00000000E+00  0.00000000E+00
  0.00000000E+00  0.00000000E+00  0.00000000E+00
  0.00000000E+00  0.00000000E+00  0.00000000E+00
  0.00000000E+00  0.00000000E+00  0.00000000E+00
  0.00000000E+00  0.00000000E+00  0.00000000E+00
  0.00000000E+00  0.00000000E+00  0.00000000E+00
  0.00000000E+00  0.00000000E+00  0.00000000E+00
  0.00000000E+00  0.00000000E+00  0.00000000E+00
  0.00000000E+00  0.00000000E+00  0.00000000E+00
  0.00000000E+00  0.00000000E+00  0.00000000E+00
  0.00000000E+00  0.00000000E+00  0.00000000E+00
  0.00000000E+00  0.00000000E+00  0.00000000E+00
