EA38521 14.500 13.747 11.844 90.00 90.00
   1.00000000000000     
    14.5000409999999995    0.0000000000000000    0.0000000000000000
     0.0000000000000000   13.7469719999999995    0.0000000000000000
     0.0000000000000000    0.0000000000000000   11.8440370000000001
   W    B 
     3    14
Direct
  0.4951448290996283  0.4999042685380001  0.5563009449668721
  0.5850188498535542  0.4008276657459391  0.4037132872804667
  0.5845982234827669  0.5998628868658411  0.4041431324757748
  0.3694172784804864  0.3955481902254826  0.5476076636043256
  0.3693728270399816  0.4997946581160002  0.4450322976464973
  0.4328503503585212  0.3962462090418373  0.4170225374782932
  0.4324066984693036  0.6037008415227384  0.4174789469241881
  0.4682181011755708  0.5001510401524993  0.3599925787085866
  0.3690019418071528  0.6037021840329758  0.5480986181331862
  0.3326738683344027  0.4994569699414546  0.5861360022707314
  0.4682901693728937  0.6658243675175641  0.5317033963265687
  0.4689876356422731  0.3339538132573585  0.5309946765202497
  0.5730935901373656  0.3480723234587824  0.5766617042639978
  0.6459691932425040  0.4355136117697747  0.5699032131803746
  0.6456927163498236  0.5649167802575368  0.5701743155676684
  0.5724675814795296  0.6520256835973915  0.5772902473744318
  0.6867931456742353  0.5005005059588254  0.4577454372777822
 
  0.00000000E+00  0.00000000E+00  0.00000000E+00
  0.00000000E+00  0.00000000E+00  0.00000000E+00
  0.00000000E+00  0.00000000E+00  0.00000000E+00
  0.00000000E+00  0.00000000E+00  0.00000000E+00
  0.00000000E+00  0.00000000E+00  0.00000000E+00
  0.00000000E+00  0.00000000E+00  0.00000000E+00
  0.00000000E+00  0.00000000E+00  0.00000000E+00
  0.00000000E+00  0.00000000E+00  0.00000000E+00
  0.00000000E+00  0.00000000E+00  0.00000000E+00
  0.00000000E+00  0.00000000E+00  0.00000000E+00
  0.00000000E+00  0.00000000E+00  0.00000000E+00
  0.00000000E+00  0.00000000E+00  0.00000000E+00
  0.00000000E+00  0.00000000E+00  0.00000000E+00
  0.00000000E+00  0.00000000E+00  0.00000000E+00
  0.00000000E+00  0.00000000E+00  0.00000000E+00
  0.00000000E+00  0.00000000E+00  0.00000000E+00
  0.00000000E+00  0.00000000E+00  0.00000000E+00
