EA38656 13.243 13.389 12.810 90.00 90.00
   1.00000000000000     
    13.2429009999999998    0.0000000000000000    0.0000000000000000
     0.0000000000000000   13.3891410000000004    0.0000000000000000
     0.0000000000000000    0.0000000000000000   12.8102940000000007
   W    B 
     3    12
Direct
  0.5279850692071100  0.3836334777144848  0.4959977734513600
  0.5878925472567272  0.5822412273981513  0.4993676521125819
  0.3841124067125609  0.5341385594155628  0.5046849542022463
  0.4786038743974318  0.5752912568457095  0.3661954683690776
  0.4415038584235951  0.4525165197585609  0.3641507275964112
  0.5674917935193788  0.4822126660051309  0.3608010748997028
  0.4868442525578861  0.5686111255104654  0.6387883252960738
  0.4497920864677327  0.4457993946544967  0.6367338434022862
  0.5757971921851559  0.4755312310896526  0.6334124164776176
  0.3702335459463434  0.3819064716156931  0.4387916151948750
  0.6666917326170316  0.4518243114571347  0.4309640264184249
  0.4574180333032323  0.6708450250959997  0.4436595396075457
  0.3740173239371418  0.3788480041769281  0.5631450278811633
  0.6705058268648459  0.4488197872007707  0.5553102117048769
  0.4611104566038192  0.6677789420612639  0.5679983433857544
 
  0.00000000E+00  0.00000000E+00  0.00000000E+00
  0.00000000E+00  0.00000000E+00  0.00000000E+00
  0.00000000E+00  0.00000000E+00  0.00000000E+00
  0.00000000E+00  0.00000000E+00  0.00000000E+00
  0.00000000E+00  0.00000000E+00  0.00000000E+00
  0.00000000E+00  0.00000000E+00  0.00000000E+00
  0.00000000E+00  0.00000000E+00  0.00000000E+00
  0.00000000E+00  0.00000000E+00  0.00000000E+00
  0.00000000E+00  0.00000000E+00  0.00000000E+00
  0.00000000E+00  0.00000000E+00  0.00000000E+00
  0.00000000E+00  0.00000000E+00  0.00000000E+00
  0.00000000E+00  0.00000000E+00  0.00000000E+00
  0.00000000E+00  0.00000000E+00  0.00000000E+00
  0.00000000E+00  0.00000000E+00  0.00000000E+00
  0.00000000E+00  0.00000000E+00  0.00000000E+00
