EA26123 14.899 13.796 13.266 90.00 90.00
   1.00000000000000     
    14.8993620000000000    0.0000000000000000    0.0000000000000000
     0.0000000000000000   13.7961880000000008    0.0000000000000000
     0.0000000000000000    0.0000000000000000   13.2657380000000007
   W    B 
     3    21
Direct
  0.4151393724507617  0.6276114438345057  0.4285975129746514
  0.3853442100436840  0.3530950293297981  0.4623671678719520
  0.5259077052747765  0.4997061501656145  0.5098693862609460
  0.3141576442267103  0.4983675167770832  0.4402252526099050
  0.3960073342912019  0.4772842179575809  0.3611136033771762
  0.4012595603582926  0.6314770100139849  0.5994642623927228
  0.4984513027493518  0.5187002858353500  0.3305952029572972
  0.4890685128146213  0.4049409097636072  0.3662283583399367
  0.3222715187146717  0.5741344586775735  0.5374613307824987
  0.3176195210828884  0.4491740715780113  0.5569627352808857
  0.4070361120502845  0.4027364723107603  0.6161501774862420
  0.3876325802045579  0.5183464687048568  0.6331950118878961
  0.5373185430882397  0.3343136033449813  0.4590829730018872
  0.5940822751506243  0.3449552464140286  0.5781432700499071
  0.4870704639734808  0.3275292431755582  0.5779940803904972
  0.6639802052468997  0.5467577316369215  0.5889251856469739
  0.6399401974358966  0.3831312382004965  0.4644123294900651
  0.5573097601864809  0.6709672665806881  0.4636021264006915
  0.6048936822694455  0.6431857870434502  0.5773003563936170
  0.5634740845222327  0.6014169810582237  0.3657609767721035
  0.6819251651307250  0.4878112285886634  0.4668137168917963
  0.6648586944605694  0.4316877192056899  0.5862440296464833
  0.4985849906992401  0.6735639072684979  0.5713866430156852
  0.6466655635743505  0.5991080125340688  0.4581033100781849
 
  0.00000000E+00  0.00000000E+00  0.00000000E+00
  0.00000000E+00  0.00000000E+00  0.00000000E+00
  0.00000000E+00  0.00000000E+00  0.00000000E+00
  0.00000000E+00  0.00000000E+00  0.00000000E+00
  0.00000000E+00  0.00000000E+00  0.00000000E+00
  0.00000000E+00  0.00000000E+00  0.00000000E+00
  0.00000000E+00  0.00000000E+00  0.00000000E+00
  0.00000000E+00  0.00000000E+00  0.00000000E+00
  0.00000000E+00  0.00000000E+00  0.00000000E+00
  0.00000000E+00  0.00000000E+00  0.00000000E+00
  0.00000000E+00  0.00000000E+00  0.00000000E+00
  0.00000000E+00  0.00000000E+00  0.00000000E+00
  0.00000000E+00  0.00000000E+00  0.00000000E+00
  0.00000000E+00  0.00000000E+00  0.00000000E+00
  0.00000000E+00  0.00000000E+00  0.00000000E+00
  0.00000000E+00  0.00000000E+00  0.00000000E+00
  0.00000000E+00  0.00000000E+00  0.00000000E+00
  0.00000000E+00  0.00000000E+00  0.00000000E+00
  0.00000000E+00  0.00000000E+00  0.00000000E+00
  0.00000000E+00  0.00000000E+00  0.00000000E+00
  0.00000000E+00  0.00000000E+00  0.00000000E+00
  0.00000000E+00  0.00000000E+00  0.00000000E+00
  0.00000000E+00  0.00000000E+00  0.00000000E+00
  0.00000000E+00  0.00000000E+00  0.00000000E+00
