EA27609 14.917 14.338 13.238 90.00 90.00
   1.00000000000000     
    14.9172999999999991    0.0000000000000000    0.0000000000000000
     0.0000000000000000   14.3378259999999997    0.0000000000000000
     0.0000000000000000    0.0000000000000000   13.2380770000000005
   W    B 
     4    19
Direct
  0.5137373552838356  0.5063632822624426  0.6231142345159597
  0.5943690320599037  0.6178157940919874  0.4596032366550469
  0.5381895655370024  0.3384693513896629  0.5726963517164406
  0.4554635969965524  0.4789450177349289  0.4524707598986255
  0.5985920139865165  0.6424307322451418  0.6219567964069916
  0.6606837805588105  0.5543718094617717  0.5948230462644543
  0.6826565271026031  0.5004289833879194  0.4855111339123075
  0.6513409863418745  0.4353369268973998  0.5909986159616407
  0.5644533023983509  0.3606347669567669  0.4093879868253724
  0.4682273564686278  0.3199978070907188  0.4243190435646073
  0.6524525369133801  0.3899150340314618  0.4738967063692769
  0.5466477576119728  0.5452711262267210  0.3182874762448552
  0.4665903890596240  0.6114954386388924  0.3523082370407779
  0.6105203226730032  0.4757208297491626  0.3831455234383400
  0.3630830007747923  0.5030729144295160  0.6001535311029256
  0.3658117887321905  0.6049080361088470  0.4220962725028534
  0.3071055387842177  0.5275230202253698  0.4815590305888500
  0.3885474526433537  0.3354070128581645  0.5012068324507402
  0.4037228919830707  0.3955457628373550  0.6106059670217284
  0.3165951442446327  0.4215866958781489  0.5221455594494628
  0.5011215437839249  0.6651708063139345  0.5802921515523329
  0.4529180059009474  0.6653422929164818  0.4649383016180714
  0.3971691101607944  0.6042445582671875  0.5544832048983325
 
  0.00000000E+00  0.00000000E+00  0.00000000E+00
  0.00000000E+00  0.00000000E+00  0.00000000E+00
  0.00000000E+00  0.00000000E+00  0.00000000E+00
  0.00000000E+00  0.00000000E+00  0.00000000E+00
  0.00000000E+00  0.00000000E+00  0.00000000E+00
  0.00000000E+00  0.00000000E+00  0.00000000E+00
  0.00000000E+00  0.00000000E+00  0.00000000E+00
  0.00000000E+00  0.00000000E+00  0.00000000E+00
  0.00000000E+00  0.00000000E+00  0.00000000E+00
  0.00000000E+00  0.00000000E+00  0.00000000E+00
  0.00000000E+00  0.00000000E+00  0.00000000E+00
  0.00000000E+00  0.00000000E+00  0.00000000E+00
  0.00000000E+00  0.00000000E+00  0.00000000E+00
  0.00000000E+00  0.00000000E+00  0.00000000E+00
  0.00000000E+00  0.00000000E+00  0.00000000E+00
  0.00000000E+00  0.00000000E+00  0.00000000E+00
  0.00000000E+00  0.00000000E+00  0.00000000E+00
  0.00000000E+00  0.00000000E+00  0.00000000E+00
  0.00000000E+00  0.00000000E+00  0.00000000E+00
  0.00000000E+00  0.00000000E+00  0.00000000E+00
  0.00000000E+00  0.00000000E+00  0.00000000E+00
  0.00000000E+00  0.00000000E+00  0.00000000E+00
  0.00000000E+00  0.00000000E+00  0.00000000E+00
