EA27777 14.457 13.733 13.823 90.00 90.00
   1.00000000000000     
    14.4570039999999995    0.0000000000000000    0.0000000000000000
     0.0000000000000000   13.7327379999999994    0.0000000000000000
     0.0000000000000000    0.0000000000000000   13.8234410000000008
   W    B 
     4    16
Direct
  0.4183442979700120  0.6592638603069153  0.5165348445858096
  0.5289478643971388  0.4956500614484559  0.4548120058291603
  0.4765240076483744  0.5067640426151714  0.6202609680030510
  0.3946242383369390  0.3588983021869662  0.5284155761730015
  0.6596220755305106  0.5999617746957718  0.4782740871229990
  0.4851010513332160  0.6316100139121426  0.3703093615231128
  0.5734427525287712  0.6612971241980728  0.4316731887197673
  0.3941378508716090  0.5690616740797348  0.3900676813749752
  0.3447539274047336  0.5132355643512320  0.4900436393448384
  0.3839342284217857  0.4418852057015163  0.3950614129353463
  0.5607199970700624  0.6396012379217751  0.5582740171059603
  0.3327700673942706  0.5779426150482837  0.6025097438686308
  0.6416979650646870  0.3723097244810306  0.4871237920795681
  0.5466503370376458  0.3233506900368792  0.4449780529810013
  0.4637228473526220  0.3629855048040049  0.3809675384921406
  0.6843260295525584  0.4835513314289224  0.4914862733305827
  0.5384643836827839  0.3566158039914967  0.5694049606196708
  0.6197402478943459  0.4344237639542915  0.5936090380615063
  0.3235454500280611  0.4605770944732056  0.6071296963495997
  0.6289283804798775  0.5510176103641309  0.5890651214992750
 
  0.00000000E+00  0.00000000E+00  0.00000000E+00
  0.00000000E+00  0.00000000E+00  0.00000000E+00
  0.00000000E+00  0.00000000E+00  0.00000000E+00
  0.00000000E+00  0.00000000E+00  0.00000000E+00
  0.00000000E+00  0.00000000E+00  0.00000000E+00
  0.00000000E+00  0.00000000E+00  0.00000000E+00
  0.00000000E+00  0.00000000E+00  0.00000000E+00
  0.00000000E+00  0.00000000E+00  0.00000000E+00
  0.00000000E+00  0.00000000E+00  0.00000000E+00
  0.00000000E+00  0.00000000E+00  0.00000000E+00
  0.00000000E+00  0.00000000E+00  0.00000000E+00
  0.00000000E+00  0.00000000E+00  0.00000000E+00
  0.00000000E+00  0.00000000E+00  0.00000000E+00
  0.00000000E+00  0.00000000E+00  0.00000000E+00
  0.00000000E+00  0.00000000E+00  0.00000000E+00
  0.00000000E+00  0.00000000E+00  0.00000000E+00
  0.00000000E+00  0.00000000E+00  0.00000000E+00
  0.00000000E+00  0.00000000E+00  0.00000000E+00
  0.00000000E+00  0.00000000E+00  0.00000000E+00
  0.00000000E+00  0.00000000E+00  0.00000000E+00
