EA39836 13.193 13.193 11.569 90.00 90.00
   1.00000000000000     
    13.1927029999999998    0.0000000000000000    0.0000000000000000
     0.0000000000000000   13.1927029999999998    0.0000000000000000
     0.0000000000000000    0.0000000000000000   11.5688209999999998
   W    B 
     4     8
Direct
  0.5858499612844520  0.4755339611920623  0.6318329071392679
  0.5244929792569153  0.5858209393566535  0.3681499995842559
  0.4141586240215643  0.5245114689120662  0.6318167564214128
  0.4755245384365996  0.4141325664071471  0.3681781874340346
  0.3750722979119810  0.5355588216898967  0.4439565066905981
  0.4644204857812907  0.3750883779864881  0.5560566058031127
  0.6249308676686406  0.4644176118292448  0.4439840541527719
  0.5355715203888907  0.6249420009779230  0.5560081931766806
  0.3600357498539532  0.4220944509412397  0.5000775396458806
  0.5778939590187274  0.3600329771602421  0.4999769777052609
  0.6399614682475671  0.5779002926406641  0.5000523242304014
  0.4220855481294229  0.6399655309063751  0.4999099480163227
 
  0.00000000E+00  0.00000000E+00  0.00000000E+00
  0.00000000E+00  0.00000000E+00  0.00000000E+00
  0.00000000E+00  0.00000000E+00  0.00000000E+00
  0.00000000E+00  0.00000000E+00  0.00000000E+00
  0.00000000E+00  0.00000000E+00  0.00000000E+00
  0.00000000E+00  0.00000000E+00  0.00000000E+00
  0.00000000E+00  0.00000000E+00  0.00000000E+00
  0.00000000E+00  0.00000000E+00  0.00000000E+00
  0.00000000E+00  0.00000000E+00  0.00000000E+00
  0.00000000E+00  0.00000000E+00  0.00000000E+00
  0.00000000E+00  0.00000000E+00  0.00000000E+00
  0.00000000E+00  0.00000000E+00  0.00000000E+00
