EA39541 12.841 12.442 12.361 90.00 90.00
   1.00000000000000     
    12.8407049999999998    0.0000000000000000    0.0000000000000000
     0.0000000000000000   12.4422850000000000    0.0000000000000000
     0.0000000000000000    0.0000000000000000   12.3611380000000004
   W    B 
     4     4
Direct
  0.3371844187732758  0.4656073574194673  0.5237466783093678
  0.4736434598898843  0.3958510754935343  0.4176233310564982
  0.4879834973098551  0.4693919532792423  0.6319480143616032
  0.4369370680047938  0.6133392147897547  0.4651753129377887
  0.5502271120411392  0.6120321610802063  0.5813162160858639
  0.5355645819291867  0.5363229680961309  0.3609158581342091
  0.5880444512689801  0.3882907116477835  0.5323529875703475
  0.5904154107828850  0.5191635581938689  0.4869236015443165
 
  0.00000000E+00  0.00000000E+00  0.00000000E+00
  0.00000000E+00  0.00000000E+00  0.00000000E+00
  0.00000000E+00  0.00000000E+00  0.00000000E+00
  0.00000000E+00  0.00000000E+00  0.00000000E+00
  0.00000000E+00  0.00000000E+00  0.00000000E+00
  0.00000000E+00  0.00000000E+00  0.00000000E+00
  0.00000000E+00  0.00000000E+00  0.00000000E+00
  0.00000000E+00  0.00000000E+00  0.00000000E+00
