EA39837 13.835 13.984 11.450 90.00 90.00
   1.00000000000000     
    13.8353199999999994    0.0000000000000000    0.0000000000000000
     0.0000000000000000   13.9844580000000001    0.0000000000000000
     0.0000000000000000    0.0000000000000000   11.4498499999999996
   W    B 
     5     7
Direct
  0.4224452106575659  0.5361578167864911  0.3757004538591885
  0.4872918981312759  0.4840099330626458  0.5932179937530474
  0.4413389807490516  0.6690322409263146  0.5036489701367413
  0.6785683370824894  0.5277742657237711  0.5131644756185689
  0.5761889388545305  0.4458950792343224  0.3801216902571999
  0.5618762481400724  0.5973206639447208  0.4253032168714792
  0.3436797926945383  0.4496328206098977  0.5124945072607024
  0.3506603096176877  0.5591038013923427  0.5539887883756811
  0.4183838203428389  0.3670874457306498  0.4896696559972660
  0.5738733572175650  0.6244473772098644  0.5719824133659384
  0.5264043560159296  0.3409322102135603  0.5173977712851213
  0.6192897504964664  0.3986053451654147  0.5633110632190705
 
  0.00000000E+00  0.00000000E+00  0.00000000E+00
  0.00000000E+00  0.00000000E+00  0.00000000E+00
  0.00000000E+00  0.00000000E+00  0.00000000E+00
  0.00000000E+00  0.00000000E+00  0.00000000E+00
  0.00000000E+00  0.00000000E+00  0.00000000E+00
  0.00000000E+00  0.00000000E+00  0.00000000E+00
  0.00000000E+00  0.00000000E+00  0.00000000E+00
  0.00000000E+00  0.00000000E+00  0.00000000E+00
  0.00000000E+00  0.00000000E+00  0.00000000E+00
  0.00000000E+00  0.00000000E+00  0.00000000E+00
  0.00000000E+00  0.00000000E+00  0.00000000E+00
  0.00000000E+00  0.00000000E+00  0.00000000E+00
