EA25926 15.222 14.314 14.232 90.00 90.00
   1.00000000000000     
    15.2219599999999993    0.0000000000000000    0.0000000000000000
     0.0000000000000000   14.3139289999999999    0.0000000000000000
     0.0000000000000000    0.0000000000000000   14.2323509999999995
   W    B 
     5    22
Direct
  0.5177852401664235  0.6578037711199706  0.4082960210453584
  0.2911755408728036  0.5710983346913125  0.5358596436530160
  0.4448180060281060  0.4170181025217889  0.3805370644622731
  0.5403125984842136  0.4837519681626114  0.5195109835462621
  0.4438071421151144  0.6534609479726012  0.5635560864909305
  0.3249554421360907  0.4365442316408775  0.4781485308076219
  0.5962989204685242  0.3309344918181971  0.5471347865612247
  0.5226155757576213  0.5305026976460366  0.3239544341721399
  0.4209379701952726  0.5685322340538573  0.3387734634589600
  0.5788763291293341  0.3491804407474219  0.4246574195875746
  0.3358650407345184  0.4406269713296779  0.5935022782142845
  0.4130116177439374  0.3780462870487581  0.5300144050609552
  0.5904178538857948  0.4397582722366284  0.3585620691203691
  0.3726318806985908  0.6336016030214936  0.4273932312959290
  0.3382776578261363  0.5222893319703074  0.4025335058215322
  0.6215956982969925  0.5509201365723512  0.3767777607395164
  0.4959018503857326  0.3167468609464567  0.4907154373107245
  0.6495651632951630  0.6111962413045231  0.4673665153933244
  0.5874986184655597  0.6704624037325841  0.5450112129997781
  0.6669455381650152  0.3966882117398013  0.4939655854065060
  0.6629653471221492  0.5832832544064234  0.5833312790062101
  0.6945966490642024  0.5049044576557061  0.5108183015865786
  0.5044253974047547  0.3415877631541088  0.6073299803199472
  0.4452875722817072  0.4304542591858518  0.6442035947158575
  0.4882784270615954  0.5400016448168345  0.6629930946539512
  0.5705153523086557  0.6065705321943701  0.6413684117173345
  0.3806375699059699  0.5340365483094364  0.6436819028518416
 
  0.00000000E+00  0.00000000E+00  0.00000000E+00
  0.00000000E+00  0.00000000E+00  0.00000000E+00
  0.00000000E+00  0.00000000E+00  0.00000000E+00
  0.00000000E+00  0.00000000E+00  0.00000000E+00
  0.00000000E+00  0.00000000E+00  0.00000000E+00
  0.00000000E+00  0.00000000E+00  0.00000000E+00
  0.00000000E+00  0.00000000E+00  0.00000000E+00
  0.00000000E+00  0.00000000E+00  0.00000000E+00
  0.00000000E+00  0.00000000E+00  0.00000000E+00
  0.00000000E+00  0.00000000E+00  0.00000000E+00
  0.00000000E+00  0.00000000E+00  0.00000000E+00
  0.00000000E+00  0.00000000E+00  0.00000000E+00
  0.00000000E+00  0.00000000E+00  0.00000000E+00
  0.00000000E+00  0.00000000E+00  0.00000000E+00
  0.00000000E+00  0.00000000E+00  0.00000000E+00
  0.00000000E+00  0.00000000E+00  0.00000000E+00
  0.00000000E+00  0.00000000E+00  0.00000000E+00
  0.00000000E+00  0.00000000E+00  0.00000000E+00
  0.00000000E+00  0.00000000E+00  0.00000000E+00
  0.00000000E+00  0.00000000E+00  0.00000000E+00
  0.00000000E+00  0.00000000E+00  0.00000000E+00
  0.00000000E+00  0.00000000E+00  0.00000000E+00
  0.00000000E+00  0.00000000E+00  0.00000000E+00
  0.00000000E+00  0.00000000E+00  0.00000000E+00
  0.00000000E+00  0.00000000E+00  0.00000000E+00
  0.00000000E+00  0.00000000E+00  0.00000000E+00
  0.00000000E+00  0.00000000E+00  0.00000000E+00
