EA36737 13.312 13.195 13.110 90.00 90.00
   1.00000000000000     
    13.3121679999999998    0.0000000000000000    0.0000000000000000
     0.0000000000000000   13.1946840000000005    0.0000000000000000
     0.0000000000000000    0.0000000000000000   13.1098289999999995
   W    B 
     6     6
Direct
  0.4929997575640033  0.5606566028859127  0.3401206175013666
  0.3437326986685016  0.5358348897532114  0.4465653244786053
  0.3808972110089450  0.4015638941989754  0.5699901847890284
  0.5530478782055483  0.3433386017146170  0.5397793736242944
  0.6222684051911803  0.4415923118554738  0.3976825804932153
  0.4412820019905784  0.3811880039342931  0.3871163718546904
  0.6179888989077414  0.4929827082535216  0.5543201648053759
  0.5465956510680212  0.5944312545749739  0.5895839448066220
  0.5920767127986983  0.5867817254582768  0.4682325500006835
  0.4717624146889494  0.6273599873111497  0.4893775381241680
  0.4234526351175536  0.5586017593189551  0.5884954820856321
  0.5138977347902668  0.4756672607406350  0.6287348674363276
 
  0.00000000E+00  0.00000000E+00  0.00000000E+00
  0.00000000E+00  0.00000000E+00  0.00000000E+00
  0.00000000E+00  0.00000000E+00  0.00000000E+00
  0.00000000E+00  0.00000000E+00  0.00000000E+00
  0.00000000E+00  0.00000000E+00  0.00000000E+00
  0.00000000E+00  0.00000000E+00  0.00000000E+00
  0.00000000E+00  0.00000000E+00  0.00000000E+00
  0.00000000E+00  0.00000000E+00  0.00000000E+00
  0.00000000E+00  0.00000000E+00  0.00000000E+00
  0.00000000E+00  0.00000000E+00  0.00000000E+00
  0.00000000E+00  0.00000000E+00  0.00000000E+00
  0.00000000E+00  0.00000000E+00  0.00000000E+00
