EA28533 13.356 11.667 11.519 90.00 90.00
   1.00000000000000     
    13.3564589999999992    0.0000000000000000    0.0000000000000000
     0.0000000000000000   11.6670020000000001    0.0000000000000000
     0.0000000000000000    0.0000000000000000   11.5191780000000001
   W    B 
     6     2
Direct
  0.4384785984325153  0.4314771642903720  0.3729530813819237
  0.5626499135380174  0.3585866398260768  0.4959941050708853
  0.4385586110977379  0.4259737173407726  0.6230441969911427
  0.5615076933362495  0.5685316873761841  0.6270323473818815
  0.4373727942404464  0.6413777541172425  0.5040370847286186
  0.5614366912142725  0.5740546237655686  0.3769028145677108
  0.6590383977807700  0.5011090547680102  0.5000783973791240
  0.3409593003599929  0.4988893585157801  0.4999569724987162
 
  0.00000000E+00  0.00000000E+00  0.00000000E+00
  0.00000000E+00  0.00000000E+00  0.00000000E+00
  0.00000000E+00  0.00000000E+00  0.00000000E+00
  0.00000000E+00  0.00000000E+00  0.00000000E+00
  0.00000000E+00  0.00000000E+00  0.00000000E+00
  0.00000000E+00  0.00000000E+00  0.00000000E+00
  0.00000000E+00  0.00000000E+00  0.00000000E+00
  0.00000000E+00  0.00000000E+00  0.00000000E+00
