EA28467 13.345 13.157 12.950 90.00 90.00
   1.00000000000000     
    13.3452300000000008    0.0000000000000000    0.0000000000000000
     0.0000000000000000   13.1572530000000008    0.0000000000000000
     0.0000000000000000    0.0000000000000000   12.9497210000000003
   W    B 
     6     4
Direct
  0.5445688870637773  0.3990490447280062  0.3868284191899778
  0.4005955542788008  0.5043141620125866  0.3782407364375092
  0.5484607771578749  0.6041509001954614  0.3920857226207438
  0.4304547210703031  0.3562329471847090  0.5235826080481314
  0.4369303141689799  0.6403301542936999  0.5298082216682150
  0.5962967927922831  0.5868803297853529  0.5968837136132764
  0.4719788663534815  0.4941197672311342  0.6152183984677134
  0.6396490000263384  0.4951598045793473  0.4767021281780122
  0.3644484071547701  0.4959606371884504  0.5419495275567721
  0.5666166799333912  0.4238042528012467  0.5587015242196389
 
  0.00000000E+00  0.00000000E+00  0.00000000E+00
  0.00000000E+00  0.00000000E+00  0.00000000E+00
  0.00000000E+00  0.00000000E+00  0.00000000E+00
  0.00000000E+00  0.00000000E+00  0.00000000E+00
  0.00000000E+00  0.00000000E+00  0.00000000E+00
  0.00000000E+00  0.00000000E+00  0.00000000E+00
  0.00000000E+00  0.00000000E+00  0.00000000E+00
  0.00000000E+00  0.00000000E+00  0.00000000E+00
  0.00000000E+00  0.00000000E+00  0.00000000E+00
  0.00000000E+00  0.00000000E+00  0.00000000E+00
