EA30810 14.827 14.356 14.338 90.00 90.00
   1.00000000000000     
    14.8268160000000009    0.0000000000000000    0.0000000000000000
     0.0000000000000000   14.3555609999999998    0.0000000000000000
     0.0000000000000000    0.0000000000000000   14.3378949999999996
   W    B 
     7    24
Direct
  0.4728093589929568  0.5084805160509462  0.5247341226909426
  0.3382742310835970  0.5805613385833027  0.4508946869361000
  0.6615698614032773  0.4202203757803617  0.5444814861183417
  0.4849716582583308  0.3815523248516693  0.3518487830928851
  0.5192374867222047  0.6201851747018047  0.6482721990665861
  0.4136464001919506  0.3710598571108114  0.6107127317578743
  0.5880238529381524  0.6246227533439552  0.3885027455851167
  0.3790105002030428  0.3452431022326629  0.4578742375209618
  0.6259373050095928  0.6555115619253764  0.5402551562589848
  0.6313333232429434  0.3930801450611245  0.3927737758610746
  0.3672562994513624  0.6084375231316598  0.6083430656942989
  0.5605654877365805  0.3849924715543376  0.6559598021598536
  0.4414505561721908  0.6151016269537732  0.3389362493704112
  0.5503688893627033  0.3125182816560669  0.5698776342980787
  0.4530100326188519  0.6839088123084694  0.4278730593065188
  0.5995628080314279  0.4812587826251855  0.3255152088888840
  0.3995598962686837  0.5187896293021058  0.6766764235376056
  0.6579903447496891  0.5664733319146301  0.6081901005205748
  0.3471490634778112  0.4340378907735118  0.3902414878491381
  0.6856192632807349  0.5677374815358330  0.4953621102498454
  0.3160218579684189  0.4314614415036855  0.5028205975469515
  0.5049960276014402  0.5281500590957356  0.2981745717938314
  0.4970628726292143  0.4711342751786157  0.7003107686955380
  0.4216583242386336  0.6806147403999224  0.5403689360899335
  0.5802605405302999  0.3190502790977001  0.4578293726230246
  0.5296716683426329  0.7007224081944361  0.5114879569576380
  0.4734165004490911  0.2955954841134731  0.4859549089828580
  0.3965152957281296  0.5091660164261511  0.3229605991993059
  0.6052756884606639  0.4905652141416946  0.6718454231143706
  0.3220007656129366  0.5018163381885772  0.5922937333882333
  0.6757718392424170  0.4979507622624337  0.4086270648442265
 
  0.00000000E+00  0.00000000E+00  0.00000000E+00
  0.00000000E+00  0.00000000E+00  0.00000000E+00
  0.00000000E+00  0.00000000E+00  0.00000000E+00
  0.00000000E+00  0.00000000E+00  0.00000000E+00
  0.00000000E+00  0.00000000E+00  0.00000000E+00
  0.00000000E+00  0.00000000E+00  0.00000000E+00
  0.00000000E+00  0.00000000E+00  0.00000000E+00
  0.00000000E+00  0.00000000E+00  0.00000000E+00
  0.00000000E+00  0.00000000E+00  0.00000000E+00
  0.00000000E+00  0.00000000E+00  0.00000000E+00
  0.00000000E+00  0.00000000E+00  0.00000000E+00
  0.00000000E+00  0.00000000E+00  0.00000000E+00
  0.00000000E+00  0.00000000E+00  0.00000000E+00
  0.00000000E+00  0.00000000E+00  0.00000000E+00
  0.00000000E+00  0.00000000E+00  0.00000000E+00
  0.00000000E+00  0.00000000E+00  0.00000000E+00
  0.00000000E+00  0.00000000E+00  0.00000000E+00
  0.00000000E+00  0.00000000E+00  0.00000000E+00
  0.00000000E+00  0.00000000E+00  0.00000000E+00
  0.00000000E+00  0.00000000E+00  0.00000000E+00
  0.00000000E+00  0.00000000E+00  0.00000000E+00
  0.00000000E+00  0.00000000E+00  0.00000000E+00
  0.00000000E+00  0.00000000E+00  0.00000000E+00
  0.00000000E+00  0.00000000E+00  0.00000000E+00
  0.00000000E+00  0.00000000E+00  0.00000000E+00
  0.00000000E+00  0.00000000E+00  0.00000000E+00
  0.00000000E+00  0.00000000E+00  0.00000000E+00
  0.00000000E+00  0.00000000E+00  0.00000000E+00
  0.00000000E+00  0.00000000E+00  0.00000000E+00
  0.00000000E+00  0.00000000E+00  0.00000000E+00
  0.00000000E+00  0.00000000E+00  0.00000000E+00
