EA32758 13.929 14.404 14.128 90.00 90.00
   1.00000000000000     
    13.9285350000000001    0.0000000000000000    0.0000000000000000
     0.0000000000000000   14.4042530000000006    0.0000000000000000
     0.0000000000000000    0.0000000000000000   14.1275460000000006
   W    B 
     7    20
Direct
  0.3690306909444214  0.4999348393177465  0.5001409173834981
  0.6309826417670723  0.5000729655763653  0.4998825205874872
  0.5001036748557489  0.5627401878629462  0.6353428399680191
  0.5001529808452368  0.3931706778957464  0.6026331559668574
  0.4999966493614294  0.3712357059546612  0.4281158625411973
  0.4998409746613348  0.5272699415971486  0.3529389163117400
  0.4998938551801416  0.6456125310402792  0.4809877485308645
  0.3644723424028915  0.4263674988691463  0.3413044603358497
  0.3643204258718002  0.6252985346707375  0.3797195084763080
  0.3645236430121880  0.6509298481484522  0.5845132356891860
  0.3647030005437608  0.4678924264534867  0.6726986206348404
  0.3646003943609247  0.3291133928821265  0.5223800378599741
  0.6610617192996301  0.6698994814131917  0.4776441154628018
  0.6610593368777298  0.5318822688922550  0.3284649348910106
  0.6612197060765942  0.3500048212763044  0.4161305072458320
  0.6613774131132546  0.3754852910361158  0.6195240777563727
  0.6613477522139742  0.5732000624304118  0.6574799367936458
  0.6354233880935084  0.4264940550765560  0.3411795516065206
  0.6352512676213999  0.6254225539837563  0.3794589833293562
  0.6354736772988421  0.6511476736768574  0.5841570042605490
  0.6356878890911509  0.4680946153510622  0.6723360101059324
  0.6355700234893451  0.3292159819137058  0.5222187260788534
  0.3386313379840182  0.6696070698714232  0.4780518761195695
  0.3386185673658736  0.5317309814976309  0.3286726986630593
  0.3387992859659116  0.3498253131325785  0.4162658371684193
  0.3389452396936376  0.3753498614569336  0.6197825941727165
  0.3389121220081721  0.5730004187223713  0.6579813220595380
 
  0.00000000E+00  0.00000000E+00  0.00000000E+00
  0.00000000E+00  0.00000000E+00  0.00000000E+00
  0.00000000E+00  0.00000000E+00  0.00000000E+00
  0.00000000E+00  0.00000000E+00  0.00000000E+00
  0.00000000E+00  0.00000000E+00  0.00000000E+00
  0.00000000E+00  0.00000000E+00  0.00000000E+00
  0.00000000E+00  0.00000000E+00  0.00000000E+00
  0.00000000E+00  0.00000000E+00  0.00000000E+00
  0.00000000E+00  0.00000000E+00  0.00000000E+00
  0.00000000E+00  0.00000000E+00  0.00000000E+00
  0.00000000E+00  0.00000000E+00  0.00000000E+00
  0.00000000E+00  0.00000000E+00  0.00000000E+00
  0.00000000E+00  0.00000000E+00  0.00000000E+00
  0.00000000E+00  0.00000000E+00  0.00000000E+00
  0.00000000E+00  0.00000000E+00  0.00000000E+00
  0.00000000E+00  0.00000000E+00  0.00000000E+00
  0.00000000E+00  0.00000000E+00  0.00000000E+00
  0.00000000E+00  0.00000000E+00  0.00000000E+00
  0.00000000E+00  0.00000000E+00  0.00000000E+00
  0.00000000E+00  0.00000000E+00  0.00000000E+00
  0.00000000E+00  0.00000000E+00  0.00000000E+00
  0.00000000E+00  0.00000000E+00  0.00000000E+00
  0.00000000E+00  0.00000000E+00  0.00000000E+00
  0.00000000E+00  0.00000000E+00  0.00000000E+00
  0.00000000E+00  0.00000000E+00  0.00000000E+00
  0.00000000E+00  0.00000000E+00  0.00000000E+00
  0.00000000E+00  0.00000000E+00  0.00000000E+00
