EA28468 13.835 12.702 12.725 90.00 90.00
   1.00000000000000     
    13.8349580000000003    0.0000000000000000    0.0000000000000000
     0.0000000000000000   12.7018649999999997    0.0000000000000000
     0.0000000000000000    0.0000000000000000   12.7254850000000008
   W    B 
     7     3
Direct
  0.3819390685097979  0.5012148156245122  0.5997076364653675
  0.4407520102824859  0.3453285364039015  0.5073752102713326
  0.3983309413067554  0.4833979143361308  0.3820546212958585
  0.3927700226341520  0.6502485115432828  0.4783419192557029
  0.5418910887643019  0.6053298463583396  0.3847712505041176
  0.6519765893807972  0.5246799807224993  0.5113372132359173
  0.5256447394826516  0.6233577903072114  0.6023714809153400
  0.5458935316082453  0.4378442908179378  0.4116046637331259
  0.5314055801886993  0.4538412835841857  0.6041646702957403
  0.5893944278421049  0.3747580303020107  0.5182723340275093
 
  0.00000000E+00  0.00000000E+00  0.00000000E+00
  0.00000000E+00  0.00000000E+00  0.00000000E+00
  0.00000000E+00  0.00000000E+00  0.00000000E+00
  0.00000000E+00  0.00000000E+00  0.00000000E+00
  0.00000000E+00  0.00000000E+00  0.00000000E+00
  0.00000000E+00  0.00000000E+00  0.00000000E+00
  0.00000000E+00  0.00000000E+00  0.00000000E+00
  0.00000000E+00  0.00000000E+00  0.00000000E+00
  0.00000000E+00  0.00000000E+00  0.00000000E+00
  0.00000000E+00  0.00000000E+00  0.00000000E+00
