EA32990 15.353 14.025 13.889 90.00 90.00
   1.00000000000000     
    15.3529070000000001    0.0000000000000000    0.0000000000000000
     0.0000000000000000   14.0248880000000007    0.0000000000000000
     0.0000000000000000    0.0000000000000000   13.8887889999999992
   W    B 
     7    16
Direct
  0.3667280888028795  0.5231958997799163  0.5695160094524598
  0.5610476927139574  0.6685557055435946  0.4662305883787340
  0.5322353713763236  0.4875411034718652  0.5205663232347734
  0.6680459207467891  0.5390309970455599  0.4012967436646998
  0.4129734485128203  0.4715201541392603  0.3633764686568843
  0.4914500082888270  0.3257620751235792  0.4499562618904284
  0.6926932495808640  0.5907847778001878  0.5614812795436610
  0.4668538967026176  0.6369559491168789  0.5867266626836689
  0.4082918032443174  0.6588638233988160  0.4897823299368989
  0.4707090689542152  0.4384334141330462  0.6651316629298502
  0.4864574701100857  0.5527583694689933  0.6686619302553275
  0.3406570285834637  0.5900610712485369  0.4291340938364392
  0.5216808991031007  0.3463011667097063  0.6097650396290901
  0.4411867704183264  0.6272883131176257  0.3771533122727305
  0.5537481149944711  0.4398188132309966  0.3572726314192796
  0.5308731391710525  0.5616102039043460  0.3556750789355476
  0.6255044387269235  0.3854564540485544  0.4310816983740686
  0.6794843351858979  0.4427326517368711  0.5282262045430506
  0.6118099990664111  0.3486751638159188  0.5460677122217674
  0.2961049409024508  0.4825632526439315  0.4445217664256756
  0.3520117894165161  0.3872246201662066  0.4800345114054791
  0.4188204378361504  0.3743942049085203  0.5772811033008425
  0.5706370875615415  0.6204728154470790  0.6210605870086362
 
  0.00000000E+00  0.00000000E+00  0.00000000E+00
  0.00000000E+00  0.00000000E+00  0.00000000E+00
  0.00000000E+00  0.00000000E+00  0.00000000E+00
  0.00000000E+00  0.00000000E+00  0.00000000E+00
  0.00000000E+00  0.00000000E+00  0.00000000E+00
  0.00000000E+00  0.00000000E+00  0.00000000E+00
  0.00000000E+00  0.00000000E+00  0.00000000E+00
  0.00000000E+00  0.00000000E+00  0.00000000E+00
  0.00000000E+00  0.00000000E+00  0.00000000E+00
  0.00000000E+00  0.00000000E+00  0.00000000E+00
  0.00000000E+00  0.00000000E+00  0.00000000E+00
  0.00000000E+00  0.00000000E+00  0.00000000E+00
  0.00000000E+00  0.00000000E+00  0.00000000E+00
  0.00000000E+00  0.00000000E+00  0.00000000E+00
  0.00000000E+00  0.00000000E+00  0.00000000E+00
  0.00000000E+00  0.00000000E+00  0.00000000E+00
  0.00000000E+00  0.00000000E+00  0.00000000E+00
  0.00000000E+00  0.00000000E+00  0.00000000E+00
  0.00000000E+00  0.00000000E+00  0.00000000E+00
  0.00000000E+00  0.00000000E+00  0.00000000E+00
  0.00000000E+00  0.00000000E+00  0.00000000E+00
  0.00000000E+00  0.00000000E+00  0.00000000E+00
  0.00000000E+00  0.00000000E+00  0.00000000E+00
