EA36413 13.637 14.172 14.172 90.00 90.00 90.00 Sym.group:    0
1.0
13.636968     0.000000     0.000000
0.000000    14.171634     0.000000
0.000000     0.000000    14.171634
W   B
8  10
Direct
0.353196     0.633697     0.558659
0.641899     0.557350     0.372178
0.353307     0.366179     0.441377
0.641543     0.442529     0.627909
0.445858     0.465918     0.587006
0.565793     0.614640     0.544000
0.445769     0.534524     0.412691
0.565666     0.385125     0.456140
0.447364     0.311635     0.539338
0.550558     0.544100     0.681888
0.447329     0.688399     0.460701
0.550736     0.455985     0.318210
0.455286     0.392860     0.338495
0.542854     0.333984     0.600038
0.455294     0.607100     0.661467
0.542986     0.665997     0.399936
0.686187     0.500033     0.500048
0.308372     0.499946     0.499919
