EA30924 15.471 14.500 13.877 90.00 90.00 90.00 Sym.group:    0
1.0
15.471342     0.000000     0.000000
0.000000    14.500087     0.000000
0.000000     0.000000    13.876908
W   B
8  21
Direct
0.449472     0.501228     0.484504
0.350402     0.365232     0.548318
0.413975     0.623321     0.635607
0.541142     0.661090     0.514368
0.523629     0.333448     0.507563
0.555723     0.495453     0.639183
0.628296     0.484768     0.453652
0.684963     0.375128     0.580462
0.399118     0.681692     0.494610
0.327494     0.596420     0.501261
0.292153     0.491505     0.475513
0.416941     0.349436     0.411059
0.333741     0.418623     0.398925
0.417428     0.443071     0.328245
0.546997     0.592392     0.361770
0.450640     0.550777     0.316820
0.527807     0.470983     0.330976
0.433118     0.632470     0.394043
0.324467     0.509460     0.589329
0.640775     0.629827     0.400589
0.585917     0.376228     0.355454
0.651942     0.333852     0.434761
0.680103     0.619222     0.508579
0.570056     0.344452     0.656256
0.409583     0.465980     0.648148
0.695017     0.523973     0.588466
0.465121     0.363648     0.648910
0.544158     0.646733     0.671824
0.639822     0.619591     0.620803
