EA30812 14.335 14.593 14.294 90.00 90.00 90.00 Sym.group:    0
1.0
14.334844     0.000000     0.000000
0.000000    14.593172     0.000000
0.000000     0.000000    14.293964
W   B
8  23
Direct
0.498598     0.458724     0.491502
0.312943     0.500025     0.501050
0.686473     0.508578     0.503691
0.506861     0.512512     0.311929
0.496833     0.507601     0.684226
0.498202     0.632694     0.488808
0.571505     0.666977     0.312402
0.500427     0.295810     0.514495
0.428547     0.646086     0.348824
0.555510     0.366426     0.644907
0.625150     0.450339     0.381020
0.356815     0.561057     0.637713
0.642237     0.644187     0.554565
0.361278     0.357083     0.448208
0.652838     0.647610     0.440087
0.360121     0.360812     0.561531
0.559214     0.354999     0.367355
0.439187     0.642446     0.637169
0.634628     0.452708     0.639709
0.362351     0.553718     0.364526
0.642508     0.364459     0.564679
0.346737     0.639472     0.438792
0.446847     0.353353     0.366730
0.552624     0.644180     0.638796
0.362553     0.449041     0.638081
0.657543     0.560205     0.361299
0.442291     0.362634     0.645718
0.371262     0.440920     0.368378
0.636154     0.565557     0.639029
0.353589     0.640459     0.552755
0.638170     0.359329     0.452031
