EA32761 13.975 14.187 14.214 90.00 90.00 90.00 Sym.group:    0
1.0
13.975349     0.000000     0.000000
0.000000    14.186659     0.000000
0.000000     0.000000    14.214486
W   B
8  19
Direct
0.370405     0.494425     0.495848
0.631882     0.504215     0.503830
0.499029     0.405586     0.617098
0.504821     0.356648     0.448498
0.502348     0.503086     0.351110
0.499948     0.642818     0.458289
0.496105     0.581842     0.623767
0.631280     0.720221     0.579685
0.367969     0.603800     0.359744
0.357746     0.657886     0.557164
0.362876     0.486948     0.670941
0.369172     0.325339     0.544139
0.371547     0.397731     0.351094
0.656032     0.600270     0.647703
0.660834     0.669295     0.452702
0.663247     0.506490     0.327236
0.665414     0.340322     0.443947
0.660419     0.395505     0.639716
0.631691     0.606083     0.363866
0.626905     0.494895     0.675521
0.636517     0.333477     0.550714
0.636945     0.402590     0.356886
0.333714     0.589455     0.640394
0.337579     0.662535     0.448569
0.342875     0.501491     0.323309
0.344314     0.331572     0.436183
0.338384     0.385474     0.632044
