EA28469 13.120 13.089 12.908 90.00 90.00
   1.00000000000000     
    13.1201139999999992    0.0000000000000000    0.0000000000000000
     0.0000000000000000   13.0893590000000000    0.0000000000000000
     0.0000000000000000    0.0000000000000000   12.9083369999999995
   W    B 
     8     2
Direct
  0.4047865546926974  0.5798434700540317  0.6097288191453590
  0.4634413109571099  0.3776655820875407  0.6058165777179875
  0.6488308150015589  0.4330720083500976  0.5217840169370405
  0.5903228386293944  0.6355222307377747  0.5258775478294220
  0.6042194291859223  0.5326749599128360  0.3750077267603724
  0.4316085799334916  0.6366008987683383  0.4370498492216545
  0.3421482117156077  0.4541729117910169  0.4935316121426499
  0.5145752228335760  0.3502982198112645  0.4312459561696730
  0.4468087461705808  0.4871242772756156  0.3696592382116853
  0.5532562908800658  0.5130284412114836  0.6302986558641559
 
  0.00000000E+00  0.00000000E+00  0.00000000E+00
  0.00000000E+00  0.00000000E+00  0.00000000E+00
  0.00000000E+00  0.00000000E+00  0.00000000E+00
  0.00000000E+00  0.00000000E+00  0.00000000E+00
  0.00000000E+00  0.00000000E+00  0.00000000E+00
  0.00000000E+00  0.00000000E+00  0.00000000E+00
  0.00000000E+00  0.00000000E+00  0.00000000E+00
  0.00000000E+00  0.00000000E+00  0.00000000E+00
  0.00000000E+00  0.00000000E+00  0.00000000E+00
  0.00000000E+00  0.00000000E+00  0.00000000E+00
