EA34462 14.569 14.113 14.276 90.00 90.00 90.00 Sym.group:    0
1.0
14.569173     0.000000     0.000000
0.000000    14.112700     0.000000
0.000000     0.000000    14.275841
W   B
8  13
Direct
0.442485     0.489702     0.669118
0.386999     0.370152     0.529068
0.509057     0.499901     0.499362
0.620289     0.411845     0.379671
0.612884     0.484575     0.651950
0.497359     0.515771     0.312471
0.396033     0.629026     0.553813
0.625697     0.597297     0.393519
0.532706     0.613974     0.623999
0.632459     0.600661     0.552312
0.521490     0.366585     0.604047
0.623933     0.383330     0.536419
0.668798     0.493255     0.504203
0.381738     0.451310     0.395130
0.314475     0.496357     0.598314
0.472427     0.375259     0.391225
0.480859     0.642570     0.413486
0.326505     0.507306     0.485136
0.539592     0.666696     0.513903
0.528480     0.330527     0.486836
0.385737     0.573903     0.406018
