EA30813 15.942 15.821 14.089 90.00 90.00 90.00 Sym.group:    0
1.0
15.942448     0.000000     0.000000
0.000000    15.821497     0.000000
0.000000     0.000000    14.089068
W   B
9  22
Direct
0.538140     0.642384     0.425793
0.617337     0.552547     0.585665
0.654634     0.423433     0.431744
0.614357     0.376171     0.598290
0.492757     0.464587     0.504666
0.474416     0.292918     0.520521
0.396415     0.518077     0.650053
0.351351     0.486759     0.388764
0.488115     0.665610     0.603467
0.405006     0.619160     0.374855
0.654542     0.561593     0.401164
0.567478     0.513610     0.359579
0.718592     0.455900     0.562006
0.612067     0.689688     0.546863
0.722995     0.536471     0.484361
0.470314     0.544636     0.341902
0.675882     0.639014     0.477294
0.485655     0.439338     0.338831
0.533036     0.348696     0.394662
0.599541     0.299861     0.470085
0.385394     0.378517     0.593089
0.326717     0.612736     0.448689
0.324439     0.447984     0.538311
0.430737     0.361297     0.389842
0.303352     0.546815     0.531745
0.477427     0.377060     0.646874
0.529878     0.465769     0.673283
0.357943     0.630618     0.568697
0.361290     0.366869     0.476334
0.412595     0.674457     0.476274
0.517602     0.567428     0.696299
