EA36417 15.109 15.092 14.310 90.00 90.00 90.00 Sym.group:    0
1.0
15.108987     0.000000     0.000000
0.000000    15.091567     0.000000
0.000000     0.000000    14.309879
W   B
9   9
Direct
0.572040     0.616432     0.367116
0.398625     0.561589     0.659381
0.401695     0.408817     0.350568
0.609085     0.394492     0.615358
0.563745     0.576683     0.570210
0.430037     0.563720     0.459440
0.442527     0.417340     0.543753
0.574410     0.442184     0.424589
0.545409     0.718241     0.499709
0.321804     0.504549     0.558220
0.483777     0.325074     0.424890
0.676846     0.483285     0.531951
0.552987     0.319978     0.511310
0.666714     0.558352     0.453317
0.444730     0.666350     0.578564
0.322496     0.455357     0.456947
0.486097     0.512600     0.320246
0.506975     0.474955     0.674433
