EA28319 13.417 13.424 13.111 90.00 90.00 90.00 Sym.group:    0
1.0
13.416962     0.000000     0.000000
0.000000    13.424480     0.000000
0.000000     0.000000    13.110975
W   B
9   3
Direct
0.349475     0.518836     0.409051
0.506381     0.585073     0.652875
0.572949     0.337625     0.491923
0.654351     0.473946     0.588567
0.507481     0.601550     0.357462
0.396186     0.353255     0.492236
0.347164     0.509224     0.588442
0.591887     0.648484     0.509315
0.655372     0.485507     0.410758
0.492563     0.427420     0.603175
0.431968     0.620027     0.506014
0.494222     0.439052     0.390183
