EA32689 15.730 14.255 14.064 90.00 90.00 90.00 Sym.group:    0
1.0
15.730127     0.000000     0.000000
0.000000    14.255209     0.000000
0.000000     0.000000    14.063928
W   B
9  20
Direct
0.665267     0.489592     0.645574
0.708464     0.578121     0.494596
0.666355     0.472888     0.363722
0.503752     0.404337     0.658922
0.503565     0.307552     0.502959
0.466561     0.655574     0.563755
0.492165     0.525847     0.334339
0.300330     0.467597     0.504565
0.555063     0.497623     0.509051
0.629293     0.350027     0.453340
0.623369     0.359516     0.577411
0.700478     0.420911     0.510165
0.541713     0.562056     0.670049
0.607852     0.627703     0.603698
0.596062     0.668599     0.492408
0.515966     0.658289     0.413637
0.608243     0.610152     0.382166
0.554945     0.382923     0.374026
0.437150     0.545151     0.670258
0.338332     0.617174     0.494310
0.350357     0.571777     0.605330
0.411978     0.646796     0.408994
0.371273     0.457405     0.640968
0.375281     0.349601     0.452668
0.452034     0.372831     0.371084
0.367689     0.442504     0.372774
0.389005     0.364787     0.571441
0.345144     0.557223     0.383654
0.422317     0.535447     0.474136
