EA34404 15.260 14.375 13.780 90.00 90.00 90.00 Sym.group:    0
1.0
15.260422     0.000000     0.000000
0.000000    14.374803     0.000000
0.000000     0.000000    13.779691
W   B
10  12
Direct
0.525786     0.604245     0.651135
0.618173     0.458054     0.649699
0.511432     0.500416     0.496189
0.676311     0.446164     0.470595
0.579392     0.688627     0.516542
0.419398     0.411472     0.377550
0.357487     0.410379     0.556501
0.400998     0.652243     0.511335
0.703907     0.587505     0.582197
0.635822     0.584812     0.386465
0.580072     0.347426     0.540591
0.556702     0.355722     0.421781
0.497285     0.638376     0.390071
0.505728     0.536294     0.324943
0.571017     0.445667     0.346484
0.493084     0.362990     0.610951
0.470713     0.329221     0.495627
0.461749     0.462131     0.661667
0.332202     0.519281     0.446252
0.304173     0.547573     0.557578
0.389828     0.545561     0.629984
0.408740     0.565841     0.375861
