EA28224 14.141 14.200 13.274 90.00 90.00 90.00 Sym.group:    0
1.0
14.140725     0.000000     0.000000
0.000000    14.199799     0.000000
0.000000     0.000000    13.273898
W   B
10   4
Direct
0.316318     0.422512     0.459934
0.684179     0.577508     0.456545
0.578265     0.316089     0.456565
0.422689     0.683107     0.460277
0.500946     0.499365     0.721693
0.497982     0.500915     0.435171
0.453247     0.381013     0.582803
0.619649     0.452551     0.581219
0.380690     0.547416     0.585055
0.548189     0.618570     0.583717
0.439161     0.349252     0.418960
0.649300     0.439258     0.416832
0.347397     0.561903     0.421462
0.561985     0.650541     0.419766
