EA32690 15.854 14.960 14.320 90.00 90.00 90.00 Sym.group:    0
1.0
15.854171     0.000000     0.000000
0.000000    14.960186     0.000000
0.000000     0.000000    14.319502
W   B
10  19
Direct
0.528660     0.508639     0.488446
0.540529     0.554549     0.679597
0.515739     0.682631     0.549425
0.646668     0.407655     0.400473
0.629327     0.404884     0.591857
0.382074     0.579097     0.531771
0.390964     0.403047     0.397393
0.463588     0.410087     0.631934
0.434485     0.548391     0.327598
0.718231     0.520745     0.513573
0.532180     0.297809     0.560304
0.632672     0.633059     0.473786
0.637239     0.620766     0.590709
0.549114     0.628569     0.393257
0.671877     0.534132     0.655600
0.611649     0.299344     0.486751
0.650913     0.558956     0.388704
0.570826     0.520674     0.328357
0.336582     0.467186     0.615665
0.397624     0.535392     0.682663
0.435817     0.315965     0.515065
0.311800     0.527477     0.403632
0.347710     0.633226     0.394186
0.351184     0.375338     0.545628
0.431304     0.641754     0.659423
0.517766     0.422430     0.342864
0.300385     0.460544     0.497663
0.444340     0.667902     0.418409
0.518753     0.339755     0.435267
