EA30814 16.270 15.173 14.850 90.00 90.00 90.00 Sym.group:    0
1.0
16.270138     0.000000     0.000000
0.000000    15.173120     0.000000
0.000000     0.000000    14.849845
W   B
10  21
Direct
0.491680     0.546509     0.493196
0.463313     0.377777     0.505572
0.523188     0.708036     0.490098
0.375946     0.518544     0.376413
0.607293     0.473274     0.595416
0.381031     0.529977     0.627213
0.599757     0.447070     0.392144
0.680948     0.639392     0.526879
0.616067     0.621502     0.380000
0.702882     0.388112     0.494612
0.306726     0.486278     0.505537
0.732459     0.514174     0.547605
0.473147     0.639850     0.361749
0.521321     0.361325     0.639877
0.470746     0.647805     0.620394
0.507469     0.339411     0.369888
0.396341     0.663790     0.548684
0.576426     0.313400     0.449917
0.506676     0.541356     0.324877
0.488170     0.455502     0.683072
0.709336     0.525806     0.437160
0.339677     0.401917     0.569236
0.475942     0.434120     0.323834
0.510115     0.560323     0.669381
0.585588     0.327531     0.560910
0.398258     0.659790     0.435237
0.335933     0.590172     0.497855
0.401894     0.372314     0.370091
0.572792     0.630515     0.608520
0.414266     0.388627     0.644943
0.334614     0.395801     0.449692
