EA32763 14.663 15.480 14.689 90.00 90.00 90.00 Sym.group:    0
1.0
14.663198     0.000000     0.000000
0.000000    15.480153     0.000000
0.000000     0.000000    14.688747
W   B
10  17
Direct
0.672934     0.542771     0.561034
0.447445     0.625904     0.602342
0.485553     0.508408     0.491735
0.610356     0.410734     0.400914
0.365882     0.519858     0.365666
0.630927     0.594604     0.405015
0.362845     0.366811     0.445028
0.431914     0.457941     0.665024
0.513750     0.339703     0.536667
0.498767     0.287711     0.377296
0.404450     0.641955     0.445201
0.594308     0.639398     0.638171
0.512170     0.666886     0.461857
0.554729     0.544707     0.665896
0.328854     0.532442     0.600149
0.329272     0.586359     0.499724
0.483391     0.611425     0.365372
0.465624     0.417027     0.337449
0.522872     0.512218     0.334150
0.288755     0.485525     0.488336
0.379341     0.345250     0.593395
0.738001     0.426629     0.497508
0.734301     0.502020     0.423934
0.654607     0.396296     0.557745
0.308329     0.425159     0.581715
0.578038     0.443048     0.627430
0.602588     0.669212     0.531245
