EA30686 16.735 14.419 14.088 90.00 90.00 90.00 Sym.group:    0
1.0
16.735403     0.000000     0.000000
0.000000    14.418961     0.000000
0.000000     0.000000    14.087642
W   B
10  23
Direct
0.580631     0.497907     0.507562
0.488898     0.486306     0.330369
0.606348     0.606038     0.358813
0.413559     0.495723     0.508485
0.501346     0.641602     0.596463
0.333019     0.436457     0.372713
0.503773     0.330337     0.539315
0.665480     0.336721     0.451085
0.391682     0.681875     0.479921
0.636707     0.680702     0.518058
0.633700     0.366523     0.587227
0.698030     0.556074     0.583798
0.449664     0.351652     0.388593
0.549927     0.359554     0.385743
0.613605     0.441260     0.346116
0.709836     0.569930     0.466842
0.711126     0.453929     0.528040
0.693946     0.476619     0.402842
0.303726     0.575141     0.429303
0.388223     0.578281     0.361274
0.305029     0.388358     0.525332
0.267488     0.490323     0.499427
0.455470     0.416048     0.653826
0.372879     0.611260     0.620860
0.437487     0.533433     0.671079
0.544106     0.522800     0.677966
0.381813     0.356734     0.592252
0.560723     0.409285     0.651458
0.621334     0.594050     0.646579
0.298457     0.590154     0.548664
0.382689     0.332134     0.472991
0.477016     0.636493     0.354424
0.522287     0.696297     0.442582
