EA38343 15.625 15.479 14.307 90.00 90.00 90.00 Sym.group:    0
1.0
15.625322     0.000000     0.000000
0.000000    15.478563     0.000000
0.000000     0.000000    14.306631
W   B
11  18
Direct
0.518195     0.320770     0.490534
0.594488     0.468700     0.604256
0.385157     0.359369     0.381103
0.307372     0.433383     0.534191
0.442933     0.381820     0.634308
0.415387     0.634797     0.566081
0.644102     0.515265     0.392091
0.539443     0.401443     0.325153
0.478270     0.481925     0.477988
0.413729     0.623830     0.385791
0.358125     0.279851     0.528068
0.575795     0.332563     0.629902
0.293391     0.566445     0.586110
0.538281     0.603158     0.643462
0.363885     0.509999     0.644854
0.468518     0.525485     0.655101
0.695914     0.551546     0.528753
0.700411     0.441969     0.506500
0.556714     0.679006     0.565972
0.637367     0.612133     0.598151
0.645059     0.376097     0.432370
0.651432     0.348927     0.547304
0.423044     0.489007     0.319932
0.556318     0.625938     0.383297
0.621560     0.627684     0.481330
0.339290     0.495488     0.397784
0.517070     0.542044     0.322127
0.508868     0.692423     0.463734
0.309882     0.578933     0.473751
