EA17617 15.814 13.602 13.666 90.00 90.00 90.00 Sym.group:    0
1.0
15.813983     0.000000     0.000000
0.000000    13.602142     0.000000
0.000000     0.000000    13.665923
W   B
11  22
Direct
0.529521     0.499134     0.501059
0.392793     0.341533     0.519079
0.640711     0.382306     0.610314
0.392849     0.469340     0.653505
0.640022     0.570295     0.646140
0.391001     0.639572     0.576597
0.639669     0.661979     0.479983
0.390318     0.615284     0.391672
0.638482     0.531591     0.340740
0.391900     0.431567     0.357718
0.639825     0.358410     0.422052
0.272851     0.546436     0.600199
0.745641     0.593453     0.550434
0.272182     0.609686     0.486983
0.744755     0.578180     0.427388
0.272493     0.520656     0.392187
0.745043     0.455852     0.403609
0.272835     0.402414     0.447009
0.745828     0.395473     0.512477
0.273132     0.418386     0.575449
0.745924     0.480531     0.603519
0.497873     0.336475     0.410379
0.534927     0.311551     0.523299
0.498189     0.363361     0.626741
0.534528     0.464208     0.684817
0.497072     0.578953     0.667666
0.533498     0.666314     0.591422
0.496403     0.684294     0.477351
0.532852     0.638875     0.371373
0.496541     0.535085     0.319001
0.533525     0.419592     0.329116
0.221938     0.499188     0.500572
0.344875     0.500025     0.500151
