EA39420 15.926 13.963 15.103 90.00 90.00 90.00 Sym.group:    0
1.0
15.925874     0.000000     0.000000
0.000000    13.963007     0.000000
0.000000     0.000000    15.102611
W   B
12  14
Direct
0.504458     0.365194     0.534014
0.589979     0.522712     0.578243
0.494087     0.637163     0.475125
0.402004     0.472659     0.406725
0.409318     0.515728     0.579252
0.597794     0.480840     0.405738
0.504759     0.401778     0.704584
0.495634     0.684152     0.643938
0.315297     0.634445     0.461795
0.321014     0.350816     0.524659
0.686232     0.361668     0.520724
0.678391     0.646767     0.460896
0.497743     0.577287     0.337004
0.502746     0.353692     0.385303
0.500104     0.547881     0.694084
0.387316     0.679594     0.566399
0.290222     0.492748     0.495572
0.396788     0.361757     0.634539
0.709818     0.505637     0.493209
0.591213     0.633419     0.363367
0.500261     0.454204     0.316598
0.599300     0.322456     0.428310
0.401423     0.625591     0.362207
0.408193     0.315895     0.431205
0.613146     0.369081     0.632105
0.602762     0.686834     0.564404
