EA30459 14.107 14.480 14.139 90.00 90.00 90.00 Sym.group:    0
1.0
14.107059     0.000000     0.000000
0.000000    14.480392     0.000000
0.000000     0.000000    14.138959
W   B
12   7
Direct
0.383182     0.527561     0.655325
0.516401     0.412294     0.677798
0.651609     0.388915     0.553179
0.340692     0.521628     0.369313
0.502935     0.507498     0.507228
0.398121     0.366436     0.420752
0.701756     0.543725     0.511282
0.459228     0.648836     0.397341
0.467027     0.669477     0.590773
0.597040     0.558399     0.654786
0.500208     0.470341     0.320049
0.601065     0.688601     0.483285
0.330996     0.473892     0.517249
0.501843     0.344008     0.535523
0.400433     0.396016     0.574047
0.601581     0.569705     0.387724
0.631032     0.456475     0.408246
0.556402     0.364510     0.428748
0.358450     0.591683     0.507352
