EA17619 17.009 14.101 13.978 90.00 90.00 90.00 Sym.group:    0
1.0
17.008974     0.000000     0.000000
0.000000    14.101050     0.000000
0.000000     0.000000    13.978238
W   B
12  21
Direct
0.608008     0.366644     0.581075
0.377701     0.344162     0.485741
0.608002     0.381639     0.396700
0.377295     0.465703     0.345586
0.607383     0.561007     0.355667
0.377527     0.632786     0.417523
0.612000     0.652644     0.510766
0.375856     0.616502     0.601708
0.611800     0.533619     0.651150
0.376011     0.437937     0.645093
0.741551     0.608348     0.592320
0.244270     0.529674     0.625330
0.718696     0.454225     0.593771
0.271709     0.401644     0.551697
0.715192     0.391725     0.487692
0.272181     0.418604     0.427721
0.715192     0.472503     0.393598
0.271428     0.539076     0.397925
0.720254     0.585151     0.441286
0.269610     0.607146     0.501815
0.509325     0.460152     0.322396
0.475411     0.569878     0.333891
0.507280     0.657434     0.404024
0.475738     0.677607     0.515135
0.510236     0.632810     0.616200
0.475388     0.538973     0.672831
0.509566     0.429420     0.670946
0.474663     0.349745     0.593670
0.509159     0.324110     0.485719
0.475031     0.367103     0.382662
0.768398     0.494919     0.496696
0.335867     0.499170     0.502245
0.602277     0.497940     0.499423
