EA38252 16.607 14.303 13.751 90.00 90.00 90.00 Sym.group:    0
1.0
16.606553     0.000000     0.000000
0.000000    14.302646     0.000000
0.000000     0.000000    13.751144
W   B
12  19
Direct
0.440985     0.500460     0.494433
0.426488     0.640440     0.646671
0.420451     0.637024     0.354506
0.421405     0.357836     0.359255
0.428051     0.363140     0.651272
0.727181     0.500829     0.500596
0.570580     0.591190     0.591361
0.570142     0.591078     0.401319
0.570505     0.407728     0.404411
0.570708     0.409912     0.593537
0.282899     0.589117     0.417586
0.284244     0.407553     0.421354
0.315540     0.400913     0.577935
0.313950     0.600702     0.575027
0.699707     0.395051     0.611046
0.698856     0.608620     0.609081
0.699047     0.605802     0.387269
0.699847     0.393973     0.389324
0.364904     0.496995     0.332536
0.375298     0.334870     0.508358
0.361124     0.501355     0.638965
0.374779     0.662912     0.502910
0.678428     0.357029     0.500125
0.678813     0.502028     0.649705
0.676967     0.644254     0.497295
0.681684     0.499321     0.348048
0.476836     0.337386     0.501493
0.469612     0.502235     0.664037
0.476471     0.663029     0.496506
0.469952     0.497203     0.329159
0.274548     0.500015     0.544884
