EA32261 14.678 14.678 12.753 90.00 90.00 90.00 Sym.group:    0
1.0
14.678016     0.000000     0.000000
0.000000    14.678016     0.000000
0.000000     0.000000    12.753093
W   B
13   4
Direct
0.500157     0.500016     0.483737
0.594637     0.588782     0.352561
0.588919     0.405569     0.352456
0.405473     0.411277     0.352544
0.411123     0.594540     0.352511
0.505984     0.623188     0.648360
0.376587     0.505581     0.648621
0.494033     0.376744     0.648334
0.623185     0.494258     0.648319
0.491205     0.303403     0.473561
0.303105     0.508402     0.473832
0.508716     0.696681     0.473492
0.696897     0.491579     0.473831
0.380751     0.391414     0.529417
0.608669     0.380673     0.529466
0.619242     0.608627     0.529464
0.391317     0.619264     0.529494
