EA39477 14.961 14.850 14.612 90.00 90.00 90.00 Sym.group:    0
1.0
14.960717     0.000000     0.000000
0.000000    14.849896     0.000000
0.000000     0.000000    14.611730
W   B
13  12
Direct
0.498052     0.520232     0.505333
0.697234     0.480900     0.516546
0.604597     0.333058     0.507760
0.381945     0.628821     0.407422
0.316066     0.554827     0.564034
0.539450     0.621717     0.340678
0.507609     0.356292     0.370598
0.432671     0.315893     0.517716
0.444594     0.579014     0.675500
0.389452     0.423293     0.646550
0.423561     0.496412     0.313396
0.642578     0.637579     0.491491
0.622301     0.564895     0.648887
0.320009     0.495217     0.424697
0.420646     0.661401     0.550446
0.619179     0.418668     0.629879
0.640729     0.420171     0.391308
0.521813     0.359535     0.629179
0.529037     0.664670     0.586262
0.503688     0.684894     0.474553
0.572061     0.480019     0.321005
0.652183     0.534066     0.382271
0.528814     0.458255     0.688829
0.324523     0.417528     0.509893
0.367208     0.392646     0.405766
