EA38308 16.827 14.143 14.265 90.00 90.00 90.00 Sym.group:    0
1.0
16.827227     0.000000     0.000000
0.000000    14.142723     0.000000
0.000000     0.000000    14.265097
W   B
13  17
Direct
0.479637     0.365122     0.387210
0.484152     0.464295     0.675811
0.476584     0.671869     0.446619
0.501592     0.533722     0.325060
0.518884     0.640865     0.623475
0.522823     0.321901     0.557534
0.720230     0.486519     0.590330
0.712016     0.597843     0.454157
0.714953     0.435728     0.422963
0.286403     0.580250     0.598091
0.295273     0.405760     0.563953
0.274943     0.513528     0.430136
0.425134     0.489476     0.515410
0.345941     0.634928     0.470674
0.347822     0.380260     0.420510
0.644668     0.609468     0.588803
0.649593     0.369058     0.540648
0.635683     0.532473     0.346371
0.605076     0.527924     0.660513
0.590856     0.628417     0.389224
0.602015     0.348799     0.437577
0.401077     0.586916     0.663243
0.397513     0.318304     0.505770
0.383978     0.584425     0.370215
0.596787     0.663943     0.500575
0.595238     0.424259     0.347476
0.604689     0.413955     0.635772
0.407932     0.344961     0.618887
0.380032     0.468071     0.344141
0.398478     0.656963     0.568853
