EA32217 15.401 14.079 14.159 90.00 90.00 90.00 Sym.group:    0
1.0
15.400567     0.000000     0.000000
0.000000    14.078863     0.000000
0.000000     0.000000    14.159460
W   B
14   5
Direct
0.709723     0.552640     0.540299
0.589517     0.509386     0.667079
0.644002     0.384937     0.564307
0.648113     0.450136     0.394938
0.612836     0.620275     0.403850
0.589747     0.661790     0.578845
0.353425     0.469134     0.400933
0.310576     0.532669     0.560782
0.498791     0.417097     0.321527
0.504937     0.500557     0.501245
0.425966     0.466406     0.671353
0.495464     0.323820     0.592665
0.461503     0.589830     0.333536
0.424265     0.642056     0.607167
0.549364     0.344783     0.448758
0.378513     0.396728     0.538070
0.439020     0.351234     0.448117
0.380541     0.619927     0.459149
0.483696     0.666597     0.467378
