EA17545 17.755 14.481 14.218 90.00 90.00 90.00 Sym.group:    0
1.0
17.755091     0.000000     0.000000
0.000000    14.481076     0.000000
0.000000     0.000000    14.217808
W   B
14  21
Direct
0.554779     0.427524     0.666895
0.322065     0.453358     0.626893
0.364257     0.296851     0.562733
0.294403     0.398444     0.448911
0.503188     0.321404     0.522502
0.431852     0.481682     0.502757
0.514258     0.654950     0.482381
0.593778     0.506242     0.508268
0.667177     0.557225     0.672907
0.391522     0.625374     0.615187
0.531926     0.604278     0.660891
0.706121     0.383610     0.455765
0.324394     0.545561     0.372313
0.724354     0.539083     0.401913
0.436144     0.496936     0.676224
0.254330     0.528567     0.509415
0.436182     0.381610     0.650026
0.617075     0.348552     0.557980
0.404238     0.326377     0.420424
0.579876     0.378016     0.405705
0.388509     0.412751     0.345108
0.704395     0.608701     0.534802
0.643634     0.649923     0.452631
0.608589     0.584857     0.360611
0.518418     0.572409     0.345570
0.676812     0.420584     0.609474
0.446091     0.499998     0.328050
0.275275     0.590792     0.603826
0.433496     0.608688     0.376312
0.621828     0.659480     0.568794
0.300250     0.632729     0.498644
0.386168     0.657041     0.464182
0.629321     0.461951     0.358832
0.482280     0.386511     0.381039
0.733016     0.497943     0.552032
