EA17432 17.123 15.545 14.524 90.00 90.00 90.00 Sym.group:    0
1.0
17.122794     0.000000     0.000000
0.000000    15.544856     0.000000
0.000000     0.000000    14.523730
W   B
14  23
Direct
0.412128     0.472175     0.497305
0.366003     0.592636     0.378356
0.519602     0.690886     0.395753
0.563283     0.653600     0.580573
0.507825     0.522760     0.341169
0.268756     0.473976     0.405931
0.365991     0.531970     0.650407
0.474215     0.353322     0.375381
0.513307     0.338682     0.553068
0.581712     0.481978     0.511006
0.650943     0.524493     0.655450
0.683153     0.428718     0.396843
0.510954     0.553871     0.714895
0.588422     0.379388     0.281487
0.275973     0.469693     0.557535
0.491494     0.583933     0.476916
0.383968     0.452157     0.339161
0.456363     0.708872     0.533352
0.299801     0.564172     0.514331
0.400307     0.710612     0.440742
0.619100     0.612612     0.349560
0.637112     0.663649     0.449260
0.345866     0.366368     0.405175
0.594671     0.323588     0.419621
0.647523     0.343675     0.512977
0.392956     0.319822     0.497860
0.630946     0.383003     0.620950
0.555168     0.427753     0.674194
0.386423     0.367679     0.601783
0.308529     0.374946     0.518752
0.723673     0.519451     0.516942
0.681843     0.613275     0.537885
0.705069     0.421621     0.554944
0.686128     0.569449     0.423391
0.375438     0.631294     0.530482
0.454330     0.429421     0.657653
0.441025     0.644500     0.628911
