EA38138 15.762 15.839 14.699 90.00 90.00 90.00 Sym.group:    0
1.0
15.762316     0.000000     0.000000
0.000000    15.838962     0.000000
0.000000     0.000000    14.699108
W   B
14  19
Direct
0.406276     0.502773     0.499085
0.593713     0.501653     0.499846
0.409675     0.341933     0.421397
0.412161     0.486335     0.312530
0.409477     0.650793     0.390032
0.410477     0.666954     0.575015
0.413790     0.519635     0.683751
0.409825     0.359044     0.609429
0.589572     0.341248     0.423076
0.589111     0.485228     0.313897
0.590868     0.650285     0.390586
0.589883     0.666513     0.575102
0.586586     0.518533     0.685167
0.588179     0.358412     0.611290
0.690180     0.394130     0.512343
0.690222     0.439881     0.406551
0.690085     0.550055     0.393880
0.690596     0.611175     0.488161
0.688852     0.568531     0.594804
0.688804     0.457642     0.606318
0.309432     0.395194     0.510683
0.310138     0.441341     0.405086
0.310592     0.550841     0.392256
0.309749     0.612039     0.486828
0.311209     0.569152     0.593411
0.310449     0.458814     0.604516
0.499617     0.413434     0.709713
0.500115     0.402403     0.509600
0.500316     0.381212     0.318227
0.500527     0.587124     0.308338
0.500396     0.711656     0.476182
0.499871     0.622132     0.669797
0.499261     0.283905     0.523101
