EA38139 16.223 15.213 15.128 90.00 90.00 90.00 Sym.group:    0
1.0
16.223266     0.000000     0.000000
0.000000    15.213343     0.000000
0.000000     0.000000    15.128071
W   B
15  18
Direct
0.408398     0.504339     0.503424
0.594731     0.504743     0.499041
0.583208     0.383058     0.359585
0.586423     0.323718     0.535757
0.585993     0.441589     0.675076
0.591120     0.622079     0.637769
0.587777     0.681476     0.463943
0.581610     0.559090     0.324793
0.408978     0.384353     0.362481
0.411194     0.322453     0.538223
0.414319     0.444655     0.673822
0.414009     0.624936     0.641952
0.411372     0.678653     0.470200
0.409558     0.561274     0.333420
0.719298     0.634623     0.542294
0.685951     0.587392     0.414339
0.683242     0.478169     0.384239
0.683743     0.393629     0.459883
0.685392     0.415370     0.572323
0.689074     0.519523     0.615073
0.311159     0.612262     0.543451
0.309552     0.589002     0.431402
0.310027     0.481332     0.394615
0.313088     0.395408     0.466964
0.313707     0.418344     0.577747
0.314094     0.525816     0.615854
0.502210     0.543803     0.708143
0.502375     0.703716     0.571108
0.497116     0.663813     0.359422
0.495176     0.460744     0.282885
0.496840     0.293628     0.428366
0.500168     0.338994     0.644018
0.499098     0.408017     0.468390
