EA38813 17.252 15.396 14.153 90.00 90.00 90.00 Sym.group:    0
1.0
17.251522     0.000000     0.000000
0.000000    15.395615     0.000000
0.000000     0.000000    14.152769
W   B
16  17
Direct
0.524583     0.643063     0.427887
0.320912     0.384848     0.434110
0.533196     0.626705     0.615589
0.471382     0.486709     0.679388
0.362551     0.376774     0.598531
0.576332     0.490227     0.511848
0.716843     0.557658     0.469687
0.697773     0.437281     0.611701
0.522901     0.489844     0.340407
0.289683     0.544117     0.401099
0.417892     0.516979     0.506708
0.301070     0.628391     0.552047
0.591486     0.317734     0.524910
0.446298     0.281612     0.489713
0.224848     0.476372     0.537345
0.313304     0.515037     0.672247
0.394278     0.471650     0.344583
0.418793     0.576961     0.353366
0.408660     0.615200     0.642732
0.426653     0.671117     0.537699
0.576317     0.404637     0.651300
0.687031     0.410822     0.462526
0.655893     0.478289     0.370009
0.523885     0.343365     0.394911
0.628733     0.580554     0.349778
0.434697     0.374464     0.367095
0.633934     0.652930     0.523172
0.651463     0.667848     0.410465
0.610536     0.385985     0.392481
0.491823     0.356508     0.613136
0.600881     0.510525     0.676224
0.387179     0.650041     0.431656
0.658188     0.575752     0.605645
