EA38722 17.017 15.479 15.516 90.00 90.00 90.00 Sym.group:    0
1.0
17.017415     0.000000     0.000000
0.000000    15.478880     0.000000
0.000000     0.000000    15.515822
W   B
16  19
Direct
0.410670     0.495866     0.500708
0.422135     0.365360     0.382932
0.419692     0.326956     0.557268
0.418111     0.460798     0.672464
0.416004     0.630187     0.617684
0.416708     0.669006     0.442993
0.420186     0.533395     0.324334
0.579816     0.329117     0.559234
0.242178     0.495673     0.496342
0.589154     0.498999     0.506521
0.576541     0.632961     0.623079
0.583309     0.670223     0.448397
0.586190     0.534894     0.328345
0.582892     0.367213     0.386719
0.576439     0.460521     0.675674
0.758102     0.500192     0.510377
0.316479     0.531227     0.604078
0.317423     0.606573     0.518894
0.319915     0.572306     0.412720
0.319901     0.461860     0.391235
0.319591     0.385608     0.475846
0.317852     0.420093     0.582707
0.501613     0.286596     0.457900
0.497568     0.351182     0.663502
0.504222     0.432161     0.297618
0.684583     0.465265     0.401406
0.682228     0.389509     0.485131
0.680310     0.423177     0.592098
0.679492     0.534750     0.614362
0.680609     0.610176     0.529667
0.682978     0.575531     0.423497
0.497591     0.709054     0.543705
0.502791     0.643338     0.338983
0.495707     0.565795     0.704554
0.501024     0.564443     0.429025
