EA30283 18.131 16.205 14.366 90.00 90.00 90.00 Sym.group:    0
1.0
18.131085     0.000000     0.000000
0.000000    16.204520     0.000000
0.000000     0.000000    14.366375
W   B
16  18
Direct
0.502525     0.628520     0.568227
0.513219     0.347629     0.543422
0.583443     0.496369     0.498719
0.655482     0.578072     0.361393
0.769312     0.500741     0.484687
0.684148     0.431330     0.376899
0.506768     0.468673     0.665986
0.688821     0.507715     0.629843
0.435586     0.489021     0.499417
0.344276     0.630181     0.526607
0.313078     0.551631     0.381758
0.517361     0.633882     0.386161
0.525495     0.487749     0.325919
0.380043     0.295347     0.516845
0.445100     0.348588     0.380160
0.311313     0.400363     0.422031
0.609656     0.648923     0.482649
0.387436     0.466062     0.667446
0.410076     0.564298     0.639717
0.622546     0.394692     0.604143
0.697974     0.406404     0.529041
0.626112     0.354276     0.490276
0.687340     0.595601     0.509546
0.581541     0.570120     0.671736
0.626297     0.621054     0.594003
0.414152     0.377358     0.625707
0.333672     0.418617     0.574631
0.324209     0.524876     0.619035
0.286381     0.501805     0.518154
0.393104     0.652422     0.381277
0.423487     0.567399     0.320419
0.433473     0.699148     0.470031
0.567345     0.374365     0.402806
0.399233     0.466764     0.331307
