EA46842 17.035 14.178 14.018 90.00 90.00 90.00 Sym.group:    0
1.0
17.034517     0.000000     0.000000
0.000000    14.177618     0.000000
0.000000     0.000000    14.017971
W   B
16  12
Direct
0.495539     0.567790     0.648541
0.417934     0.507556     0.496415
0.573763     0.402787     0.670802
0.476278     0.397635     0.372491
0.518946     0.310872     0.535814
0.486034     0.575819     0.324283
0.574520     0.498427     0.498341
0.719246     0.434673     0.443479
0.293450     0.420973     0.562247
0.488142     0.676833     0.476862
0.620714     0.668833     0.551494
0.378830     0.682294     0.604266
0.618472     0.491206     0.323224
0.419540     0.395333     0.652046
0.349138     0.639678     0.405312
0.266410     0.598536     0.548146
0.293903     0.501173     0.422735
0.597384     0.633184     0.392636
0.682158     0.444218     0.598717
0.681290     0.582408     0.434721
0.395258     0.340163     0.493050
0.342442     0.397842     0.410385
0.632610     0.542038     0.643652
0.702363     0.549025     0.547470
0.643881     0.351580     0.536176
0.603823     0.359841     0.419323
0.369859     0.494719     0.339669
0.358070     0.534562     0.647703
