EA46732 17.359 14.761 14.287 90.00 90.00 90.00 Sym.group:    0
1.0
17.358532     0.000000     0.000000
0.000000    14.761290     0.000000
0.000000     0.000000    14.286632
W   B
16  14
Direct
0.474919     0.452256     0.664344
0.579257     0.497294     0.499766
0.664530     0.627757     0.580401
0.380867     0.305715     0.442433
0.714984     0.434845     0.428760
0.364362     0.668781     0.535964
0.509587     0.623424     0.610954
0.421844     0.505197     0.497632
0.292113     0.560070     0.419809
0.284410     0.406015     0.503982
0.482545     0.407648     0.356293
0.672370     0.595397     0.389114
0.709553     0.468868     0.605915
0.523614     0.577947     0.349971
0.508431     0.339470     0.526643
0.379412     0.589656     0.686756
0.345132     0.452026     0.633393
0.593624     0.518063     0.661414
0.751886     0.561853     0.497894
0.638450     0.360890     0.528774
0.391460     0.361878     0.586526
0.603095     0.365701     0.414670
0.405184     0.628974     0.390932
0.575417     0.656958     0.470991
0.397924     0.527131     0.334835
0.607594     0.461621     0.343767
0.351314     0.431425     0.367520
0.301520     0.540887     0.574915
0.598685     0.403239     0.632282
0.475918     0.669011     0.463351
