EA42445 16.850 16.319 15.663 90.00 90.00 90.00 Sym.group:    0
1.0
16.849569     0.000000     0.000000
0.000000    16.318827     0.000000
0.000000     0.000000    15.662946
W   B
17  23
Direct
0.422143     0.570769     0.494494
0.374061     0.692981     0.599583
0.354021     0.445521     0.632412
0.310880     0.478038     0.461359
0.450112     0.410158     0.502738
0.430040     0.337706     0.333165
0.467060     0.484785     0.347370
0.402661     0.279914     0.587147
0.518029     0.642527     0.602116
0.515059     0.480912     0.655078
0.579487     0.513562     0.489120
0.625600     0.384654     0.571122
0.628382     0.482519     0.336543
0.570265     0.350494     0.413432
0.666495     0.639511     0.545794
0.740374     0.493588     0.548119
0.436627     0.658078     0.359603
0.354788     0.697530     0.463781
0.316090     0.567830     0.593736
0.458889     0.275743     0.454767
0.314056     0.619626     0.405542
0.292902     0.625872     0.510374
0.408132     0.568875     0.647799
0.316042     0.360609     0.532521
0.455065     0.711573     0.488022
0.438634     0.367404     0.686346
0.615283     0.582486     0.667821
0.545958     0.662227     0.459469
0.712323     0.572169     0.434314
0.655449     0.483721     0.660301
0.742298     0.481180     0.409955
0.687107     0.405493     0.444556
0.551014     0.594320     0.354658
0.539420     0.388059     0.284074
0.515883     0.337819     0.629695
0.525987     0.288112     0.534874
0.632538     0.628964     0.408250
0.711086     0.569588     0.652321
0.357591     0.551863     0.346008
0.362167     0.313220     0.451619
