EA61224 15.304 15.227 14.927 90.00 90.00 90.00 Sym.group:    0
1.0
15.304023     0.000000     0.000000
0.000000    15.226662     0.000000
0.000000     0.000000    14.926646
W   B
17   2
Direct
0.619394     0.479528     0.620167
0.611465     0.629199     0.529884
0.463017     0.686405     0.541345
0.622193     0.534241     0.384954
0.377659     0.625986     0.406317
0.469497     0.465254     0.691483
0.684472     0.377676     0.472785
0.371388     0.419276     0.383617
0.735141     0.516933     0.507234
0.376007     0.574540     0.638687
0.477519     0.507657     0.503451
0.540429     0.349233     0.554266
0.371364     0.379261     0.568308
0.474321     0.549564     0.312521
0.424838     0.280999     0.448289
0.540408     0.389515     0.386688
0.299768     0.504626     0.498917
0.519375     0.588968     0.639174
0.521744     0.641142     0.411909
