EA46665 17.481 15.039 14.922 90.00 90.00 90.00 Sym.group:    0
1.0
17.480538     0.000000     0.000000
0.000000    15.038586     0.000000
0.000000     0.000000    14.922375
W   B
17  14
Direct
0.411872     0.495332     0.494849
0.445394     0.668796     0.483462
0.369039     0.487999     0.669795
0.495642     0.405132     0.635134
0.490519     0.580973     0.632871
0.613144     0.482880     0.700055
0.580062     0.501726     0.505091
0.715543     0.498864     0.409386
0.489972     0.563992     0.354778
0.682547     0.644506     0.485721
0.644618     0.358379     0.594707
0.497219     0.388334     0.377841
0.339445     0.353877     0.429520
0.370663     0.460409     0.312751
0.642900     0.351243     0.417091
0.718268     0.511243     0.581005
0.270698     0.504478     0.423535
0.363860     0.601132     0.386910
0.325070     0.622070     0.489395
0.369302     0.615439     0.593495
0.622056     0.605821     0.614712
0.374924     0.369469     0.578772
0.296678     0.433145     0.553276
0.565251     0.658367     0.429074
0.618832     0.585010     0.368875
0.447946     0.341653     0.509569
0.736744     0.383896     0.502760
0.598383     0.476755     0.347750
0.543898     0.341676     0.508407
0.564912     0.663053     0.543201
0.294599     0.544352     0.566214
