EA61050 17.502 14.157 14.166 90.00 90.00 90.00 Sym.group:    0
1.0
17.501943     0.000000     0.000000
0.000000    14.156749     0.000000
0.000000     0.000000    14.165611
W   B
17   5
Direct
0.345841     0.625419     0.523256
0.351452     0.465024     0.628035
0.354341     0.368114     0.474370
0.351719     0.528920     0.370447
0.707779     0.364013     0.487261
0.720386     0.509104     0.401914
0.707602     0.633926     0.509122
0.718979     0.490734     0.596676
0.440670     0.606096     0.674965
0.445190     0.392727     0.328368
0.578337     0.610818     0.424072
0.581233     0.558951     0.606219
0.579554     0.385814     0.572687
0.579311     0.435759     0.399787
0.254144     0.493383     0.498932
0.456831     0.502353     0.500392
0.482298     0.693966     0.546805
0.482857     0.537906     0.343637
0.481277     0.455632     0.651290
0.483183     0.345704     0.471718
0.446500     0.633986     0.404946
0.450515     0.361650     0.585098
