EA42541 17.122 16.677 14.875 90.00 90.00 90.00 Sym.group:    0
1.0
17.121570     0.000000     0.000000
0.000000    16.677306     0.000000
0.000000     0.000000    14.875210
W   B
17  21
Direct
0.387519     0.362156     0.376418
0.420401     0.485346     0.505497
0.478297     0.511857     0.344902
0.329685     0.559779     0.632572
0.414011     0.643310     0.500924
0.386253     0.398713     0.646187
0.529913     0.358070     0.451594
0.612490     0.421999     0.309522
0.532262     0.422629     0.629576
0.569258     0.571610     0.668620
0.545152     0.655294     0.391837
0.725436     0.494006     0.380243
0.589246     0.509659     0.486097
0.626613     0.662728     0.544851
0.595150     0.275481     0.559559
0.684500     0.367707     0.448866
0.316740     0.585743     0.379512
0.346659     0.472247     0.341503
0.411956     0.324176     0.520349
0.329540     0.374613     0.511055
0.265975     0.536179     0.506438
0.494723     0.381467     0.309595
0.298694     0.454756     0.441248
0.290073     0.454116     0.563578
0.426508     0.636859     0.351001
0.288958     0.630770     0.515926
0.477753     0.305978     0.601948
0.519865     0.721618     0.511894
0.446114     0.610489     0.650061
0.652642     0.473108     0.642128
0.666820     0.610652     0.410976
0.716640     0.571126     0.498933
0.711429     0.469203     0.540104
0.612298     0.552962     0.334100
0.687580     0.559211     0.605703
0.445774     0.514076     0.685718
0.655569     0.384610     0.591450
0.511510     0.675700     0.609518
