EA38778 17.691 15.778 14.223 90.00 90.00 90.00 Sym.group:    0
1.0
17.690856     0.000000     0.000000
0.000000    15.778386     0.000000
0.000000     0.000000    14.222848
W   B
17  17
Direct
0.545040     0.492094     0.669756
0.454857     0.371040     0.580120
0.587591     0.455074     0.496443
0.737113     0.431812     0.524429
0.686935     0.557365     0.612295
0.551495     0.628773     0.571230
0.434665     0.526195     0.511122
0.679042     0.586844     0.437448
0.287581     0.528142     0.480787
0.450036     0.380798     0.401290
0.318852     0.424736     0.619305
0.462291     0.718707     0.453880
0.328268     0.585537     0.639412
0.537540     0.602503     0.381433
0.383363     0.626520     0.362535
0.564072     0.286769     0.490473
0.598854     0.353947     0.346473
0.652542     0.423419     0.641687
0.576854     0.359482     0.629197
0.657692     0.338205     0.569956
0.418171     0.490946     0.674421
0.453817     0.590148     0.666565
0.427409     0.666383     0.591111
0.353897     0.654732     0.507697
0.532120     0.465830     0.327245
0.606043     0.701786     0.453354
0.360739     0.483240     0.362421
0.263844     0.388363     0.493367
0.447155     0.510520     0.334715
0.664545     0.683520     0.542928
0.620199     0.500272     0.337193
0.318610     0.398625     0.402762
0.690363     0.447777     0.388629
0.348403     0.339896     0.498322
