EA38581 18.390 16.400 14.293 90.00 90.00 90.00 Sym.group:    0
1.0
18.390275     0.000000     0.000000
0.000000    16.400280     0.000000
0.000000     0.000000    14.292994
W   B
18  19
Direct
0.422466     0.369538     0.615025
0.636707     0.314616     0.537575
0.533419     0.420922     0.484482
0.423400     0.325241     0.446756
0.451903     0.462246     0.331675
0.416775     0.616687     0.374540
0.403550     0.501086     0.508825
0.302476     0.607483     0.485985
0.533775     0.583597     0.500913
0.494661     0.734535     0.443568
0.685799     0.601811     0.525605
0.640380     0.461418     0.613102
0.427666     0.658247     0.585036
0.506860     0.500690     0.660176
0.538099     0.622148     0.309538
0.669337     0.454824     0.433816
0.589280     0.718229     0.575170
0.284679     0.464507     0.614317
0.513554     0.293682     0.558353
0.540704     0.285392     0.442360
0.519532     0.346017     0.348607
0.608350     0.340993     0.391178
0.345371     0.413991     0.392850
0.330791     0.515652     0.371572
0.284085     0.472823     0.461510
0.386716     0.496832     0.672395
0.324613     0.383632     0.510301
0.731020     0.392819     0.550173
0.748012     0.491640     0.546258
0.633294     0.581659     0.391905
0.608138     0.589935     0.641468
0.374083     0.714049     0.464377
0.337670     0.578036     0.626492
0.528083     0.635946     0.658815
0.608491     0.678684     0.426042
0.548376     0.366772     0.636087
0.567885     0.503623     0.363159
