EA38781 17.651 15.741 14.238 90.00 90.00 90.00 Sym.group:    0
1.0
17.651062     0.000000     0.000000
0.000000    15.741499     0.000000
0.000000     0.000000    14.237984
W   B
18  16
Direct
0.469341     0.475559     0.687085
0.549020     0.609829     0.616577
0.355681     0.645381     0.436895
0.422027     0.520107     0.523255
0.267805     0.535785     0.538963
0.335770     0.401388     0.615096
0.463334     0.353762     0.554241
0.571543     0.479025     0.505501
0.324660     0.420023     0.424853
0.705210     0.481304     0.441939
0.522045     0.661914     0.455804
0.250607     0.551867     0.367534
0.651695     0.710278     0.506917
0.694541     0.559202     0.606642
0.540644     0.298420     0.416103
0.689201     0.403979     0.608021
0.471882     0.440857     0.366427
0.658211     0.630628     0.364060
0.353621     0.539261     0.662709
0.427755     0.608454     0.664436
0.348059     0.630849     0.594406
0.600191     0.483649     0.673168
0.564568     0.384551     0.647700
0.589882     0.323765     0.555761
0.649134     0.355449     0.468761
0.612427     0.398649     0.367738
0.449532     0.586063     0.355306
0.416297     0.316680     0.411243
0.612098     0.498862     0.336225
0.735072     0.613728     0.474842
0.542332     0.568190     0.343926
0.354334     0.305562     0.502068
0.368066     0.534349     0.341102
0.433416     0.672633     0.564695
