EA43969 17.195 14.117 14.291 90.00 90.00 90.00 Sym.group:    0
1.0
17.194947     0.000000     0.000000
0.000000    14.116976     0.000000
0.000000     0.000000    14.290700
W   B
18   9
Direct
0.634363     0.328595     0.531961
0.576327     0.498707     0.510866
0.723566     0.455575     0.597333
0.704799     0.591853     0.486886
0.497632     0.351333     0.612202
0.613738     0.457319     0.699029
0.478991     0.526300     0.677189
0.620034     0.631648     0.630086
0.484030     0.673801     0.567875
0.477768     0.658664     0.398780
0.349456     0.630774     0.641745
0.335508     0.650251     0.457032
0.421330     0.505844     0.507030
0.512713     0.484099     0.342487
0.507507     0.325307     0.434831
0.357952     0.413848     0.641161
0.262266     0.526651     0.561660
0.383515     0.387389     0.362786
0.649464     0.505394     0.369139
0.599486     0.606170     0.381894
0.620178     0.392416     0.388336
0.697882     0.437115     0.446860
0.593139     0.675090     0.479595
0.312789     0.402916     0.490500
0.305612     0.500614     0.415938
0.393704     0.335111     0.513129
0.386250     0.547214     0.353670
