EA38582 18.005 16.382 14.702 90.00 90.00 90.00 Sym.group:    0
1.0
18.005479     0.000000     0.000000
0.000000    16.381696     0.000000
0.000000     0.000000    14.702064
W   B
19  18
Direct
0.582263     0.617155     0.624754
0.363204     0.681757     0.537043
0.471822     0.576901     0.491764
0.585011     0.675536     0.458478
0.440050     0.518486     0.334942
0.580970     0.559930     0.332696
0.573733     0.403347     0.368995
0.602261     0.502437     0.504728
0.698100     0.390920     0.485604
0.458603     0.416155     0.492298
0.493817     0.274687     0.438391
0.303786     0.399307     0.519525
0.351296     0.538416     0.609294
0.572177     0.351449     0.581504
0.489468     0.492236     0.652285
0.447628     0.359826     0.305830
0.322286     0.543408     0.440097
0.397416     0.281942     0.568132
0.718848     0.525243     0.623370
0.491119     0.701580     0.562652
0.462301     0.710948     0.448005
0.488631     0.650796     0.357272
0.396249     0.648802     0.393713
0.676971     0.594889     0.410336
0.684153     0.491351     0.381327
0.729009     0.528993     0.477605
0.610677     0.478831     0.666980
0.684175     0.616256     0.525241
0.260498     0.611483     0.549670
0.240229     0.511656     0.548671
0.355336     0.417705     0.385602
0.385942     0.409387     0.631550
0.617159     0.299616     0.453166
0.674457     0.408401     0.630451
0.464886     0.358357     0.648268
0.374713     0.320979     0.423023
0.450754     0.630837     0.636735
