EA38527 17.696 15.770 16.216 90.00 90.00 90.00 Sym.group:    0
1.0
17.695659     0.000000     0.000000
0.000000    15.770251     0.000000
0.000000     0.000000    16.215706
W   B
19  20
Direct
0.578497     0.689886     0.497105
0.490331     0.621419     0.609788
0.592968     0.521367     0.507555
0.473323     0.455167     0.620290
0.649620     0.389841     0.594451
0.607193     0.537559     0.675888
0.752371     0.503408     0.500207
0.438040     0.538623     0.464176
0.268826     0.512079     0.490799
0.575616     0.594434     0.361231
0.587537     0.426092     0.333052
0.436432     0.416145     0.335526
0.341572     0.637054     0.546561
0.420948     0.588804     0.317922
0.698169     0.630307     0.579563
0.688665     0.378742     0.440951
0.537721     0.358708     0.483098
0.602963     0.702077     0.660476
0.370270     0.392468     0.480392
0.679076     0.513787     0.388677
0.607738     0.296519     0.383427
0.713747     0.502476     0.625428
0.371592     0.368603     0.614126
0.565804     0.401659     0.690301
0.440180     0.303331     0.408855
0.448510     0.323551     0.574862
0.518139     0.308255     0.351928
0.356651     0.458765     0.662474
0.293405     0.426879     0.589182
0.511675     0.512089     0.276299
0.390389     0.676982     0.423580
0.484084     0.681805     0.398434
0.324857     0.602519     0.409382
0.536939     0.329927     0.617695
0.383111     0.561472     0.649996
0.678250     0.610764     0.439953
0.294907     0.530570     0.619824
0.336893     0.497813     0.376060
0.452989     0.698054     0.500484
