EA20811  9.081  8.723  8.141 90.00 90.00 90.00 Sym.group:    0
1.0
    9.081115     0.000000     0.000000
    0.000000     8.722998     0.000000
    0.000000     0.000000     8.141279
   B
   2
Direct
    0.409258     0.500000     0.500000 
    0.590742     0.500000     0.500000 
EA20772  9.286  8.154  8.705 90.00 90.00 90.00 Sym.group:    0
1.0
    9.285656     0.000000     0.000000
    0.000000     8.154111     0.000000
    0.000000     0.000000     8.704677
   B
   3
Direct
    0.435910     0.582701     0.500000 
    0.469017     0.395578     0.500000 
    0.595073     0.521720     0.500000 
EA20709  7.836  9.358  9.394 90.00 90.00 90.00 Sym.group:    0
1.0
    7.836074     0.000000     0.000000
    0.000000     9.358175     0.000000
    0.000000     0.000000     9.393942
   B
   4
Direct
    0.500050     0.402013     0.501086 
    0.341801     0.499926     0.498911 
    0.658433     0.500132     0.498915 
    0.499716     0.597929     0.501088 
EA20618 10.171  7.782 10.806 90.00 90.00 90.00 Sym.group:    0
1.0
   10.171005     0.000000     0.000000
    0.000000     7.781959     0.000000
    0.000000     0.000000    10.805790
   B
   5
Direct
    0.346183     0.563521     0.499364 
    0.500125     0.600107     0.501155 
    0.654351     0.562611     0.499237 
    0.576858     0.387006     0.500250 
    0.422483     0.386754     0.499994 
