EA173   9.309  7.680  7.680 90.00 90.00 90.00 Sym.group:    0
1.0
    9.309210     0.000000     0.000000
    0.000000     7.680000     0.000000
    0.000000     0.000000     7.680000
   B
   2
Direct
    0.412495     0.500000     0.500000 
    0.587505     0.500000     0.500000 
EA259   8.240 10.393  8.685 90.00 90.00 90.00 Sym.group:    0
1.0
    8.240130     0.000000     0.000000
    0.000000    10.392897     0.000000
    0.000000     0.000000     8.685105
   B
   4
Direct
    0.501710     0.414417     0.499019 
    0.346306     0.499134     0.500975 
    0.653028     0.500672     0.500983 
    0.498955     0.585777     0.499023 
EA479   9.696  7.680  7.680 90.00 90.00 90.00 Sym.group:    0
1.0
    9.696267     0.000000     0.000000
    0.000000     7.680000     0.000000
    0.000000     0.000000     7.680000
   B
   2
Direct
    0.586576     0.500000     0.500000 
    0.413424     0.500000     0.500000 
EA662   8.680  8.282  9.081 90.00 90.00 90.00 Sym.group:    0
1.0
    8.680039     0.000000     0.000000
    0.000000     8.281566     0.000000
    0.000000     0.000000     9.080898
   B
   2
Direct
    0.404836     0.500000     0.500000 
    0.595164     0.500000     0.500000 
EA889   8.680  8.282  9.081 90.00 90.00 90.00 Sym.group:    0
1.0
    8.680039     0.000000     0.000000
    0.000000     8.281566     0.000000
    0.000000     0.000000     9.080898
   B
   2
Direct
    0.404836     0.500000     0.500000 
    0.595164     0.500000     0.500000 
EA1123  8.680  8.282  9.081 90.00 90.00 90.00 Sym.group:    0
1.0
    8.680039     0.000000     0.000000
    0.000000     8.281566     0.000000
    0.000000     0.000000     9.080898
   B
   2
Direct
    0.404836     0.500000     0.500000 
    0.595164     0.500000     0.500000 
EA1357  9.081  8.723  8.141 90.00 90.00 90.00 Sym.group:    0
1.0
    9.081115     0.000000     0.000000
    0.000000     8.722998     0.000000
    0.000000     0.000000     8.141279
   B
   2
Direct
    0.409258     0.500000     0.500000 
    0.590742     0.500000     0.500000 
EA1603  9.081  8.723  8.141 90.00 90.00 90.00 Sym.group:    0
1.0
    9.081115     0.000000     0.000000
    0.000000     8.722998     0.000000
    0.000000     0.000000     8.141279
   B
   2
Direct
    0.409258     0.500000     0.500000 
    0.590742     0.500000     0.500000 
EA1843  9.081  8.723  8.141 90.00 90.00 90.00 Sym.group:    0
1.0
    9.081115     0.000000     0.000000
    0.000000     8.722998     0.000000
    0.000000     0.000000     8.141279
   B
   2
Direct
    0.409258     0.500000     0.500000 
    0.590742     0.500000     0.500000 
EA2082  9.081  8.723  8.141 90.00 90.00 90.00 Sym.group:    0
1.0
    9.081115     0.000000     0.000000
    0.000000     8.722998     0.000000
    0.000000     0.000000     8.141279
   B
   2
Direct
    0.409258     0.500000     0.500000 
    0.590742     0.500000     0.500000 
EA2320  9.081  8.723  8.141 90.00 90.00 90.00 Sym.group:    0
1.0
    9.081115     0.000000     0.000000
    0.000000     8.722998     0.000000
    0.000000     0.000000     8.141279
   B
   2
Direct
    0.409258     0.500000     0.500000 
    0.590742     0.500000     0.500000 
EA2561  9.081  8.723  8.141 90.00 90.00 90.00 Sym.group:    0
1.0
    9.081115     0.000000     0.000000
    0.000000     8.722998     0.000000
    0.000000     0.000000     8.141279
   B
   2
Direct
    0.409258     0.500000     0.500000 
    0.590742     0.500000     0.500000 
EA2801  9.081  8.723  8.141 90.00 90.00 90.00 Sym.group:    0
1.0
    9.081115     0.000000     0.000000
    0.000000     8.722998     0.000000
    0.000000     0.000000     8.141279
   B
   2
Direct
    0.409258     0.500000     0.500000 
    0.590742     0.500000     0.500000 
EA3042  9.081  8.723  8.141 90.00 90.00 90.00 Sym.group:    0
1.0
    9.081115     0.000000     0.000000
    0.000000     8.722998     0.000000
    0.000000     0.000000     8.141279
   B
   2
Direct
    0.409258     0.500000     0.500000 
    0.590742     0.500000     0.500000 
EA3283  9.081  8.723  8.141 90.00 90.00 90.00 Sym.group:    0
1.0
    9.081115     0.000000     0.000000
    0.000000     8.722998     0.000000
    0.000000     0.000000     8.141279
   B
   2
Direct
    0.409258     0.500000     0.500000 
    0.590742     0.500000     0.500000 
EA3522  9.081  8.723  8.141 90.00 90.00 90.00 Sym.group:    0
1.0
    9.081115     0.000000     0.000000
    0.000000     8.722998     0.000000
    0.000000     0.000000     8.141279
   B
   2
Direct
    0.409258     0.500000     0.500000 
    0.590742     0.500000     0.500000 
EA3761  9.081  8.723  8.141 90.00 90.00 90.00 Sym.group:    0
1.0
    9.081115     0.000000     0.000000
    0.000000     8.722998     0.000000
    0.000000     0.000000     8.141279
   B
   2
Direct
    0.409258     0.500000     0.500000 
    0.590742     0.500000     0.500000 
EA4002  9.081  8.723  8.141 90.00 90.00 90.00 Sym.group:    0
1.0
    9.081115     0.000000     0.000000
    0.000000     8.722998     0.000000
    0.000000     0.000000     8.141279
   B
   2
Direct
    0.409258     0.500000     0.500000 
    0.590742     0.500000     0.500000 
EA4243  9.081  8.723  8.141 90.00 90.00 90.00 Sym.group:    0
1.0
    9.081115     0.000000     0.000000
    0.000000     8.722998     0.000000
    0.000000     0.000000     8.141279
   B
   2
Direct
    0.409258     0.500000     0.500000 
    0.590742     0.500000     0.500000 
EA4482  9.081  8.723  8.141 90.00 90.00 90.00 Sym.group:    0
1.0
    9.081115     0.000000     0.000000
    0.000000     8.722998     0.000000
    0.000000     0.000000     8.141279
   B
   2
Direct
    0.409258     0.500000     0.500000 
    0.590742     0.500000     0.500000 
EA4720  9.081  8.723  8.141 90.00 90.00 90.00 Sym.group:    0
1.0
    9.081115     0.000000     0.000000
    0.000000     8.722998     0.000000
    0.000000     0.000000     8.141279
   B
   2
Direct
    0.409258     0.500000     0.500000 
    0.590742     0.500000     0.500000 
EA4959  9.081  8.723  8.141 90.00 90.00 90.00 Sym.group:    0
1.0
    9.081115     0.000000     0.000000
    0.000000     8.722998     0.000000
    0.000000     0.000000     8.141279
   B
   2
Direct
    0.409258     0.500000     0.500000 
    0.590742     0.500000     0.500000 
EA5200  9.081  8.723  8.141 90.00 90.00 90.00 Sym.group:    0
1.0
    9.081115     0.000000     0.000000
    0.000000     8.722998     0.000000
    0.000000     0.000000     8.141279
   B
   2
Direct
    0.409258     0.500000     0.500000 
    0.590742     0.500000     0.500000 
EA5364  8.143  9.707 11.117 90.00 90.00 90.00 Sym.group:    0
1.0
    8.143174     0.000000     0.000000
    0.000000     9.707306     0.000000
    0.000000     0.000000    11.116936
   B
   4
Direct
    0.647738     0.499902     0.500481 
    0.499667     0.598420     0.499523 
    0.352182     0.499407     0.500481 
    0.500413     0.402270     0.499516 
EA5680  9.081  8.723  8.141 90.00 90.00 90.00 Sym.group:    0
1.0
    9.081115     0.000000     0.000000
    0.000000     8.722998     0.000000
    0.000000     0.000000     8.141279
   B
   2
Direct
    0.409258     0.500000     0.500000 
    0.590742     0.500000     0.500000 
EA5921  9.081  8.723  8.141 90.00 90.00 90.00 Sym.group:    0
1.0
    9.081115     0.000000     0.000000
    0.000000     8.722998     0.000000
    0.000000     0.000000     8.141279
   B
   2
Direct
    0.409258     0.500000     0.500000 
    0.590742     0.500000     0.500000 
EA6157  9.688  7.680  7.680 90.00 90.00 90.00 Sym.group:    0
1.0
    9.687672     0.000000     0.000000
    0.000000     7.680000     0.000000
    0.000000     0.000000     7.680000
   B
   2
Direct
    0.413912     0.500000     0.500000 
    0.586088     0.500000     0.500000 
EA6401  9.688  7.680  7.680 90.00 90.00 90.00 Sym.group:    0
1.0
    9.687672     0.000000     0.000000
    0.000000     7.680000     0.000000
    0.000000     0.000000     7.680000
   B
   2
Direct
    0.413912     0.500000     0.500000 
    0.586088     0.500000     0.500000 
EA6642  9.688  7.680  7.680 90.00 90.00 90.00 Sym.group:    0
1.0
    9.687672     0.000000     0.000000
    0.000000     7.680000     0.000000
    0.000000     0.000000     7.680000
   B
   2
Direct
    0.413912     0.500000     0.500000 
    0.586088     0.500000     0.500000 
EA6884  9.688  7.680  7.680 90.00 90.00 90.00 Sym.group:    0
1.0
    9.687672     0.000000     0.000000
    0.000000     7.680000     0.000000
    0.000000     0.000000     7.680000
   B
   2
Direct
    0.413912     0.500000     0.500000 
    0.586088     0.500000     0.500000 
EA7126  9.688  7.680  7.680 90.00 90.00 90.00 Sym.group:    0
1.0
    9.687672     0.000000     0.000000
    0.000000     7.680000     0.000000
    0.000000     0.000000     7.680000
   B
   2
Direct
    0.413912     0.500000     0.500000 
    0.586088     0.500000     0.500000 
EA7368  9.688  7.680  7.680 90.00 90.00 90.00 Sym.group:    0
1.0
    9.687672     0.000000     0.000000
    0.000000     7.680000     0.000000
    0.000000     0.000000     7.680000
   B
   2
Direct
    0.413912     0.500000     0.500000 
    0.586088     0.500000     0.500000 
EA7609  9.688  7.680  7.680 90.00 90.00 90.00 Sym.group:    0
1.0
    9.687672     0.000000     0.000000
    0.000000     7.680000     0.000000
    0.000000     0.000000     7.680000
   B
   2
Direct
    0.413912     0.500000     0.500000 
    0.586088     0.500000     0.500000 
EA7849  9.688  7.680  7.680 90.00 90.00 90.00 Sym.group:    0
1.0
    9.687672     0.000000     0.000000
    0.000000     7.680000     0.000000
    0.000000     0.000000     7.680000
   B
   2
Direct
    0.413912     0.500000     0.500000 
    0.586088     0.500000     0.500000 
EA8091  9.688  7.680  7.680 90.00 90.00 90.00 Sym.group:    0
1.0
    9.687672     0.000000     0.000000
    0.000000     7.680000     0.000000
    0.000000     0.000000     7.680000
   B
   2
Direct
    0.413912     0.500000     0.500000 
    0.586088     0.500000     0.500000 
EA8215  7.836  9.358  9.394 90.00 90.00 90.00 Sym.group:    0
1.0
    7.836074     0.000000     0.000000
    0.000000     9.358175     0.000000
    0.000000     0.000000     9.393942
   B
   4
Direct
    0.500050     0.402013     0.501086 
    0.341801     0.499926     0.498911 
    0.658433     0.500132     0.498915 
    0.499716     0.597929     0.501088 
EA8506  7.836  9.358  9.394 90.00 90.00 90.00 Sym.group:    0
1.0
    7.836074     0.000000     0.000000
    0.000000     9.358175     0.000000
    0.000000     0.000000     9.393942
   B
   4
Direct
    0.500050     0.597987     0.501086 
    0.341801     0.500074     0.498911 
    0.658433     0.499868     0.498915 
    0.499716     0.402071     0.501088 
EA8754  7.836  9.358  9.394 90.00 90.00 90.00 Sym.group:    0
1.0
    7.836074     0.000000     0.000000
    0.000000     9.358175     0.000000
    0.000000     0.000000     9.393942
   B
   4
Direct
    0.500050     0.402013     0.501086 
    0.341801     0.499926     0.498911 
    0.658433     0.500132     0.498915 
    0.499716     0.597929     0.501088 
EA8986  7.836  9.358  9.394 90.00 90.00 90.00 Sym.group:    0
1.0
    7.836074     0.000000     0.000000
    0.000000     9.358175     0.000000
    0.000000     0.000000     9.393942
   B
   4
Direct
    0.500050     0.597987     0.501086 
    0.341801     0.500074     0.498911 
    0.658433     0.499868     0.498915 
    0.499716     0.402071     0.501088 
EA9219  7.836  9.358  9.394 90.00 90.00 90.00 Sym.group:    0
1.0
    7.836074     0.000000     0.000000
    0.000000     9.358175     0.000000
    0.000000     0.000000     9.393942
   B
   4
Direct
    0.500050     0.402013     0.501086 
    0.341801     0.499926     0.498911 
    0.658433     0.500132     0.498915 
    0.499716     0.597929     0.501088 
EA9530  9.688  7.680  7.680 90.00 90.00 90.00 Sym.group:    0
1.0
    9.687672     0.000000     0.000000
    0.000000     7.680000     0.000000
    0.000000     0.000000     7.680000
   B
   2
Direct
    0.413912     0.500000     0.500000 
    0.586088     0.500000     0.500000 
EA9769  9.688  7.680  7.680 90.00 90.00 90.00 Sym.group:    0
1.0
    9.687672     0.000000     0.000000
    0.000000     7.680000     0.000000
    0.000000     0.000000     7.680000
   B
   2
Direct
    0.413912     0.500000     0.500000 
    0.586088     0.500000     0.500000 
EA10007  9.688  7.680  7.680 90.00 90.00 90.00 Sym.group:    0
1.0
    9.687672     0.000000     0.000000
    0.000000     7.680000     0.000000
    0.000000     0.000000     7.680000
   B
   2
Direct
    0.413912     0.500000     0.500000 
    0.586088     0.500000     0.500000 
EA10248  9.688  7.680  7.680 90.00 90.00 90.00 Sym.group:    0
1.0
    9.687672     0.000000     0.000000
    0.000000     7.680000     0.000000
    0.000000     0.000000     7.680000
   B
   2
Direct
    0.413912     0.500000     0.500000 
    0.586088     0.500000     0.500000 
EA10487  9.688  7.680  7.680 90.00 90.00 90.00 Sym.group:    0
1.0
    9.687672     0.000000     0.000000
    0.000000     7.680000     0.000000
    0.000000     0.000000     7.680000
   B
   2
Direct
    0.413912     0.500000     0.500000 
    0.586088     0.500000     0.500000 
EA10729  9.688  7.680  7.680 90.00 90.00 90.00 Sym.group:    0
1.0
    9.687672     0.000000     0.000000
    0.000000     7.680000     0.000000
    0.000000     0.000000     7.680000
   B
   2
Direct
    0.413912     0.500000     0.500000 
    0.586088     0.500000     0.500000 
EA10970  9.688  7.680  7.680 90.00 90.00 90.00 Sym.group:    0
1.0
    9.687672     0.000000     0.000000
    0.000000     7.680000     0.000000
    0.000000     0.000000     7.680000
   B
   2
Direct
    0.413912     0.500000     0.500000 
    0.586088     0.500000     0.500000 
EA11208  9.688  7.680  7.680 90.00 90.00 90.00 Sym.group:    0
1.0
    9.687672     0.000000     0.000000
    0.000000     7.680000     0.000000
    0.000000     0.000000     7.680000
   B
   2
Direct
    0.413912     0.500000     0.500000 
    0.586088     0.500000     0.500000 
EA11448  9.688  7.680  7.680 90.00 90.00 90.00 Sym.group:    0
1.0
    9.687672     0.000000     0.000000
    0.000000     7.680000     0.000000
    0.000000     0.000000     7.680000
   B
   2
Direct
    0.413912     0.500000     0.500000 
    0.586088     0.500000     0.500000 
EA11690  9.688  7.680  7.680 90.00 90.00 90.00 Sym.group:    0
1.0
    9.687672     0.000000     0.000000
    0.000000     7.680000     0.000000
    0.000000     0.000000     7.680000
   B
   2
Direct
    0.413912     0.500000     0.500000 
    0.586088     0.500000     0.500000 
EA11932  9.688  7.680  7.680 90.00 90.00 90.00 Sym.group:    0
1.0
    9.687672     0.000000     0.000000
    0.000000     7.680000     0.000000
    0.000000     0.000000     7.680000
   B
   2
Direct
    0.413912     0.500000     0.500000 
    0.586088     0.500000     0.500000 
EA12170  9.688  7.680  7.680 90.00 90.00 90.00 Sym.group:    0
1.0
    9.687672     0.000000     0.000000
    0.000000     7.680000     0.000000
    0.000000     0.000000     7.680000
   B
   2
Direct
    0.413912     0.500000     0.500000 
    0.586088     0.500000     0.500000 
EA12409  9.688  7.680  7.680 90.00 90.00 90.00 Sym.group:    0
1.0
    9.687672     0.000000     0.000000
    0.000000     7.680000     0.000000
    0.000000     0.000000     7.680000
   B
   2
Direct
    0.413912     0.500000     0.500000 
    0.586088     0.500000     0.500000 
EA12649  9.688  7.680  7.680 90.00 90.00 90.00 Sym.group:    0
1.0
    9.687672     0.000000     0.000000
    0.000000     7.680000     0.000000
    0.000000     0.000000     7.680000
   B
   2
Direct
    0.413912     0.500000     0.500000 
    0.586088     0.500000     0.500000 
EA12889  9.688  7.680  7.680 90.00 90.00 90.00 Sym.group:    0
1.0
    9.687672     0.000000     0.000000
    0.000000     7.680000     0.000000
    0.000000     0.000000     7.680000
   B
   2
Direct
    0.413912     0.500000     0.500000 
    0.586088     0.500000     0.500000 
EA13129  9.688  7.680  7.680 90.00 90.00 90.00 Sym.group:    0
1.0
    9.687672     0.000000     0.000000
    0.000000     7.680000     0.000000
    0.000000     0.000000     7.680000
   B
   2
Direct
    0.413912     0.500000     0.500000 
    0.586088     0.500000     0.500000 
EA13369  9.688  7.680  7.680 90.00 90.00 90.00 Sym.group:    0
1.0
    9.687672     0.000000     0.000000
    0.000000     7.680000     0.000000
    0.000000     0.000000     7.680000
   B
   2
Direct
    0.413912     0.500000     0.500000 
    0.586088     0.500000     0.500000 
EA13610  9.688  7.680  7.680 90.00 90.00 90.00 Sym.group:    0
1.0
    9.687672     0.000000     0.000000
    0.000000     7.680000     0.000000
    0.000000     0.000000     7.680000
   B
   2
Direct
    0.413912     0.500000     0.500000 
    0.586088     0.500000     0.500000 
EA13851  9.688  7.680  7.680 90.00 90.00 90.00 Sym.group:    0
1.0
    9.687672     0.000000     0.000000
    0.000000     7.680000     0.000000
    0.000000     0.000000     7.680000
   B
   2
Direct
    0.413912     0.500000     0.500000 
    0.586088     0.500000     0.500000 
EA14092  9.688  7.680  7.680 90.00 90.00 90.00 Sym.group:    0
1.0
    9.687672     0.000000     0.000000
    0.000000     7.680000     0.000000
    0.000000     0.000000     7.680000
   B
   2
Direct
    0.413912     0.500000     0.500000 
    0.586088     0.500000     0.500000 
EA14330  9.688  7.680  7.680 90.00 90.00 90.00 Sym.group:    0
1.0
    9.687672     0.000000     0.000000
    0.000000     7.680000     0.000000
    0.000000     0.000000     7.680000
   B
   2
Direct
    0.413912     0.500000     0.500000 
    0.586088     0.500000     0.500000 
EA14570  9.688  7.680  7.680 90.00 90.00 90.00 Sym.group:    0
1.0
    9.687672     0.000000     0.000000
    0.000000     7.680000     0.000000
    0.000000     0.000000     7.680000
   B
   2
Direct
    0.413912     0.500000     0.500000 
    0.586088     0.500000     0.500000 
EA14809  9.688  7.680  7.680 90.00 90.00 90.00 Sym.group:    0
1.0
    9.687672     0.000000     0.000000
    0.000000     7.680000     0.000000
    0.000000     0.000000     7.680000
   B
   2
Direct
    0.413912     0.500000     0.500000 
    0.586088     0.500000     0.500000 
EA15049  9.688  7.680  7.680 90.00 90.00 90.00 Sym.group:    0
1.0
    9.687672     0.000000     0.000000
    0.000000     7.680000     0.000000
    0.000000     0.000000     7.680000
   B
   2
Direct
    0.413912     0.500000     0.500000 
    0.586088     0.500000     0.500000 
EA15291  9.688  7.680  7.680 90.00 90.00 90.00 Sym.group:    0
1.0
    9.687672     0.000000     0.000000
    0.000000     7.680000     0.000000
    0.000000     0.000000     7.680000
   B
   2
Direct
    0.413912     0.500000     0.500000 
    0.586088     0.500000     0.500000 
EA15531  9.688  7.680  7.680 90.00 90.00 90.00 Sym.group:    0
1.0
    9.687672     0.000000     0.000000
    0.000000     7.680000     0.000000
    0.000000     0.000000     7.680000
   B
   2
Direct
    0.413912     0.500000     0.500000 
    0.586088     0.500000     0.500000 
EA15769  9.688  7.680  7.680 90.00 90.00 90.00 Sym.group:    0
1.0
    9.687672     0.000000     0.000000
    0.000000     7.680000     0.000000
    0.000000     0.000000     7.680000
   B
   2
Direct
    0.413912     0.500000     0.500000 
    0.586088     0.500000     0.500000 
EA16008  9.688  7.680  7.680 90.00 90.00 90.00 Sym.group:    0
1.0
    9.687672     0.000000     0.000000
    0.000000     7.680000     0.000000
    0.000000     0.000000     7.680000
   B
   2
Direct
    0.413912     0.500000     0.500000 
    0.586088     0.500000     0.500000 
EA16249  9.688  7.680  7.680 90.00 90.00 90.00 Sym.group:    0
1.0
    9.687672     0.000000     0.000000
    0.000000     7.680000     0.000000
    0.000000     0.000000     7.680000
   B
   2
Direct
    0.413912     0.500000     0.500000 
    0.586088     0.500000     0.500000 
EA16486  8.596  8.804  7.680 90.00 90.00 90.00 Sym.group:    0
1.0
    8.595677     0.000000     0.000000
    0.000000     8.804338     0.000000
    0.000000     0.000000     7.680000
   B
   2
Direct
    0.402655     0.500000     0.500000 
    0.597345     0.500000     0.500000 
EA16729  8.596  8.804  7.680 90.00 90.00 90.00 Sym.group:    0
1.0
    8.595677     0.000000     0.000000
    0.000000     8.804338     0.000000
    0.000000     0.000000     7.680000
   B
   2
Direct
    0.402655     0.500000     0.500000 
    0.597345     0.500000     0.500000 
EA16971  8.596  8.804  7.680 90.00 90.00 90.00 Sym.group:    0
1.0
    8.595677     0.000000     0.000000
    0.000000     8.804338     0.000000
    0.000000     0.000000     7.680000
   B
   2
Direct
    0.402655     0.500000     0.500000 
    0.597345     0.500000     0.500000 
EA17211  8.596  8.804  7.680 90.00 90.00 90.00 Sym.group:    0
1.0
    8.595677     0.000000     0.000000
    0.000000     8.804338     0.000000
    0.000000     0.000000     7.680000
   B
   2
Direct
    0.402655     0.500000     0.500000 
    0.597345     0.500000     0.500000 
EA17449  8.596  8.804  7.680 90.00 90.00 90.00 Sym.group:    0
1.0
    8.595677     0.000000     0.000000
    0.000000     8.804338     0.000000
    0.000000     0.000000     7.680000
   B
   2
Direct
    0.402655     0.500000     0.500000 
    0.597345     0.500000     0.500000 
EA17689  8.596  8.804  7.680 90.00 90.00 90.00 Sym.group:    0
1.0
    8.595677     0.000000     0.000000
    0.000000     8.804338     0.000000
    0.000000     0.000000     7.680000
   B
   2
Direct
    0.402655     0.500000     0.500000 
    0.597345     0.500000     0.500000 
EA17931  8.596  8.804  7.680 90.00 90.00 90.00 Sym.group:    0
1.0
    8.595677     0.000000     0.000000
    0.000000     8.804338     0.000000
    0.000000     0.000000     7.680000
   B
   2
Direct
    0.402655     0.500000     0.500000 
    0.597345     0.500000     0.500000 
EA18173  8.596  8.804  7.680 90.00 90.00 90.00 Sym.group:    0
1.0
    8.595677     0.000000     0.000000
    0.000000     8.804338     0.000000
    0.000000     0.000000     7.680000
   B
   2
Direct
    0.402655     0.500000     0.500000 
    0.597345     0.500000     0.500000 
EA18413  8.596  8.804  7.680 90.00 90.00 90.00 Sym.group:    0
1.0
    8.595677     0.000000     0.000000
    0.000000     8.804338     0.000000
    0.000000     0.000000     7.680000
   B
   2
Direct
    0.402655     0.500000     0.500000 
    0.597345     0.500000     0.500000 
EA18651  8.596  8.804  7.680 90.00 90.00 90.00 Sym.group:    0
1.0
    8.595677     0.000000     0.000000
    0.000000     8.804338     0.000000
    0.000000     0.000000     7.680000
   B
   2
Direct
    0.402655     0.500000     0.500000 
    0.597345     0.500000     0.500000 
EA18889  8.596  8.804  7.680 90.00 90.00 90.00 Sym.group:    0
1.0
    8.595677     0.000000     0.000000
    0.000000     8.804338     0.000000
    0.000000     0.000000     7.680000
   B
   2
Direct
    0.402655     0.500000     0.500000 
    0.597345     0.500000     0.500000 
EA19129  8.596  8.804  7.680 90.00 90.00 90.00 Sym.group:    0
1.0
    8.595677     0.000000     0.000000
    0.000000     8.804338     0.000000
    0.000000     0.000000     7.680000
   B
   2
Direct
    0.402655     0.500000     0.500000 
    0.597345     0.500000     0.500000 
EA19371  8.596  8.804  7.680 90.00 90.00 90.00 Sym.group:    0
1.0
    8.595677     0.000000     0.000000
    0.000000     8.804338     0.000000
    0.000000     0.000000     7.680000
   B
   2
Direct
    0.402655     0.500000     0.500000 
    0.597345     0.500000     0.500000 
EA19611  8.596  8.804  7.680 90.00 90.00 90.00 Sym.group:    0
1.0
    8.595677     0.000000     0.000000
    0.000000     8.804338     0.000000
    0.000000     0.000000     7.680000
   B
   2
Direct
    0.402655     0.500000     0.500000 
    0.597345     0.500000     0.500000 
EA19850  8.596  8.804  7.680 90.00 90.00 90.00 Sym.group:    0
1.0
    8.595677     0.000000     0.000000
    0.000000     8.804338     0.000000
    0.000000     0.000000     7.680000
   B
   2
Direct
    0.402655     0.500000     0.500000 
    0.597345     0.500000     0.500000 
EA20091  8.596  8.804  7.680 90.00 90.00 90.00 Sym.group:    0
1.0
    8.595677     0.000000     0.000000
    0.000000     8.804338     0.000000
    0.000000     0.000000     7.680000
   B
   2
Direct
    0.402655     0.500000     0.500000 
    0.597345     0.500000     0.500000 
EA20333  8.596  8.804  7.680 90.00 90.00 90.00 Sym.group:    0
1.0
    8.595677     0.000000     0.000000
    0.000000     8.804338     0.000000
    0.000000     0.000000     7.680000
   B
   2
Direct
    0.402655     0.500000     0.500000 
    0.597345     0.500000     0.500000 
EA20572  8.596  8.804  7.680 90.00 90.00 90.00 Sym.group:    0
1.0
    8.595677     0.000000     0.000000
    0.000000     8.804338     0.000000
    0.000000     0.000000     7.680000
   B
   2
Direct
    0.402655     0.500000     0.500000 
    0.597345     0.500000     0.500000 
EA20812  8.596  8.804  7.680 90.00 90.00 90.00 Sym.group:    0
1.0
    8.595677     0.000000     0.000000
    0.000000     8.804338     0.000000
    0.000000     0.000000     7.680000
   B
   2
Direct
    0.402655     0.500000     0.500000 
    0.597345     0.500000     0.500000 
