EA38781 12.669 12.996 12.129 90.00 90.00 90.00 Sym.group:    0
1.0
   12.668986     0.000000     0.000000
    0.000000    12.995578     0.000000
    0.000000     0.000000    12.129371
   W   B
   1  11
Direct
    0.501619     0.499025     0.403483 
    0.644695     0.419944     0.482616 
    0.425993     0.375297     0.507106 
    0.548977     0.343999     0.475253 
    0.654932     0.544168     0.487769 
    0.543903     0.565392     0.573613 
    0.537160     0.434546     0.573165 
    0.426548     0.506263     0.568836 
    0.581352     0.640531     0.467914 
    0.347675     0.576398     0.480052 
    0.453585     0.639837     0.497996 
    0.333561     0.454599     0.482198 
EA38762 13.430 13.408 11.324 90.00 90.00 90.00 Sym.group:    0
1.0
   13.430354     0.000000     0.000000
    0.000000    13.407673     0.000000
    0.000000     0.000000    11.323852
   W   B
   1  12
Direct
    0.509135     0.509303     0.601818 
    0.348089     0.419152     0.538637 
    0.352351     0.532090     0.505877 
    0.472795     0.566260     0.424847 
    0.603293     0.612658     0.481145 
    0.397710     0.639318     0.515917 
    0.506205     0.673543     0.503852 
    0.647061     0.409797     0.515622 
    0.672298     0.520830     0.504076 
    0.568187     0.479273     0.424571 
    0.432494     0.341627     0.538350 
    0.544549     0.355252     0.505055 
    0.445831     0.440895     0.440233 
EA38711 13.081 13.058 12.517 90.00 90.00 90.00 Sym.group:    0
1.0
   13.081033     0.000000     0.000000
    0.000000    13.058412     0.000000
    0.000000     0.000000    12.516792
   W   B
   1  13
Direct
    0.499905     0.501526     0.417549 
    0.461924     0.669341     0.503902 
    0.366434     0.596718     0.493843 
    0.313732     0.491879     0.456627 
    0.360859     0.382200     0.450150 
    0.396974     0.459677     0.554703 
    0.470954     0.346590     0.495348 
    0.676196     0.453789     0.451593 
    0.592308     0.373664     0.495502 
    0.485226     0.561860     0.578514 
    0.513919     0.436893     0.591243 
    0.609551     0.508637     0.555866 
    0.579404     0.644116     0.496154 
    0.672615     0.573110     0.459005 
EA15918 14.204 13.313 11.626 90.00 90.00 90.00 Sym.group:    0
1.0
   14.204338     0.000000     0.000000
    0.000000    13.312927     0.000000
    0.000000     0.000000    11.625512
   W   B
   1  14
Direct
    0.501291     0.514557     0.437269 
    0.670193     0.472341     0.404337 
    0.664898     0.586010     0.433442 
    0.635364     0.507631     0.545900 
    0.389336     0.628553     0.516894 
    0.597459     0.634861     0.525157 
    0.491804     0.659682     0.550430 
    0.613606     0.391082     0.473560 
    0.564443     0.429708     0.608233 
    0.323337     0.565371     0.436913 
    0.370835     0.497144     0.550312 
    0.324966     0.450202     0.417811 
    0.396802     0.380228     0.481926 
    0.507062     0.357666     0.506501 
    0.448603     0.424963     0.611313 
EA38588 14.012 13.507 11.468 90.00 90.00 90.00 Sym.group:    0
1.0
   14.011505     0.000000     0.000000
    0.000000    13.506816     0.000000
    0.000000     0.000000    11.467616
   W   B
   1  15
Direct
    0.497363     0.518646     0.460699 
    0.352835     0.437064     0.429283 
    0.336095     0.550507     0.399851 
    0.434749     0.357224     0.461302 
    0.550464     0.351516     0.467110 
    0.641063     0.420961     0.438824 
    0.650503     0.625666     0.468498 
    0.675751     0.527443     0.404423 
    0.368986     0.638399     0.482081 
    0.389889     0.424874     0.583584 
    0.347747     0.528858     0.547111 
    0.490632     0.371020     0.596698 
    0.458862     0.661941     0.558137 
    0.570143     0.644267     0.561678 
    0.639908     0.523537     0.552623 
    0.595008     0.418076     0.588098 
EA33983 13.736 13.359 11.577 90.00 90.00 90.00 Sym.group:    0
1.0
   13.735795     0.000000     0.000000
    0.000000    13.359146     0.000000
    0.000000     0.000000    11.577024
   W   B
   2  11
Direct
    0.501677     0.500681     0.412025 
    0.582329     0.511443     0.611578 
    0.358299     0.419493     0.466727 
    0.453608     0.424140     0.577699 
    0.441190     0.339541     0.469564 
    0.549612     0.357941     0.517290 
    0.645810     0.415199     0.478494 
    0.671306     0.526149     0.449563 
    0.434198     0.556806     0.577777 
    0.615142     0.624325     0.479381 
    0.341323     0.536456     0.466665 
    0.398057     0.637526     0.473216 
    0.507451     0.650300     0.520024 
EA38368 13.949 12.840 11.524 90.00 90.00 90.00 Sym.group:    0
1.0
   13.949213     0.000000     0.000000
    0.000000    12.839745     0.000000
    0.000000     0.000000    11.523747
   W   B
   2  12
Direct
    0.507037     0.498809     0.424004 
    0.614384     0.506891     0.599764 
    0.414786     0.630167     0.489233 
    0.344622     0.552457     0.416946 
    0.381076     0.495560     0.545805 
    0.348274     0.430843     0.420251 
    0.674559     0.506441     0.423422 
    0.531777     0.651969     0.520982 
    0.631916     0.617220     0.458552 
    0.640146     0.393582     0.463334 
    0.542729     0.352174     0.526989 
    0.423981     0.362593     0.496149 
    0.474889     0.434503     0.608768 
    0.469825     0.566790     0.605803 
EA38655 14.125 13.257 11.710 90.00 90.00 90.00 Sym.group:    0
1.0
   14.124825     0.000000     0.000000
    0.000000    13.256757     0.000000
    0.000000     0.000000    11.709984
   W   B
   2  13
Direct
    0.493371     0.500808     0.431230 
    0.400330     0.497564     0.595647 
    0.592690     0.627755     0.490757 
    0.657469     0.562271     0.408385 
    0.482849     0.651010     0.544368 
    0.383001     0.642850     0.484701 
    0.321221     0.556989     0.434718 
    0.321649     0.439298     0.434668 
    0.547217     0.436687     0.608918 
    0.658427     0.442998     0.407257 
    0.595028     0.374544     0.488015 
    0.545936     0.563153     0.610261 
    0.630372     0.501443     0.535352 
    0.384721     0.354346     0.483957 
    0.485719     0.348284     0.541764 
EA25974 14.015 13.746 12.055 90.00 90.00 90.00 Sym.group:    0
1.0
   14.015466     0.000000     0.000000
    0.000000    13.746237     0.000000
    0.000000     0.000000    12.055410
   W   B
   2  14
Direct
    0.509196     0.440651     0.623116 
    0.498384     0.492079     0.443176 
    0.639967     0.397098     0.515654 
    0.551036     0.320413     0.514948 
    0.631302     0.519022     0.559769 
    0.540023     0.600323     0.580756 
    0.426008     0.578749     0.592727 
    0.564753     0.657064     0.442627 
    0.684112     0.478300     0.437572 
    0.458926     0.656637     0.484258 
    0.650524     0.586092     0.424589 
    0.444416     0.320852     0.481683 
    0.355297     0.387472     0.454421 
    0.322135     0.492061     0.418847 
    0.362929     0.483025     0.555153 
    0.360993     0.590163     0.470707 
EA38520 14.030 13.622 12.099 90.00 90.00 90.00 Sym.group:    0
1.0
   14.030484     0.000000     0.000000
    0.000000    13.622435     0.000000
    0.000000     0.000000    12.098585
   W   B
   2  15
Direct
    0.496878     0.542213     0.355797 
    0.499844     0.503704     0.555185 
    0.668481     0.529225     0.589541 
    0.609257     0.443675     0.426080 
    0.428758     0.650736     0.474339 
    0.355331     0.613054     0.566697 
    0.625276     0.633612     0.568208 
    0.628427     0.565927     0.450049 
    0.547314     0.659992     0.475593 
    0.400960     0.426653     0.425376 
    0.453025     0.338713     0.517753 
    0.570614     0.347635     0.517954 
    0.649746     0.416219     0.568952 
    0.364109     0.394603     0.568041 
    0.508873     0.386883     0.399557 
    0.363504     0.543709     0.450510 
    0.329606     0.503447     0.590367 
EA38712 13.862 12.238 12.845 90.00 90.00 90.00 Sym.group:    0
1.0
   13.861831     0.000000     0.000000
    0.000000    12.238190     0.000000
    0.000000     0.000000    12.845268
   W   B
   3  11
Direct
    0.447676     0.557173     0.592715 
    0.593649     0.404044     0.581652 
    0.491023     0.509536     0.412419 
    0.467945     0.332867     0.489375 
    0.446367     0.380804     0.610016 
    0.372642     0.414891     0.510730 
    0.604532     0.573350     0.602955 
    0.565559     0.650254     0.504042 
    0.465819     0.693297     0.462289 
    0.366318     0.640072     0.443163 
    0.643213     0.433143     0.420401 
    0.643540     0.546846     0.480753 
    0.327431     0.523745     0.466739 
    0.564285     0.339977     0.422750 
EA38656 13.243 13.389 12.810 90.00 90.00 90.00 Sym.group:    0
1.0
   13.242901     0.000000     0.000000
    0.000000    13.389141     0.000000
    0.000000     0.000000    12.810294
   W   B
   3  12
Direct
    0.527855     0.383540     0.496135 
    0.587652     0.582143     0.499627 
    0.384074     0.533838     0.504868 
    0.478805     0.575303     0.366372 
    0.441621     0.452740     0.364259 
    0.567432     0.482191     0.360894 
    0.486920     0.568478     0.638594 
    0.449903     0.446007     0.636681 
    0.575704     0.475574     0.633260 
    0.370272     0.382015     0.438739 
    0.666537     0.451776     0.430890 
    0.457563     0.670839     0.443444 
    0.374132     0.378914     0.563125 
    0.670516     0.448989     0.555171 
    0.461014     0.667651     0.567942 
EA29752 13.716 13.016 13.170 90.00 90.00 90.00 Sym.group:    0
1.0
   13.715833     0.000000     0.000000
    0.000000    13.016122     0.000000
    0.000000     0.000000    13.169598
   W   B
   3  13
Direct
    0.446126     0.484755     0.400476 
    0.436446     0.475684     0.602845 
    0.611235     0.608433     0.503449 
    0.563967     0.374360     0.433506 
    0.348752     0.376732     0.492493 
    0.461490     0.339522     0.495699 
    0.560146     0.372244     0.563801 
    0.309852     0.489845     0.493945 
    0.608052     0.485264     0.381176 
    0.554264     0.596447     0.353516 
    0.472499     0.645656     0.436275 
    0.469064     0.640223     0.568492 
    0.372654     0.596141     0.500171 
    0.601028     0.479575     0.621647 
    0.545152     0.587095     0.650747 
    0.639272     0.448023     0.501765 
EA38521 14.500 13.747 11.844 90.00 90.00 90.00 Sym.group:    0
1.0
   14.500041     0.000000     0.000000
    0.000000    13.746972     0.000000
    0.000000     0.000000    11.844037
   W   B
   3  14
Direct
    0.495334     0.499763     0.556337 
    0.584765     0.400146     0.404071 
    0.583856     0.600635     0.404406 
    0.369445     0.395736     0.546997 
    0.369753     0.499829     0.445249 
    0.432953     0.396362     0.417251 
    0.432592     0.603676     0.417800 
    0.468853     0.500103     0.360250 
    0.369121     0.603513     0.547511 
    0.332353     0.499523     0.585943 
    0.468503     0.665650     0.531941 
    0.469062     0.334008     0.531067 
    0.573243     0.347769     0.577006 
    0.645746     0.435856     0.569876 
    0.645561     0.564653     0.569917 
    0.572750     0.652216     0.577433 
    0.686107     0.500564     0.456944 
EA38481 13.832 13.875 12.465 90.00 90.00 90.00 Sym.group:    0
1.0
   13.831737     0.000000     0.000000
    0.000000    13.874923     0.000000
    0.000000     0.000000    12.464822
   W   B
   3  15
Direct
    0.504394     0.501175     0.542247 
    0.478631     0.502394     0.350170 
    0.341688     0.586340     0.438774 
    0.655108     0.581582     0.545263 
    0.567517     0.660777     0.533012 
    0.449306     0.659007     0.560069 
    0.592821     0.594503     0.416356 
    0.484383     0.648757     0.426655 
    0.370926     0.583892     0.608300 
    0.354453     0.435029     0.448220 
    0.343378     0.472213     0.583833 
    0.618212     0.374341     0.571018 
    0.568766     0.380461     0.428327 
    0.513524     0.330913     0.549297 
    0.673954     0.473302     0.575145 
    0.450751     0.365720     0.434507 
    0.399485     0.368633     0.562861 
    0.632704     0.480961     0.425946 
EA38310 13.745 12.846 13.357 90.00 90.00 90.00 Sym.group:    0
1.0
   13.745140     0.000000     0.000000
    0.000000    12.845585     0.000000
    0.000000     0.000000    13.356628
   W   B
   4  11
Direct
    0.386122     0.496217     0.498639 
    0.548361     0.504138     0.397737 
    0.566314     0.481481     0.606461 
    0.433582     0.358069     0.385547 
    0.571494     0.354891     0.492452 
    0.470097     0.351529     0.558469 
    0.582078     0.627621     0.521074 
    0.477100     0.625192     0.589129 
    0.472338     0.647991     0.463566 
    0.419426     0.421594     0.646527 
    0.391948     0.496323     0.321065 
    0.667987     0.429680     0.488118 
    0.423224     0.543739     0.661826 
    0.415380     0.609722     0.367148 
    0.674549     0.551813     0.502243 
EA38589 14.037 13.475 13.527 90.00 90.00 90.00 Sym.group:    0
1.0
   14.036517     0.000000     0.000000
    0.000000    13.474944     0.000000
    0.000000     0.000000    13.526892
   W   B
   4  12
Direct
    0.505246     0.445652     0.403301 
    0.504571     0.429907     0.588283 
    0.555253     0.612553     0.507991 
    0.670386     0.435493     0.491644 
    0.363448     0.514620     0.440901 
    0.455172     0.311624     0.485579 
    0.363934     0.504493     0.564084 
    0.569199     0.314320     0.485360 
    0.437308     0.603597     0.393260 
    0.544036     0.599415     0.347547 
    0.636894     0.539984     0.381582 
    0.638469     0.517971     0.618615 
    0.439742     0.584523     0.623425 
    0.547154     0.571898     0.664632 
    0.395740     0.613093     0.510418 
    0.373449     0.400857     0.493378 
EA37485 14.120 13.509 12.683 90.00 90.00 90.00 Sym.group:    0
1.0
   14.120167     0.000000     0.000000
    0.000000    13.509412     0.000000
    0.000000     0.000000    12.682520
   W   B
   4  13
Direct
    0.488437     0.486515     0.578497 
    0.383932     0.489717     0.409926 
    0.541997     0.609202     0.402354 
    0.647912     0.449283     0.439354 
    0.552732     0.347363     0.521572 
    0.625499     0.403886     0.600627 
    0.581231     0.626110     0.570530 
    0.650337     0.520224     0.596339 
    0.507403     0.379861     0.402173 
    0.431464     0.343620     0.491893 
    0.672297     0.594443     0.492300 
    0.343792     0.385613     0.552578 
    0.317831     0.492745     0.580559 
    0.469276     0.653687     0.549349 
    0.358600     0.596480     0.547547 
    0.400973     0.646537     0.439986 
    0.526287     0.474715     0.324415 
EA38482 14.461 13.820 12.680 90.00 90.00 90.00 Sym.group:    0
1.0
   14.461307     0.000000     0.000000
    0.000000    13.820256     0.000000
    0.000000     0.000000    12.680248
   W   B
   4  14
Direct
    0.328295     0.590807     0.564582 
    0.508662     0.506447     0.557493 
    0.430297     0.415858     0.384194 
    0.442520     0.593309     0.395929 
    0.419163     0.371605     0.559135 
    0.331258     0.439388     0.511885 
    0.374240     0.463694     0.632362 
    0.523780     0.336433     0.524191 
    0.450594     0.666567     0.556589 
    0.557377     0.665049     0.519154 
    0.624493     0.385178     0.558395 
    0.669939     0.485004     0.596168 
    0.647036     0.590076     0.550975 
    0.575978     0.393490     0.426024 
    0.645355     0.488013     0.463859 
    0.595596     0.596129     0.422319 
    0.313613     0.516592     0.414637 
    0.561803     0.496361     0.362109 
EA35739 14.525 13.806 12.370 90.00 90.00 90.00 Sym.group:    0
1.0
   14.525353     0.000000     0.000000
    0.000000    13.806425     0.000000
    0.000000     0.000000    12.369798
   W   B
   4  15
Direct
    0.613003     0.392719     0.581850 
    0.481804     0.489967     0.451853 
    0.490792     0.532254     0.651235 
    0.330595     0.470314     0.591788 
    0.621441     0.569214     0.407269 
    0.590508     0.604696     0.541798 
    0.579804     0.352970     0.410214 
    0.492960     0.320329     0.479373 
    0.639757     0.532791     0.643856 
    0.679217     0.517478     0.518074 
    0.337725     0.555988     0.423081 
    0.330817     0.440583     0.420002 
    0.422417     0.638048     0.411623 
    0.485526     0.650722     0.530415 
    0.381611     0.606074     0.541265 
    0.384300     0.355328     0.484723 
    0.458445     0.381818     0.594411 
    0.536114     0.642144     0.399651 
    0.643165     0.446565     0.417516 
EA38590 14.054 13.621 12.992 90.00 90.00 90.00 Sym.group:    0
1.0
   14.054153     0.000000     0.000000
    0.000000    13.620992     0.000000
    0.000000     0.000000    12.991581
   W   B
   5  11
Direct
    0.473696     0.555598     0.625359 
    0.637803     0.557423     0.549857 
    0.484171     0.520075     0.430239 
    0.494440     0.355630     0.564973 
    0.629418     0.401263     0.418464 
    0.311480     0.476251     0.443485 
    0.375461     0.451615     0.555401 
    0.337409     0.567456     0.515325 
    0.408688     0.660946     0.518284 
    0.520812     0.674332     0.511467 
    0.592907     0.648631     0.417260 
    0.646500     0.393137     0.577741 
    0.581277     0.450869     0.660412 
    0.636308     0.549468     0.375276 
    0.380456     0.383575     0.437169 
    0.489174     0.353733     0.399288 
EA38522 13.630 14.366 13.560 90.00 90.00 90.00 Sym.group:    0
1.0
   13.629847     0.000000     0.000000
    0.000000    14.365585     0.000000
    0.000000     0.000000    13.559543
   W   B
   5  12
Direct
    0.399867     0.412291     0.588502 
    0.462025     0.544421     0.439635 
    0.549985     0.376386     0.484221 
    0.560864     0.537180     0.582132 
    0.679728     0.548697     0.405081 
    0.394766     0.394472     0.423868 
    0.310415     0.464510     0.465706 
    0.314591     0.555835     0.532020 
    0.391426     0.649289     0.547022 
    0.405726     0.553751     0.619248 
    0.492186     0.689389     0.504930 
    0.479927     0.410452     0.340593 
    0.590530     0.652293     0.454843 
    0.540794     0.380423     0.644886 
    0.699936     0.462903     0.522891 
    0.578097     0.468230     0.339846 
    0.649138     0.399476     0.604576 
EA38483 14.675 13.792 12.528 90.00 90.00 90.00 Sym.group:    0
1.0
   14.674785     0.000000     0.000000
    0.000000    13.791820     0.000000
    0.000000     0.000000    12.528419
   W   B
   5  13
Direct
    0.677192     0.584689     0.555991 
    0.495103     0.510275     0.562130 
    0.559392     0.402691     0.385704 
    0.551320     0.591272     0.393888 
    0.308483     0.488630     0.453437 
    0.583479     0.369989     0.558260 
    0.668017     0.433672     0.502659 
    0.631709     0.461801     0.627835 
    0.479491     0.340543     0.526828 
    0.560637     0.668055     0.554184 
    0.454709     0.669785     0.516409 
    0.381740     0.392246     0.566935 
    0.349697     0.496234     0.614866 
    0.365803     0.602323     0.558221 
    0.411931     0.384559     0.429716 
    0.402762     0.600477     0.420632 
    0.679027     0.509994     0.404364 
    0.439508     0.492764     0.367942 
EA38462 14.261 13.939 12.992 90.00 90.00 90.00 Sym.group:    0
1.0
   14.261248     0.000000     0.000000
    0.000000    13.939430     0.000000
    0.000000     0.000000    12.992038
   W   B
   5  14
Direct
    0.507576     0.495123     0.454770 
    0.512074     0.492941     0.658666 
    0.476630     0.293717     0.439561 
    0.391608     0.378994     0.572508 
    0.305417     0.517861     0.501823 
    0.661050     0.564012     0.419932 
    0.627969     0.560709     0.559754 
    0.595847     0.645485     0.464803 
    0.669253     0.452463     0.422581 
    0.610956     0.361428     0.458351 
    0.633899     0.441827     0.561783 
    0.546997     0.360589     0.572737 
    0.532173     0.628094     0.575549 
    0.378195     0.511096     0.350643 
    0.480384     0.668100     0.467848 
    0.362409     0.516500     0.652051 
    0.387103     0.403057     0.391475 
    0.420090     0.596150     0.571584 
    0.400372     0.611854     0.403579 
EA38447 14.137 14.166 13.535 90.00 90.00 90.00 Sym.group:    0
1.0
   14.136562     0.000000     0.000000
    0.000000    14.166159     0.000000
    0.000000     0.000000    13.534631
   W   B
   5  15
Direct
    0.437502     0.294933     0.416043 
    0.552458     0.436353     0.632433 
    0.489979     0.456046     0.437596 
    0.380207     0.499316     0.604321 
    0.511174     0.642557     0.486425 
    0.347030     0.386718     0.488544 
    0.656450     0.475051     0.425094 
    0.433644     0.354787     0.570910 
    0.537866     0.316453     0.525939 
    0.632581     0.387746     0.501959 
    0.673318     0.487361     0.550330 
    0.649844     0.584080     0.478243 
    0.600211     0.566059     0.367956 
    0.609542     0.578269     0.596905 
    0.495150     0.589569     0.328315 
    0.396211     0.583649     0.383294 
    0.502747     0.593514     0.646213 
    0.354341     0.614380     0.500523 
    0.334268     0.505509     0.454384 
    0.405477     0.647649     0.604571 
