EA3    14.448 14.472 11.533 90.00 90.00 90.00 Sym.group:    0
1.0
   14.448349     0.000000     0.000000
    0.000000    14.472045     0.000000
    0.000000     0.000000    11.533346
   W   B
   5  15
Direct
    0.500152     0.500593     0.615696 
    0.499300     0.499339     0.383414 
    0.388130     0.373323     0.501440 
    0.446507     0.657546     0.498465 
    0.665147     0.467428     0.499975 
    0.537544     0.388161     0.500330 
    0.577987     0.587519     0.498269 
    0.383908     0.521845     0.499419 
    0.659992     0.594239     0.603809 
    0.501595     0.315449     0.607300 
    0.337100     0.591985     0.602489 
    0.336769     0.589927     0.396639 
    0.501629     0.314244     0.395565 
    0.661958     0.595876     0.395786 
    0.573617     0.671529     0.601480 
    0.612369     0.352114     0.605381 
    0.315925     0.478011     0.606439 
    0.575271     0.672069     0.397073 
    0.314276     0.476996     0.395369 
    0.610822     0.351806     0.395665 
EA403  13.234 13.234 13.234 90.00 90.00 90.00 Sym.group:    0
1.0
   13.234439     0.000000     0.000000
    0.000000    13.234439     0.000000
    0.000000     0.000000    13.234439
   W   B
   5  15
Direct
    0.446383     0.635975     0.634405 
    0.520543     0.413423     0.571115 
    0.427718     0.509767     0.439342 
    0.633277     0.455566     0.369292 
    0.607601     0.613892     0.554233 
    0.613195     0.326952     0.461641 
    0.341127     0.499945     0.608525 
    0.520961     0.564166     0.311638 
    0.601579     0.614293     0.392682 
    0.504346     0.350487     0.385138 
    0.561111     0.516930     0.694514 
    0.317409     0.604693     0.539112 
    0.490875     0.665417     0.408994 
    0.407343     0.335457     0.462020 
    0.679217     0.405348     0.533076 
    0.438151     0.492666     0.698865 
    0.385054     0.673799     0.470564 
    0.344168     0.393252     0.542929 
    0.498732     0.445027     0.293602 
    0.661212     0.482943     0.628312 
EA870  13.026 13.252 13.705 90.00 90.00 90.00 Sym.group:    0
1.0
   13.025671     0.000000     0.000000
    0.000000    13.252305     0.000000
    0.000000     0.000000    13.704844
   W   B
   3  13
Direct
    0.509295     0.398913     0.613473 
    0.527476     0.410815     0.416401 
    0.491604     0.581253     0.635071 
    0.364573     0.489167     0.595485 
    0.653504     0.370154     0.546724 
    0.365994     0.422895     0.395136 
    0.386299     0.389544     0.513419 
    0.705613     0.435302     0.465349 
    0.628127     0.500057     0.557903 
    0.422008     0.537927     0.418411 
    0.471965     0.641610     0.486926 
    0.310906     0.495972     0.476579 
    0.660091     0.537689     0.429573 
    0.594245     0.619596     0.515150 
    0.364426     0.596324     0.528944 
    0.543876     0.572782     0.405459 
EA1336 13.453 12.859 12.616 90.00 90.00 90.00 Sym.group:    0
1.0
   13.453032     0.000000     0.000000
    0.000000    12.859088     0.000000
    0.000000     0.000000    12.615569
   W   B
   2  12
Direct
    0.467485     0.528976     0.372371 
    0.499471     0.478538     0.575118 
    0.388219     0.403703     0.489751 
    0.500211     0.359252     0.448994 
    0.429222     0.639993     0.535652 
    0.358931     0.576114     0.618978 
    0.333852     0.458170     0.593988 
    0.352912     0.536252     0.490827 
    0.604236     0.348036     0.510651 
    0.670202     0.441771     0.545758 
    0.599276     0.452491     0.425338 
    0.646757     0.559265     0.514420 
    0.608999     0.584536     0.388441 
    0.540228     0.632903     0.489712 
EA1496 14.271 13.938 12.840 90.00 90.00 90.00 Sym.group:    0
1.0
   14.270686     0.000000     0.000000
    0.000000    13.937612     0.000000
    0.000000     0.000000    12.840453
   W   B
   3  14
Direct
    0.521093     0.445663     0.656119 
    0.493139     0.526143     0.483982 
    0.653129     0.400598     0.396564 
    0.611188     0.555548     0.615001 
    0.429259     0.374918     0.535253 
    0.372748     0.457879     0.604412 
    0.633251     0.432055     0.553214 
    0.544728     0.360138     0.512630 
    0.322088     0.544463     0.543226 
    0.446608     0.684201     0.442832 
    0.656565     0.535169     0.449954 
    0.517297     0.392258     0.365335 
    0.342499     0.440364     0.476592 
    0.552798     0.686410     0.467624 
    0.635263     0.630183     0.520453 
    0.410260     0.399246     0.393176 
    0.358090     0.634766     0.483634 
EA2051 13.677 13.211 12.504 90.00 90.00 90.00 Sym.group:    0
1.0
   13.676937     0.000000     0.000000
    0.000000    13.210677     0.000000
    0.000000     0.000000    12.504061
   W   B
   2  11
Direct
    0.413175     0.477238     0.611405 
    0.500086     0.501600     0.415928 
    0.366227     0.400658     0.465443 
    0.464705     0.347062     0.498775 
    0.332849     0.513741     0.462562 
    0.386723     0.614865     0.490683 
    0.522591     0.577560     0.576169 
    0.553006     0.431410     0.570416 
    0.577531     0.342177     0.470862 
    0.652546     0.545106     0.492403 
    0.593528     0.645170     0.485720 
    0.484203     0.675400     0.480732 
    0.652831     0.428010     0.478903 
EA2164 14.337 14.274 12.216 90.00 90.00 90.00 Sym.group:    0
1.0
   14.336506     0.000000     0.000000
    0.000000    14.274360     0.000000
    0.000000     0.000000    12.216018
   W   B
   4  13
Direct
    0.500488     0.500105     0.552151 
    0.482443     0.624770     0.401568 
    0.334444     0.632779     0.509653 
    0.495834     0.435450     0.354518 
    0.607659     0.531754     0.396654 
    0.562575     0.666002     0.561065 
    0.329207     0.490565     0.547318 
    0.456517     0.662902     0.583155 
    0.635650     0.612570     0.488299 
    0.372282     0.395227     0.599495 
    0.647571     0.410447     0.581472 
    0.620796     0.421928     0.445844 
    0.566588     0.345153     0.532632 
    0.672312     0.509277     0.528450 
    0.383388     0.406437     0.462124 
    0.377671     0.516554     0.412993 
    0.454574     0.338080     0.542608 
EA2685 13.291 12.400 13.610 90.00 90.00 90.00 Sym.group:    0
1.0
   13.291468     0.000000     0.000000
    0.000000    12.399797     0.000000
    0.000000     0.000000    13.609637
   W   B
   3  11
Direct
    0.396930     0.550226     0.407750 
    0.497315     0.510965     0.571624 
    0.625450     0.455296     0.419777 
    0.325349     0.547853     0.551390 
    0.345269     0.423161     0.534057 
    0.472618     0.402095     0.429179 
    0.544942     0.332971     0.510487 
    0.426588     0.335826     0.535613 
    0.667287     0.516710     0.561796 
    0.636368     0.394481     0.565815 
    0.391980     0.652493     0.533677 
    0.499064     0.667042     0.486015 
    0.617838     0.610051     0.498850 
    0.553002     0.600829     0.393970 
EA3020 12.644 13.900 12.398 90.00 90.00 90.00 Sym.group:    0
1.0
   12.643636     0.000000     0.000000
    0.000000    13.899727     0.000000
    0.000000     0.000000    12.398198
   W   B
   1  13
Direct
    0.502050     0.486813     0.433746 
    0.445984     0.633948     0.500528 
    0.332929     0.458954     0.420744 
    0.344751     0.564845     0.475239 
    0.664127     0.575075     0.435292 
    0.690607     0.464943     0.446733 
    0.569733     0.637952     0.475913 
    0.533893     0.565694     0.600025 
    0.642418     0.516718     0.559596 
    0.625416     0.382720     0.502540 
    0.335956     0.460168     0.553546 
    0.510900     0.337260     0.510174 
    0.392623     0.367861     0.486236 
    0.408613     0.547049     0.599688 
EA3441 13.404 12.090 12.345 90.00 90.00 90.00 Sym.group:    0
1.0
   13.404460     0.000000     0.000000
    0.000000    12.090218     0.000000
    0.000000     0.000000    12.345409
   W   B
   1  11
Direct
    0.497047     0.532067     0.586528 
    0.342584     0.467310     0.555482 
    0.350804     0.589261     0.506994 
    0.448987     0.638281     0.452536 
    0.431434     0.379989     0.530058 
    0.500521     0.421273     0.411253 
    0.395019     0.482292     0.433232 
    0.567020     0.630346     0.457141 
    0.608868     0.468787     0.441764 
    0.555798     0.372537     0.532267 
    0.647127     0.447878     0.572670 
    0.654791     0.569978     0.520075 
EA3615 13.947 13.354 12.819 90.00 90.00 90.00 Sym.group:    0
1.0
   13.946879     0.000000     0.000000
    0.000000    13.353543     0.000000
    0.000000     0.000000    12.819206
   W   B
   5  11
Direct
    0.500039     0.509617     0.440327 
    0.354836     0.496975     0.576770 
    0.634441     0.416402     0.589705 
    0.530709     0.546754     0.651239 
    0.620943     0.631932     0.381417 
    0.342202     0.415000     0.423946 
    0.328760     0.528175     0.402707 
    0.612187     0.381761     0.424124 
    0.525621     0.339617     0.492825 
    0.408563     0.358354     0.504933 
    0.478837     0.396254     0.605279 
    0.665430     0.490095     0.423555 
    0.435842     0.640371     0.557648 
    0.553828     0.656787     0.528230 
    0.643613     0.569709     0.533844 
    0.364148     0.622197     0.463452 
EA4105 13.541 11.375 13.387 90.00 90.00 90.00 Sym.group:    0
1.0
   13.540638     0.000000     0.000000
    0.000000    11.375326     0.000000
    0.000000     0.000000    13.386929
   W   B
   1  12
Direct
    0.496590     0.508692     0.413163 
    0.379867     0.387861     0.492603 
    0.639742     0.434227     0.491495 
    0.579212     0.322096     0.464997 
    0.466533     0.302944     0.468730 
    0.328433     0.510578     0.491001 
    0.369295     0.635256     0.502536 
    0.434427     0.524546     0.564972 
    0.478203     0.676434     0.519804 
    0.560142     0.547983     0.560896 
    0.590973     0.674162     0.495055 
    0.661342     0.568517     0.482515 
    0.515240     0.406704     0.552233 
EA4172 13.053 13.570 13.542 90.00 90.00 90.00 Sym.group:    0
1.0
   13.053079     0.000000     0.000000
    0.000000    13.570073     0.000000
    0.000000     0.000000    13.542190
   W   B
   3  15
Direct
    0.664927     0.392318     0.529447 
    0.409688     0.511291     0.597184 
    0.420863     0.461037     0.401224 
    0.661809     0.549761     0.560755 
    0.549283     0.602971     0.602557 
    0.405975     0.359324     0.535085 
    0.575928     0.483953     0.630033 
    0.513279     0.384304     0.597495 
    0.519098     0.347545     0.474280 
    0.278444     0.517172     0.473204 
    0.296860     0.412196     0.512371 
    0.474887     0.616259     0.405357 
    0.665210     0.520609     0.441944 
    0.566847     0.548805     0.369014 
    0.590465     0.425219     0.398108 
    0.361157     0.604121     0.462503 
    0.581745     0.613948     0.481178 
    0.463534     0.649167     0.528257 
EA4512 14.288 13.333 12.775 90.00 90.00 90.00 Sym.group:    0
1.0
   14.288493     0.000000     0.000000
    0.000000    13.333030     0.000000
    0.000000     0.000000    12.774767
   W   B
   5  13
Direct
    0.646913     0.374832     0.503077 
    0.418013     0.492334     0.608647 
    0.419459     0.490310     0.390034 
    0.595305     0.421484     0.668134 
    0.609723     0.664378     0.493446 
    0.658029     0.529095     0.563571 
    0.555193     0.571974     0.620809 
    0.402503     0.358393     0.495411 
    0.499596     0.354516     0.569933 
    0.506441     0.358201     0.431777 
    0.294554     0.531004     0.499871 
    0.304819     0.415970     0.495737 
    0.472613     0.642757     0.426353 
    0.649928     0.522711     0.429429 
    0.552211     0.571774     0.368097 
    0.565058     0.447412     0.375358 
    0.374962     0.614552     0.496951 
    0.474682     0.638303     0.563367 
EA5143 13.346 12.563 11.676 90.00 90.00 90.00 Sym.group:    0
1.0
   13.345620     0.000000     0.000000
    0.000000    12.563004     0.000000
    0.000000     0.000000    11.676240
   W   B
   1  11
Direct
    0.497170     0.488775     0.403648 
    0.431835     0.372077     0.522793 
    0.349152     0.565780     0.446914 
    0.392628     0.515196     0.571425 
    0.342379     0.439768     0.467441 
    0.446309     0.628467     0.495164 
    0.504624     0.546666     0.608033 
    0.569584     0.619316     0.492601 
    0.610692     0.500691     0.567839 
    0.656263     0.542869     0.441211 
    0.551667     0.362986     0.519948 
    0.647697     0.417409     0.462982 
EA5285 13.450 13.884 13.661 90.00 90.00 90.00 Sym.group:    0
1.0
   13.449632     0.000000     0.000000
    0.000000    13.884291     0.000000
    0.000000     0.000000    13.661004
   W   B
   5  11
Direct
    0.471942     0.543986     0.617680 
    0.377089     0.392234     0.556398 
    0.489272     0.518565     0.431227 
    0.655362     0.508243     0.559278 
    0.506153     0.322354     0.445757 
    0.376054     0.403719     0.399161 
    0.370270     0.611689     0.500913 
    0.481992     0.660787     0.500056 
    0.323564     0.498731     0.452369 
    0.537397     0.398878     0.592595 
    0.309758     0.531791     0.570379 
    0.602452     0.637294     0.450458 
    0.653248     0.542545     0.404692 
    0.625965     0.424218     0.422536 
    0.636463     0.358568     0.526114 
    0.583021     0.646395     0.570389 
EA5532 14.892 13.311 12.541 90.00 90.00 90.00 Sym.group:    0
1.0
   14.892076     0.000000     0.000000
    0.000000    13.310980     0.000000
    0.000000     0.000000    12.541333
   W   B
   3  15
Direct
    0.483179     0.461849     0.422691 
    0.614315     0.596153     0.443414 
    0.536612     0.472577     0.608938 
    0.339417     0.414094     0.474773 
    0.388270     0.465480     0.589080 
    0.333261     0.492774     0.375045 
    0.419258     0.350767     0.543648 
    0.517313     0.313531     0.523980 
    0.339146     0.537945     0.499460 
    0.425160     0.584393     0.568361 
    0.382044     0.599928     0.391113 
    0.605990     0.364881     0.483032 
    0.689974     0.540359     0.580443 
    0.686232     0.454993     0.489377 
    0.625653     0.445430     0.379378 
    0.476742     0.639204     0.437540 
    0.519439     0.645155     0.573549 
    0.617991     0.620490     0.616179 
EA5914 13.696 13.507 12.456 90.00 90.00 90.00 Sym.group:    0
1.0
   13.696206     0.000000     0.000000
    0.000000    13.507405     0.000000
    0.000000     0.000000    12.455506
   W   B
   3  14
Direct
    0.499636     0.498731     0.452580 
    0.435261     0.570429     0.645038 
    0.559519     0.432012     0.648513 
    0.345535     0.565690     0.393300 
    0.392720     0.633585     0.483195 
    0.655475     0.543718     0.387531 
    0.509919     0.659030     0.522322 
    0.613137     0.627653     0.463102 
    0.338918     0.516758     0.523287 
    0.410837     0.423649     0.587526 
    0.613282     0.368865     0.497870 
    0.343024     0.450110     0.394033 
    0.489698     0.340145     0.528502 
    0.394150     0.362209     0.457497 
    0.585283     0.581006     0.591976 
    0.656964     0.429029     0.400189 
    0.656642     0.497383     0.523539 
EA6177 14.047 13.577 13.634 90.00 90.00 90.00 Sym.group:    0
1.0
   14.047445     0.000000     0.000000
    0.000000    13.577123     0.000000
    0.000000     0.000000    13.634221
   W   B
   4  15
Direct
    0.445803     0.397057     0.606635 
    0.373531     0.568564     0.569589 
    0.470984     0.446503     0.342102 
    0.691315     0.493158     0.510104 
    0.467534     0.655267     0.478728 
    0.510808     0.643082     0.588919 
    0.399180     0.578531     0.411764 
    0.388539     0.368206     0.458281 
    0.337326     0.481188     0.436466 
    0.498758     0.541514     0.657008 
    0.311971     0.421977     0.538568 
    0.589015     0.463139     0.624660 
    0.604114     0.399966     0.416804 
    0.587635     0.609034     0.480727 
    0.599997     0.522298     0.390152 
    0.512231     0.597162     0.378508 
    0.501647     0.349064     0.466264 
    0.592695     0.377756     0.541855 
    0.616917     0.586536     0.602866 
EA6524 15.043 13.704 12.839 90.00 90.00 90.00 Sym.group:    0
1.0
   15.042950     0.000000     0.000000
    0.000000    13.704135     0.000000
    0.000000     0.000000    12.838709
   W   B
   4  15
Direct
    0.508837     0.510783     0.585866 
    0.703430     0.504837     0.456759 
    0.474669     0.435354     0.395765 
    0.411851     0.598480     0.414401 
    0.629339     0.614586     0.533583 
    0.656080     0.522380     0.612791 
    0.536311     0.664058     0.498044 
    0.448950     0.660428     0.568243 
    0.368414     0.586225     0.581830 
    0.636150     0.410921     0.571641 
    0.564735     0.569827     0.416369 
    0.610135     0.470205     0.347668 
    0.617534     0.383889     0.445076 
    0.542133     0.352366     0.536197 
    0.436098     0.367735     0.552929 
    0.371404     0.459066     0.601739 
    0.344831     0.400354     0.490325 
    0.329078     0.471646     0.386170 
    0.310022     0.516861     0.504602 
EA6961 13.701 13.851 12.762 90.00 90.00 90.00 Sym.group:    0
1.0
   13.700710     0.000000     0.000000
    0.000000    13.851493     0.000000
    0.000000     0.000000    12.762303
   W   B
   4  13
Direct
    0.495532     0.498027     0.443484 
    0.340224     0.477883     0.564034 
    0.619026     0.428859     0.612893 
    0.592185     0.605914     0.610735 
    0.348058     0.417942     0.404204 
    0.417367     0.352894     0.475408 
    0.331400     0.530527     0.401357 
    0.636406     0.416089     0.434656 
    0.605502     0.618008     0.431010 
    0.636221     0.518331     0.364226 
    0.498155     0.655715     0.483595 
    0.668074     0.525136     0.490862 
    0.378077     0.615496     0.469292 
    0.469749     0.385839     0.591447 
    0.436795     0.603353     0.587031 
    0.482860     0.499821     0.646549 
    0.544370     0.350166     0.489217 
EA7190 14.302 14.122 12.985 90.00 90.00 90.00 Sym.group:    0
1.0
   14.301629     0.000000     0.000000
    0.000000    14.122350     0.000000
    0.000000     0.000000    12.985228
   W   B
   5  15
Direct
    0.537607     0.636514     0.404142 
    0.511444     0.634881     0.600513 
    0.490215     0.366319     0.396166 
    0.467956     0.366280     0.591207 
    0.304236     0.442702     0.587191 
    0.354189     0.357907     0.470239 
    0.573899     0.494753     0.361737 
    0.647244     0.633732     0.517633 
    0.457445     0.512705     0.353837 
    0.407524     0.674436     0.493664 
    0.429524     0.508698     0.630774 
    0.600427     0.329194     0.504278 
    0.361989     0.583314     0.558558 
    0.638692     0.535144     0.581876 
    0.619220     0.416279     0.583583 
    0.390346     0.588215     0.415736 
    0.372069     0.467351     0.429730 
    0.656551     0.542130     0.438414 
    0.635380     0.420771     0.439077 
    0.544044     0.488675     0.641642 
EA7551 13.997 13.945 12.930 90.00 90.00 90.00 Sym.group:    0
1.0
   13.996724     0.000000     0.000000
    0.000000    13.945147     0.000000
    0.000000     0.000000    12.929743
   W   B
   4  15
Direct
    0.511710     0.493631     0.459356 
    0.482548     0.481931     0.648830 
    0.385131     0.342937     0.400703 
    0.325468     0.442412     0.538134 
    0.684212     0.472469     0.445232 
    0.632621     0.476920     0.578908 
    0.660647     0.575905     0.489662 
    0.632519     0.372273     0.444756 
    0.529717     0.322354     0.454331 
    0.571000     0.372872     0.571476 
    0.453764     0.353587     0.554447 
    0.587231     0.587048     0.598175 
    0.408655     0.597251     0.358644 
    0.573297     0.657761     0.492017 
    0.369004     0.583947     0.609548 
    0.366403     0.586133     0.480078 
    0.363847     0.492266     0.378138 
    0.476779     0.628954     0.583012 
    0.485447     0.659348     0.414551 
EA7876 13.948 14.217 14.052 90.00 90.00 90.00 Sym.group:    0
1.0
   13.948115     0.000000     0.000000
    0.000000    14.217432     0.000000
    0.000000     0.000000    14.051981
   W   B
   5  15
Direct
    0.376192     0.536849     0.598324 
    0.457006     0.402302     0.458129 
    0.505768     0.572012     0.459582 
    0.544612     0.472773     0.635167 
    0.342351     0.643346     0.457206 
    0.635184     0.412190     0.434454 
    0.309632     0.475692     0.461970 
    0.678044     0.608855     0.481020 
    0.622991     0.608911     0.579570 
    0.572311     0.466342     0.348382 
    0.414445     0.377222     0.610731 
    0.511974     0.626162     0.626773 
    0.466793     0.486773     0.316070 
    0.611188     0.357896     0.529616 
    0.319870     0.403204     0.547624 
    0.432439     0.683090     0.563106 
    0.369437     0.510487     0.367938 
    0.660408     0.527087     0.406074 
    0.519107     0.330251     0.591090 
    0.650249     0.498560     0.527175 
EA8245 13.332 12.864 14.194 90.00 90.00 90.00 Sym.group:    0
1.0
   13.331750     0.000000     0.000000
    0.000000    12.863806     0.000000
    0.000000     0.000000    14.193853
   W   B
   3  15
Direct
    0.499987     0.502624     0.452318 
    0.655249     0.410897     0.548809 
    0.366703     0.454750     0.584326 
    0.662540     0.582141     0.485566 
    0.677747     0.489732     0.412000 
    0.599836     0.560626     0.589053 
    0.571294     0.664598     0.521334 
    0.479079     0.592299     0.589142 
    0.377028     0.644554     0.411997 
    0.463779     0.689365     0.476245 
    0.323421     0.533751     0.434700 
    0.371235     0.606007     0.526303 
    0.624156     0.382256     0.397987 
    0.339320     0.411193     0.435190 
    0.419844     0.334716     0.479584 
    0.546949     0.319756     0.461108 
    0.502685     0.354112     0.567743 
    0.519147     0.466624     0.626596 
EA8595 14.106 13.880 12.680 90.00 90.00 90.00 Sym.group:    0
1.0
   14.105690     0.000000     0.000000
    0.000000    13.879614     0.000000
    0.000000     0.000000    12.679701
   W   B
   4  14
Direct
    0.330124     0.500106     0.448035 
    0.502337     0.492954     0.549373 
    0.599227     0.433247     0.381593 
    0.580553     0.603926     0.377353 
    0.659728     0.437166     0.571903 
    0.595160     0.348243     0.542324 
    0.499930     0.327509     0.484334 
    0.350166     0.431128     0.606108 
    0.389384     0.363691     0.515961 
    0.441867     0.397265     0.399897 
    0.347037     0.542779     0.616214 
    0.390170     0.624865     0.545110 
    0.430553     0.615415     0.416577 
    0.462873     0.509894     0.355660 
    0.648955     0.542019     0.626022 
    0.604371     0.628485     0.558290 
    0.499847     0.663278     0.513032 
    0.667720     0.538025     0.492215 
EA8896 14.257 14.229 12.835 90.00 90.00 90.00 Sym.group:    0
1.0
   14.256658     0.000000     0.000000
    0.000000    14.229125     0.000000
    0.000000     0.000000    12.835445
   W   B
   5  14
Direct
    0.499797     0.503283     0.468463 
    0.405966     0.386128     0.612022 
    0.373476     0.551460     0.625985 
    0.541413     0.502713     0.656450 
    0.544341     0.699601     0.433129 
    0.590907     0.367428     0.433442 
    0.627061     0.581464     0.404087 
    0.347289     0.475244     0.373341 
    0.646679     0.467680     0.410382 
    0.383635     0.381305     0.429833 
    0.483861     0.333265     0.461375 
    0.550614     0.360329     0.567064 
    0.643492     0.421503     0.538461 
    0.672790     0.528383     0.530890 
    0.321496     0.461530     0.503388 
    0.340349     0.566989     0.445227 
    0.415070     0.649485     0.479035 
    0.612790     0.622719     0.547274 
    0.498976     0.639493     0.580153 
EA9260 13.995 13.913 12.554 90.00 90.00 90.00 Sym.group:    0
1.0
   13.994557     0.000000     0.000000
    0.000000    13.912925     0.000000
    0.000000     0.000000    12.554277
   W   B
   3  15
Direct
    0.426947     0.639819     0.396010 
    0.499520     0.503831     0.536809 
    0.507974     0.495858     0.340111 
    0.355688     0.569627     0.585162 
    0.345267     0.451530     0.562677 
    0.412902     0.356451     0.548450 
    0.334250     0.530058     0.455152 
    0.390996     0.425929     0.425922 
    0.484793     0.358235     0.436029 
    0.527508     0.338832     0.567317 
    0.596323     0.394621     0.454542 
    0.621733     0.393750     0.600958 
    0.536178     0.666766     0.530737 
    0.582445     0.615485     0.417425 
    0.639169     0.599500     0.536831 
    0.434935     0.652680     0.584919 
    0.638787     0.510204     0.435574 
    0.664586     0.496824     0.585377 
EA9639 13.596 12.681 13.520 90.00 90.00 90.00 Sym.group:    0
1.0
   13.596182     0.000000     0.000000
    0.000000    12.680720     0.000000
    0.000000     0.000000    13.519528
   W   B
   3  14
Direct
    0.496401     0.505125     0.464885 
    0.505526     0.490179     0.639640 
    0.397626     0.642874     0.582642 
    0.470652     0.337033     0.428296 
    0.538998     0.339592     0.540924 
    0.592225     0.371100     0.421743 
    0.621989     0.617432     0.448158 
    0.654996     0.487706     0.430862 
    0.633028     0.415637     0.541648 
    0.640467     0.542344     0.555757 
    0.512220     0.681430     0.451361 
    0.335123     0.536726     0.446948 
    0.362800     0.406326     0.443161 
    0.357240     0.475953     0.561505 
    0.422425     0.366175     0.552356 
    0.398961     0.644641     0.424791 
    0.559324     0.639728     0.565323 
EA9928 13.837 13.854 12.559 90.00 90.00 90.00 Sym.group:    0
1.0
   13.837176     0.000000     0.000000
    0.000000    13.854390     0.000000
    0.000000     0.000000    12.559283
   W   B
   3  15
Direct
    0.633635     0.618421     0.431268 
    0.496834     0.499578     0.541605 
    0.513060     0.507286     0.351017 
    0.662855     0.506078     0.573714 
    0.627400     0.392698     0.559494 
    0.523661     0.333175     0.547823 
    0.655355     0.467601     0.439882 
    0.576969     0.378261     0.431690 
    0.460405     0.364524     0.427243 
    0.407527     0.356155     0.557140 
    0.373125     0.445494     0.436880 
    0.336702     0.441249     0.583432 
    0.519500     0.666473     0.556497 
    0.478979     0.647198     0.428551 
    0.401254     0.644106     0.537251 
    0.613181     0.609841     0.601731 
    0.384571     0.568516     0.426816 
    0.334985     0.553346     0.567964 
EA10270 14.128 14.056 12.500 90.00 90.00 90.00 Sym.group:    0
1.0
   14.127896     0.000000     0.000000
    0.000000    14.055634     0.000000
    0.000000     0.000000    12.499683
   W   B
   3  15
Direct
    0.625239     0.622033     0.433941 
    0.496984     0.498376     0.542996 
    0.512957     0.508962     0.349908 
    0.658026     0.512401     0.574739 
    0.628581     0.399083     0.558541 
    0.530072     0.335925     0.544881 
    0.653938     0.475490     0.439422 
    0.581181     0.384255     0.429533 
    0.467886     0.366183     0.424715 
    0.415379     0.353560     0.553755 
    0.378652     0.441603     0.434940 
    0.343579     0.434861     0.582511 
    0.511336     0.664763     0.558674 
    0.473529     0.644593     0.430028 
    0.397213     0.637492     0.539303 
    0.604608     0.611735     0.604716 
    0.383855     0.563272     0.426879 
    0.336985     0.545413     0.570520 
EA10851 13.626 12.028 13.963 90.00 90.00 90.00 Sym.group:    0
1.0
   13.625629     0.000000     0.000000
    0.000000    12.028044     0.000000
    0.000000     0.000000    13.963377
   W   B
   2  12
Direct
    0.496810     0.501786     0.563347 
    0.384682     0.537887     0.422298 
    0.541459     0.335737     0.504086 
    0.420296     0.360482     0.483016 
    0.337289     0.432874     0.539589 
    0.331962     0.560275     0.570040 
    0.504799     0.423200     0.411194 
    0.399482     0.660934     0.536080 
    0.541577     0.558241     0.409816 
    0.614948     0.459420     0.457241 
    0.504651     0.666022     0.480079 
    0.616479     0.608999     0.501416 
    0.669822     0.509155     0.560378 
    0.635744     0.384988     0.561419 
EA11000 14.108 13.690 13.249 90.00 90.00 90.00 Sym.group:    0
1.0
   14.108405     0.000000     0.000000
    0.000000    13.689855     0.000000
    0.000000     0.000000    13.248978
   W   B
   3  14
Direct
    0.529538     0.502557     0.409091 
    0.514077     0.587780     0.593099 
    0.390179     0.429143     0.523821 
    0.526552     0.348573     0.486623 
    0.632249     0.395987     0.494179 
    0.629634     0.503176     0.558813 
    0.451672     0.349512     0.392751 
    0.690901     0.489083     0.452679 
    0.533760     0.422106     0.598097 
    0.389241     0.436640     0.355252 
    0.374568     0.542330     0.411212 
    0.450718     0.466831     0.676777 
    0.363067     0.588189     0.531697 
    0.558856     0.663412     0.447650 
    0.366872     0.540024     0.642487 
    0.650656     0.598765     0.476336 
    0.447464     0.635891     0.449437 
EA11393 13.742 13.678 12.141 90.00 90.00 90.00 Sym.group:    0
1.0
   13.742143     0.000000     0.000000
    0.000000    13.678191     0.000000
    0.000000     0.000000    12.141214
   W   B
   3  13
Direct
    0.499960     0.456391     0.649942 
    0.499525     0.498849     0.450561 
    0.504736     0.638514     0.613900 
    0.435148     0.342492     0.473928 
    0.355345     0.408595     0.414962 
    0.555794     0.339416     0.472583 
    0.625885     0.427214     0.549205 
    0.334926     0.520798     0.449194 
    0.380178     0.553935     0.578020 
    0.371274     0.434056     0.551749 
    0.623952     0.547634     0.575392 
    0.503773     0.667239     0.434337 
    0.665370     0.512182     0.446354 
    0.638591     0.400954     0.412628 
    0.610201     0.622933     0.462907 
    0.395343     0.628798     0.464339 
EA11754 13.742 13.678 12.141 90.00 90.00 90.00 Sym.group:    0
1.0
   13.742143     0.000000     0.000000
    0.000000    13.678191     0.000000
    0.000000     0.000000    12.141214
   W   B
   3  13
Direct
    0.499960     0.456391     0.649942 
    0.499525     0.498849     0.450561 
    0.504736     0.638514     0.613900 
    0.435148     0.342492     0.473928 
    0.355345     0.408595     0.414962 
    0.555794     0.339416     0.472583 
    0.625885     0.427214     0.549205 
    0.334926     0.520798     0.449194 
    0.380178     0.553935     0.578020 
    0.371274     0.434056     0.551749 
    0.623952     0.547634     0.575392 
    0.503773     0.667239     0.434337 
    0.665370     0.512182     0.446354 
    0.638591     0.400954     0.412628 
    0.610201     0.622933     0.462907 
    0.395343     0.628798     0.464339 
EA12272 13.758 11.374 13.583 90.00 90.00 90.00 Sym.group:    0
1.0
   13.758309     0.000000     0.000000
    0.000000    11.374455     0.000000
    0.000000     0.000000    13.582545
   W   B
   1  11
Direct
    0.498548     0.528946     0.579986 
    0.397356     0.464411     0.442827 
    0.343177     0.558041     0.521057 
    0.358128     0.425226     0.556390 
    0.424742     0.630655     0.463032 
    0.539720     0.653482     0.464840 
    0.653285     0.474844     0.556139 
    0.637467     0.606477     0.514222 
    0.507623     0.434037     0.414577 
    0.455410     0.356968     0.522345 
    0.574012     0.376169     0.522990 
    0.610532     0.490746     0.441594 
EA12331 13.630 14.366 13.560 90.00 90.00 90.00 Sym.group:    0
1.0
   13.629847     0.000000     0.000000
    0.000000    14.365585     0.000000
    0.000000     0.000000    13.559543
   W   B
   5  12
Direct
    0.399867     0.412291     0.588502 
    0.462025     0.544421     0.439635 
    0.549985     0.376386     0.484221 
    0.560864     0.537180     0.582132 
    0.679728     0.548697     0.405081 
    0.394766     0.394472     0.423868 
    0.310415     0.464510     0.465706 
    0.314591     0.555835     0.532020 
    0.391426     0.649289     0.547022 
    0.405726     0.553751     0.619248 
    0.492186     0.689389     0.504930 
    0.479927     0.410452     0.340593 
    0.590530     0.652293     0.454843 
    0.540794     0.380423     0.644886 
    0.699936     0.462903     0.522891 
    0.578097     0.468230     0.339846 
    0.649138     0.399476     0.604576 
EA12737 13.992 12.082 13.444 90.00 90.00 90.00 Sym.group:    0
1.0
   13.992079     0.000000     0.000000
    0.000000    12.081986     0.000000
    0.000000     0.000000    13.443773
   W   B
   1  15
Direct
    0.497790     0.523852     0.468760 
    0.356014     0.440435     0.426554 
    0.347646     0.570032     0.407461 
    0.431813     0.345081     0.456403 
    0.546082     0.332548     0.471477 
    0.641199     0.405225     0.456147 
    0.657150     0.632975     0.480230 
    0.682256     0.521793     0.428406 
    0.376113     0.657980     0.491974 
    0.379895     0.417431     0.560899 
    0.337393     0.532991     0.528571 
    0.479049     0.354404     0.577474 
    0.466560     0.684299     0.555480 
    0.576826     0.657393     0.559345 
    0.638608     0.519763     0.551981 
    0.585606     0.403796     0.578837 
EA13093 13.879 12.492 13.354 90.00 90.00 90.00 Sym.group:    0
1.0
   13.879421     0.000000     0.000000
    0.000000    12.491912     0.000000
    0.000000     0.000000    13.353877
   W   B
   2  14
Direct
    0.491915     0.442381     0.615842 
    0.495306     0.488302     0.449692 
    0.504068     0.295356     0.526885 
    0.610535     0.352872     0.528953 
    0.400261     0.325497     0.495902 
    0.564222     0.600697     0.567713 
    0.633047     0.488492     0.553015 
    0.361002     0.529258     0.548110 
    0.448620     0.612696     0.576343 
    0.330368     0.420919     0.465576 
    0.324980     0.538656     0.424269 
    0.673471     0.415920     0.448929 
    0.668071     0.537682     0.424284 
    0.501513     0.677539     0.474647 
    0.389572     0.634498     0.463992 
    0.603048     0.639235     0.435850 
EA13448 13.920 13.575 11.600 90.00 90.00 90.00 Sym.group:    0
1.0
   13.920120     0.000000     0.000000
    0.000000    13.574599     0.000000
    0.000000     0.000000    11.599519
   W   B
   1  15
Direct
    0.497393     0.518788     0.461844 
    0.348907     0.444596     0.430812 
    0.339240     0.558347     0.400511 
    0.426931     0.361131     0.463512 
    0.542941     0.349251     0.468898 
    0.637206     0.413589     0.439766 
    0.657965     0.616486     0.466633 
    0.677603     0.517014     0.404406 
    0.375913     0.643663     0.483340 
    0.385357     0.431786     0.584104 
    0.346037     0.535826     0.545738 
    0.484040     0.372817     0.597013 
    0.468706     0.665893     0.555391 
    0.578986     0.640504     0.559386 
    0.641532     0.516308     0.551120 
    0.591241     0.414000     0.587527 
EA13785 13.541 13.718 12.143 90.00 90.00 90.00 Sym.group:    0
1.0
   13.540834     0.000000     0.000000
    0.000000    13.717813     0.000000
    0.000000     0.000000    12.143482
   W   B
   4  12
Direct
    0.498481     0.500000     0.557828 
    0.399493     0.516799     0.356907 
    0.541519     0.402394     0.361435 
    0.569360     0.579288     0.361403 
    0.662129     0.473576     0.599801 
    0.392058     0.373370     0.591041 
    0.438495     0.654388     0.591966 
    0.495239     0.335546     0.535467 
    0.645184     0.579047     0.539867 
    0.356748     0.585819     0.529811 
    0.612167     0.379097     0.539637 
    0.548584     0.657190     0.536861 
    0.336797     0.464160     0.529145 
    0.403528     0.381641     0.453011 
    0.446941     0.642557     0.454174 
    0.653278     0.475127     0.461650 
EA14128 13.541 13.718 12.143 90.00 90.00 90.00 Sym.group:    0
1.0
   13.540834     0.000000     0.000000
    0.000000    13.717813     0.000000
    0.000000     0.000000    12.143482
   W   B
   4  12
Direct
    0.498481     0.500000     0.557828 
    0.399493     0.516799     0.356907 
    0.541519     0.402394     0.361435 
    0.569360     0.579288     0.361403 
    0.662129     0.473576     0.599801 
    0.392058     0.373370     0.591041 
    0.438495     0.654388     0.591966 
    0.495239     0.335546     0.535467 
    0.645184     0.579047     0.539867 
    0.356748     0.585819     0.529811 
    0.612167     0.379097     0.539637 
    0.548584     0.657190     0.536861 
    0.336797     0.464160     0.529145 
    0.403528     0.381641     0.453011 
    0.446941     0.642557     0.454174 
    0.653278     0.475127     0.461650 
EA14447 13.861 13.795 11.963 90.00 90.00 90.00 Sym.group:    0
1.0
   13.860605     0.000000     0.000000
    0.000000    13.794990     0.000000
    0.000000     0.000000    11.963337
   W   B
   5  11
Direct
    0.418412     0.381909     0.601582 
    0.395578     0.561324     0.605173 
    0.492314     0.505794     0.444718 
    0.675482     0.501697     0.561552 
    0.682224     0.523309     0.369948 
    0.327552     0.450739     0.459102 
    0.510218     0.339143     0.450995 
    0.398878     0.363694     0.423270 
    0.569121     0.385742     0.564725 
    0.327149     0.563820     0.432467 
    0.531805     0.482428     0.646875 
    0.396997     0.651424     0.442593 
    0.498001     0.669776     0.502828 
    0.552151     0.597867     0.599913 
    0.606880     0.624984     0.467137 
    0.617238     0.396350     0.427122 
EA14813 13.581 13.746 12.171 90.00 90.00 90.00 Sym.group:    0
1.0
   13.580669     0.000000     0.000000
    0.000000    13.745942     0.000000
    0.000000     0.000000    12.170559
   W   B
   4  12
Direct
    0.500804     0.499605     0.557445 
    0.528110     0.601481     0.364474 
    0.570268     0.426950     0.358003 
    0.395977     0.477895     0.362227 
    0.453157     0.340890     0.591443 
    0.662893     0.536934     0.592030 
    0.387336     0.618276     0.597826 
    0.651690     0.430758     0.531839 
    0.364859     0.404294     0.534886 
    0.484739     0.663082     0.536965 
    0.560772     0.346446     0.531781 
    0.335967     0.524335     0.537824 
    0.604772     0.627640     0.534065 
    0.650240     0.534769     0.454666 
    0.392837     0.611636     0.460258 
    0.455577     0.355008     0.454270 
EA15263 13.202 13.238 13.031 90.00 90.00 90.00 Sym.group:    0
1.0
   13.202118     0.000000     0.000000
    0.000000    13.237554     0.000000
    0.000000     0.000000    13.030716
   W   B
   1  13
Direct
    0.497394     0.496075     0.578423 
    0.532396     0.649993     0.514330 
    0.494726     0.567742     0.414637 
    0.520382     0.443146     0.422395 
    0.608159     0.541628     0.454928 
    0.531029     0.333227     0.489895 
    0.628270     0.397984     0.511639 
    0.679764     0.499366     0.554231 
    0.637392     0.609383     0.564014 
    0.323708     0.432091     0.523153 
    0.414955     0.357109     0.497819 
    0.322010     0.549704     0.532544 
    0.411741     0.627088     0.502674 
    0.398075     0.495464     0.439317 
EA15405 14.588 13.628 13.383 90.00 90.00 90.00 Sym.group:    0
1.0
   14.588360     0.000000     0.000000
    0.000000    13.628077     0.000000
    0.000000     0.000000    13.382588
   W   B
   4  13
Direct
    0.528749     0.526995     0.420617 
    0.408449     0.408840     0.500586 
    0.475333     0.584125     0.589075 
    0.340656     0.584637     0.440101 
    0.543238     0.357113     0.421720 
    0.638453     0.416226     0.471988 
    0.689188     0.515433     0.494480 
    0.635928     0.610834     0.527600 
    0.598177     0.486346     0.577269 
    0.556438     0.682583     0.492422 
    0.462931     0.387723     0.346598 
    0.454060     0.674524     0.450331 
    0.502694     0.429498     0.639430 
    0.328275     0.524861     0.583006 
    0.389906     0.474342     0.346162 
    0.395739     0.463408     0.653916 
    0.551789     0.372513     0.544699 
EA15878 13.515 13.877 13.009 90.00 90.00 90.00 Sym.group:    0
1.0
   13.515485     0.000000     0.000000
    0.000000    13.877020     0.000000
    0.000000     0.000000    13.009375
   W   B
   3  12
Direct
    0.361034     0.481664     0.420394 
    0.503529     0.504584     0.580231 
    0.618576     0.508290     0.428911 
    0.474350     0.588215     0.406230 
    0.492884     0.492229     0.330588 
    0.527789     0.648745     0.501998 
    0.401259     0.615591     0.505162 
    0.337301     0.542925     0.577191 
    0.350261     0.431283     0.582497 
    0.494608     0.398215     0.411151 
    0.429711     0.368956     0.516479 
    0.648266     0.414391     0.571226 
    0.672782     0.522002     0.596480 
    0.625743     0.619986     0.560995 
    0.561908     0.362924     0.510469 
EA16240 13.824 13.217 12.809 90.00 90.00 90.00 Sym.group:    0
1.0
   13.824307     0.000000     0.000000
    0.000000    13.217388     0.000000
    0.000000     0.000000    12.809499
   W   B
   3  12
Direct
    0.352356     0.497665     0.446095 
    0.515751     0.503673     0.579567 
    0.601774     0.494318     0.407366 
    0.469945     0.596291     0.406721 
    0.464572     0.492403     0.331994 
    0.544939     0.650927     0.491027 
    0.420685     0.631974     0.520348 
    0.361385     0.564349     0.605224 
    0.361587     0.446092     0.610886 
    0.469517     0.394779     0.415310 
    0.420417     0.370990     0.532315 
    0.644056     0.393622     0.547439 
    0.683231     0.503224     0.566392 
    0.644068     0.610140     0.535535 
    0.545717     0.349551     0.503782 
EA16394 13.352 13.169 13.472 90.00 90.00 90.00 Sym.group:    0
1.0
   13.351629     0.000000     0.000000
    0.000000    13.168984     0.000000
    0.000000     0.000000    13.472183
   W   B
   3  14
Direct
    0.506352     0.486353     0.544765 
    0.445895     0.389245     0.391882 
    0.610233     0.453450     0.381206 
    0.651666     0.618623     0.543868 
    0.691284     0.506788     0.541326 
    0.666609     0.393454     0.518573 
    0.576293     0.608566     0.442689 
    0.543606     0.663809     0.572988 
    0.431739     0.643542     0.607461 
    0.481210     0.559325     0.382371 
    0.374884     0.532872     0.438422 
    0.316267     0.461706     0.521949 
    0.449192     0.632115     0.478923 
    0.346812     0.571412     0.567855 
    0.467770     0.302331     0.533679 
    0.365029     0.354298     0.543123 
    0.575159     0.322109     0.488918 
EA16745 14.339 13.992 12.057 90.00 90.00 90.00 Sym.group:    0
1.0
   14.338577     0.000000     0.000000
    0.000000    13.992375     0.000000
    0.000000     0.000000    12.057278
   W   B
   3  14
Direct
    0.498108     0.492066     0.551317 
    0.392401     0.435007     0.393917 
    0.553378     0.386137     0.388943 
    0.675282     0.496448     0.533284 
    0.642649     0.392335     0.563109 
    0.557934     0.324134     0.555477 
    0.611863     0.531319     0.421590 
    0.630769     0.601778     0.550151 
    0.544843     0.665434     0.585565 
    0.510234     0.536848     0.358586 
    0.421078     0.589372     0.419825 
    0.349242     0.586458     0.530695 
    0.534442     0.623841     0.451032 
    0.439435     0.654284     0.551123 
    0.363165     0.379384     0.562109 
    0.323551     0.481689     0.567539 
    0.451623     0.323465     0.515736 
EA17208 14.066 13.686 12.678 90.00 90.00 90.00 Sym.group:    0
1.0
   14.066417     0.000000     0.000000
    0.000000    13.686099     0.000000
    0.000000     0.000000    12.677863
   W   B
   3  12
Direct
    0.496591     0.503204     0.438308 
    0.376453     0.549023     0.590663 
    0.631293     0.445893     0.569825 
    0.336350     0.454934     0.451749 
    0.334893     0.565213     0.420139 
    0.399566     0.390421     0.527926 
    0.485785     0.439147     0.610467 
    0.511362     0.346550     0.517016 
    0.589384     0.350581     0.426467 
    0.658210     0.544843     0.436191 
    0.655419     0.437088     0.393907 
    0.492857     0.653748     0.529572 
    0.402260     0.649459     0.454457 
    0.602754     0.610630     0.519043 
    0.526823     0.559265     0.614270 
EA17685 13.217 11.140 13.446 90.00 90.00 90.00 Sym.group:    0
1.0
   13.216864     0.000000     0.000000
    0.000000    11.139783     0.000000
    0.000000     0.000000    13.445996
   W   B
   1  12
Direct
    0.505710     0.480189     0.425278 
    0.548705     0.662656     0.503058 
    0.492132     0.539226     0.590142 
    0.648438     0.612515     0.459045 
    0.682975     0.477864     0.472195 
    0.610754     0.537773     0.564033 
    0.620927     0.379128     0.526937 
    0.427602     0.644848     0.488744 
    0.383458     0.496302     0.547477 
    0.399234     0.342742     0.502231 
    0.329517     0.432372     0.446522 
    0.511317     0.320922     0.533034 
    0.339232     0.573464     0.441307 
EA17822 13.798 14.062 12.535 90.00 90.00 90.00 Sym.group:    0
1.0
   13.798021     0.000000     0.000000
    0.000000    14.062306     0.000000
    0.000000     0.000000    12.534844
   W   B
   5  11
Direct
    0.525002     0.546892     0.631835 
    0.354113     0.529561     0.562455 
    0.509306     0.526550     0.430610 
    0.531868     0.358322     0.554301 
    0.379268     0.392433     0.412336 
    0.689619     0.510711     0.428409 
    0.636829     0.469183     0.546709 
    0.653752     0.589252     0.511092 
    0.567944     0.665772     0.528915 
    0.452889     0.661529     0.531880 
    0.380517     0.633820     0.434088 
    0.374064     0.368948     0.576391 
    0.433157     0.429655     0.664385 
    0.349709     0.536457     0.380821 
    0.635076     0.410964     0.421198 
    0.526889     0.369950     0.384574 
EA18171 14.054 13.621 12.992 90.00 90.00 90.00 Sym.group:    0
1.0
   14.054153     0.000000     0.000000
    0.000000    13.620992     0.000000
    0.000000     0.000000    12.991581
   W   B
   5  11
Direct
    0.473696     0.555598     0.625359 
    0.637803     0.557423     0.549857 
    0.484171     0.520075     0.430239 
    0.494440     0.355630     0.564973 
    0.629418     0.401263     0.418464 
    0.311480     0.476251     0.443485 
    0.375461     0.451615     0.555401 
    0.337409     0.567456     0.515325 
    0.408688     0.660946     0.518284 
    0.520812     0.674332     0.511467 
    0.592907     0.648631     0.417260 
    0.646500     0.393137     0.577741 
    0.581277     0.450869     0.660412 
    0.636308     0.549468     0.375276 
    0.380456     0.383575     0.437169 
    0.489174     0.353733     0.399288 
EA18536 14.054 13.621 12.992 90.00 90.00 90.00 Sym.group:    0
1.0
   14.054153     0.000000     0.000000
    0.000000    13.620992     0.000000
    0.000000     0.000000    12.991581
   W   B
   5  11
Direct
    0.473696     0.555598     0.625359 
    0.637803     0.557423     0.549857 
    0.484171     0.520075     0.430239 
    0.494440     0.355630     0.564973 
    0.629418     0.401263     0.418464 
    0.311480     0.476251     0.443485 
    0.375461     0.451615     0.555401 
    0.337409     0.567456     0.515325 
    0.408688     0.660946     0.518284 
    0.520812     0.674332     0.511467 
    0.592907     0.648631     0.417260 
    0.646500     0.393137     0.577741 
    0.581277     0.450869     0.660412 
    0.636308     0.549468     0.375276 
    0.380456     0.383575     0.437169 
    0.489174     0.353733     0.399288 
EA19056 13.751 13.710 11.764 90.00 90.00 90.00 Sym.group:    0
1.0
   13.751005     0.000000     0.000000
    0.000000    13.710443     0.000000
    0.000000     0.000000    11.764320
   W   B
   1  12
Direct
    0.499445     0.499393     0.599771 
    0.643135     0.464100     0.496951 
    0.598218     0.360944     0.517868 
    0.490207     0.330852     0.520105 
    0.331244     0.485484     0.519189 
    0.397557     0.393981     0.498734 
    0.519484     0.428970     0.432081 
    0.459457     0.643159     0.499010 
    0.571698     0.654525     0.516267 
    0.358693     0.593847     0.518460 
    0.429138     0.517111     0.432298 
    0.651831     0.576526     0.516329 
    0.549891     0.551106     0.432938 
EA19124 13.969 13.675 12.375 90.00 90.00 90.00 Sym.group:    0
1.0
   13.969414     0.000000     0.000000
    0.000000    13.674834     0.000000
    0.000000     0.000000    12.374978
   W   B
   4  13
Direct
    0.490873     0.484104     0.571289 
    0.390721     0.458278     0.406563 
    0.516383     0.622202     0.395098 
    0.660021     0.480854     0.443504 
    0.589642     0.360414     0.533084 
    0.642523     0.439877     0.607966 
    0.547087     0.643002     0.565549 
    0.639244     0.556777     0.596229 
    0.538058     0.385841     0.412349 
    0.470985     0.326923     0.499536 
    0.645572     0.630683     0.488959 
    0.375712     0.355460     0.559726 
    0.322028     0.452968     0.578388 
    0.430997     0.642698     0.541502 
    0.335804     0.560883     0.540313 
    0.368876     0.615670     0.428467 
    0.535470     0.483365     0.331476 
EA19470 13.818 13.689 12.381 90.00 90.00 90.00 Sym.group:    0
1.0
   13.817635     0.000000     0.000000
    0.000000    13.689353     0.000000
    0.000000     0.000000    12.381407
   W   B
   4  13
Direct
    0.493261     0.485946     0.576448 
    0.388497     0.456923     0.411412 
    0.512001     0.616286     0.393709 
    0.660095     0.482123     0.437091 
    0.590861     0.363416     0.530045 
    0.648519     0.442262     0.603237 
    0.549835     0.644322     0.562469 
    0.645573     0.559954     0.590722 
    0.535215     0.385589     0.409597 
    0.470992     0.329543     0.503017 
    0.645995     0.631499     0.481383 
    0.375127     0.353570     0.564978 
    0.323577     0.451919     0.587102 
    0.431249     0.641707     0.544941 
    0.334362     0.559638     0.545153 
    0.364146     0.615767     0.434195 
    0.530700     0.479535     0.324502 
EA19809 13.818 13.689 12.381 90.00 90.00 90.00 Sym.group:    0
1.0
   13.817635     0.000000     0.000000
    0.000000    13.689353     0.000000
    0.000000     0.000000    12.381407
   W   B
   4  13
Direct
    0.493261     0.485946     0.576448 
    0.388497     0.456923     0.411412 
    0.512001     0.616286     0.393709 
    0.660095     0.482123     0.437091 
    0.590861     0.363416     0.530045 
    0.648519     0.442262     0.603237 
    0.549835     0.644322     0.562469 
    0.645573     0.559954     0.590722 
    0.535215     0.385589     0.409597 
    0.470992     0.329543     0.503017 
    0.645995     0.631499     0.481383 
    0.375127     0.353570     0.564978 
    0.323577     0.451919     0.587102 
    0.431249     0.641707     0.544941 
    0.334362     0.559638     0.545153 
    0.364146     0.615767     0.434195 
    0.530700     0.479535     0.324502 
EA20146 14.120 13.509 12.683 90.00 90.00 90.00 Sym.group:    0
1.0
   14.120167     0.000000     0.000000
    0.000000    13.509412     0.000000
    0.000000     0.000000    12.682520
   W   B
   4  13
Direct
    0.488437     0.486515     0.578497 
    0.383932     0.489717     0.409926 
    0.541997     0.609202     0.402354 
    0.647912     0.449283     0.439354 
    0.552732     0.347363     0.521572 
    0.625499     0.403886     0.600627 
    0.581231     0.626110     0.570530 
    0.650337     0.520224     0.596339 
    0.507403     0.379861     0.402173 
    0.431464     0.343620     0.491893 
    0.672297     0.594443     0.492300 
    0.343792     0.385613     0.552578 
    0.317831     0.492745     0.580559 
    0.469276     0.653687     0.549349 
    0.358600     0.596480     0.547547 
    0.400973     0.646537     0.439986 
    0.526287     0.474715     0.324415 
EA20738 14.015 11.679 13.626 90.00 90.00 90.00 Sym.group:    0
1.0
   14.014707     0.000000     0.000000
    0.000000    11.679219     0.000000
    0.000000     0.000000    13.626430
   W   B
   1  12
Direct
    0.503238     0.492995     0.575294 
    0.502544     0.321963     0.488655 
    0.497771     0.524081     0.404475 
    0.352701     0.591294     0.544356 
    0.397494     0.363178     0.502397 
    0.334402     0.458469     0.549388 
    0.391675     0.506635     0.447614 
    0.605807     0.369937     0.497204 
    0.667785     0.467709     0.540481 
    0.553866     0.647956     0.487069 
    0.646229     0.599680     0.533826 
    0.607309     0.512679     0.439467 
    0.439177     0.643426     0.489775 
EA20863 13.625 13.216 12.511 90.00 90.00 90.00 Sym.group:    0
1.0
   13.625132     0.000000     0.000000
    0.000000    13.215826     0.000000
    0.000000     0.000000    12.510982
   W   B
   1  15
Direct
    0.500154     0.509638     0.568435 
    0.607762     0.666758     0.504065 
    0.604797     0.549922     0.432669 
    0.675178     0.465759     0.552352 
    0.679192     0.585120     0.542782 
    0.500454     0.657138     0.455081 
    0.315576     0.567096     0.549806 
    0.390671     0.635785     0.490434 
    0.572343     0.425151     0.435774 
    0.490882     0.519906     0.393002 
    0.450954     0.401766     0.422856 
    0.375835     0.492890     0.457730 
    0.390832     0.368385     0.536878 
    0.616564     0.363829     0.554922 
    0.508894     0.337626     0.523279 
    0.319912     0.453228     0.579936 
EA21411 12.686 13.051 13.581 90.00 90.00 90.00 Sym.group:    0
1.0
   12.685597     0.000000     0.000000
    0.000000    13.051007     0.000000
    0.000000     0.000000    13.580568
   W   B
   1  12
Direct
    0.500517     0.492624     0.576059 
    0.333957     0.578871     0.545187 
    0.319414     0.457841     0.548156 
    0.624410     0.382030     0.502831 
    0.509291     0.344388     0.484330 
    0.391562     0.379615     0.492101 
    0.659286     0.591879     0.535704 
    0.615666     0.508776     0.442225 
    0.688344     0.474499     0.542067 
    0.557005     0.631968     0.489028 
    0.429463     0.625882     0.488501 
    0.495156     0.524272     0.407314 
    0.375927     0.507356     0.446498 
EA21668 13.124 12.861 13.829 90.00 90.00 90.00 Sym.group:    0
1.0
   13.124440     0.000000     0.000000
    0.000000    12.861300     0.000000
    0.000000     0.000000    13.829234
   W   B
   1  13
Direct
    0.497375     0.519380     0.562169 
    0.558409     0.638838     0.460737 
    0.363765     0.501283     0.451003 
    0.319679     0.491493     0.567586 
    0.340720     0.603989     0.523808 
    0.434990     0.634794     0.458256 
    0.635661     0.511243     0.455747 
    0.651935     0.614729     0.529264 
    0.679106     0.503893     0.572597 
    0.622500     0.401439     0.534950 
    0.503955     0.357488     0.515573 
    0.382817     0.392773     0.530366 
    0.442473     0.413067     0.417560 
    0.566612     0.415591     0.420383 
EA21821 12.634 13.824 13.249 90.00 90.00 90.00 Sym.group:    0
1.0
   12.633983     0.000000     0.000000
    0.000000    13.823945     0.000000
    0.000000     0.000000    13.248926
   W   B
   2  15
Direct
    0.506899     0.462682     0.367592 
    0.499175     0.493750     0.551176 
    0.623229     0.562225     0.445821 
    0.647485     0.439561     0.453820 
    0.645363     0.380845     0.565418 
    0.563229     0.345419     0.478643 
    0.691579     0.488971     0.571411 
    0.343232     0.373487     0.550559 
    0.433013     0.347097     0.469355 
    0.657836     0.598890     0.575511 
    0.510180     0.614584     0.415124 
    0.391801     0.568346     0.424485 
    0.355803     0.451682     0.451122 
    0.334849     0.585748     0.550426 
    0.560503     0.655406     0.537270 
    0.430673     0.653380     0.515457 
    0.305149     0.477929     0.576810 
EA22260 13.777 12.535 13.357 90.00 90.00 90.00 Sym.group:    0
1.0
   13.776655     0.000000     0.000000
    0.000000    12.535360     0.000000
    0.000000     0.000000    13.356559
   W   B
   1  14
Direct
    0.502216     0.488378     0.435615 
    0.659328     0.533251     0.478556 
    0.645591     0.411466     0.439946 
    0.367147     0.383550     0.441484 
    0.454515     0.324782     0.501146 
    0.570808     0.336650     0.504198 
    0.585412     0.554436     0.583547 
    0.625793     0.438552     0.563137 
    0.389973     0.418213     0.561770 
    0.487972     0.628104     0.556011 
    0.490900     0.673863     0.432809 
    0.398288     0.542995     0.581544 
    0.390656     0.621387     0.468647 
    0.339533     0.502184     0.474443 
    0.591869     0.642188     0.477145 
EA22681 13.785 13.136 12.294 90.00 90.00 90.00 Sym.group:    0
1.0
   13.785259     0.000000     0.000000
    0.000000    13.136458     0.000000
    0.000000     0.000000    12.293866
   W   B
   1  13
Direct
    0.503886     0.495940     0.582996 
    0.538354     0.650404     0.508918 
    0.599198     0.535905     0.441288 
    0.394601     0.502242     0.447600 
    0.488507     0.567742     0.409393 
    0.507866     0.441247     0.416808 
    0.332579     0.439067     0.545252 
    0.338545     0.556923     0.558279 
    0.421631     0.631369     0.511773 
    0.523350     0.330402     0.487162 
    0.413542     0.360996     0.503348 
    0.639655     0.603308     0.551929 
    0.620168     0.392145     0.499776 
    0.678117     0.492309     0.535479 
EA22977 14.330 13.261 11.419 90.00 90.00 90.00 Sym.group:    0
1.0
   14.330221     0.000000     0.000000
    0.000000    13.260992     0.000000
    0.000000     0.000000    11.418574
   W   B
   2  13
Direct
    0.495946     0.497156     0.429815 
    0.402664     0.470879     0.594182 
    0.621847     0.405530     0.495530 
    0.669735     0.487897     0.415199 
    0.521953     0.349698     0.542425 
    0.427057     0.328495     0.477096 
    0.345826     0.393065     0.426461 
    0.313835     0.505243     0.428929 
    0.525118     0.574855     0.613695 
    0.638928     0.602107     0.412011 
    0.558362     0.648467     0.490470 
    0.555993     0.452344     0.614262 
    0.622304     0.537634     0.541638 
    0.354052     0.605265     0.477804 
    0.446378     0.641365     0.540483 
EA23332 14.330 13.261 11.419 90.00 90.00 90.00 Sym.group:    0
1.0
   14.330221     0.000000     0.000000
    0.000000    13.260992     0.000000
    0.000000     0.000000    11.418574
   W   B
   2  13
Direct
    0.495946     0.497156     0.429815 
    0.402664     0.470879     0.594182 
    0.621847     0.405530     0.495530 
    0.669735     0.487897     0.415199 
    0.521953     0.349698     0.542425 
    0.427057     0.328495     0.477096 
    0.345826     0.393065     0.426461 
    0.313835     0.505243     0.428929 
    0.525118     0.574855     0.613695 
    0.638928     0.602107     0.412011 
    0.558362     0.648467     0.490470 
    0.555993     0.452344     0.614262 
    0.622304     0.537634     0.541638 
    0.354052     0.605265     0.477804 
    0.446378     0.641365     0.540483 
EA23538 13.947 13.009 14.053 90.00 90.00 90.00 Sym.group:    0
1.0
   13.946914     0.000000     0.000000
    0.000000    13.008660     0.000000
    0.000000     0.000000    14.052969
   W   B
   1  15
Direct
    0.500267     0.478687     0.529204 
    0.341209     0.521664     0.559939 
    0.401856     0.624694     0.537616 
    0.513458     0.662422     0.532882 
    0.402456     0.325627     0.505858 
    0.350827     0.401489     0.577299 
    0.456909     0.634210     0.427193 
    0.373124     0.550112     0.434138 
    0.355679     0.434210     0.459013 
    0.618952     0.619282     0.552090 
    0.569332     0.609106     0.431107 
    0.636638     0.510968     0.452574 
    0.683355     0.416390     0.522362 
    0.605204     0.368340     0.455704 
    0.502377     0.317840     0.454908 
    0.688355     0.524960     0.568113 
EA24124 12.401 13.318 13.318 90.00 90.00 90.00 Sym.group:    0
1.0
   12.401234     0.000000     0.000000
    0.000000    13.317709     0.000000
    0.000000     0.000000    13.317542
   W   B
   1  12
Direct
    0.501081     0.489497     0.423299 
    0.384318     0.378153     0.506183 
    0.310499     0.457304     0.456434 
    0.431714     0.625079     0.500983 
    0.332888     0.573692     0.450173 
    0.378584     0.508852     0.555381 
    0.505569     0.345053     0.516699 
    0.664415     0.584336     0.457404 
    0.561375     0.627878     0.505589 
    0.495951     0.539942     0.597859 
    0.690898     0.469034     0.459275 
    0.619384     0.514918     0.559853 
    0.623323     0.386260     0.510867 
EA24406 13.944 12.438 12.476 90.00 90.00 90.00 Sym.group:    0
1.0
   13.944190     0.000000     0.000000
    0.000000    12.438409     0.000000
    0.000000     0.000000    12.475999
   W   B
   1  13
Direct
    0.486686     0.505535     0.421427 
    0.604985     0.376519     0.460361 
    0.665879     0.480108     0.428251 
    0.507383     0.316252     0.486676 
    0.343529     0.584722     0.472606 
    0.329381     0.459054     0.483129 
    0.402231     0.361712     0.496796 
    0.401375     0.514758     0.575555 
    0.508107     0.556490     0.599648 
    0.513082     0.424793     0.571072 
    0.437026     0.647261     0.519722 
    0.553194     0.651420     0.506307 
    0.606574     0.518943     0.540287 
    0.640567     0.602433     0.438163 
EA24684 14.067 13.256 11.634 90.00 90.00 90.00 Sym.group:    0
1.0
   14.066783     0.000000     0.000000
    0.000000    13.255722     0.000000
    0.000000     0.000000    11.633750
   W   B
   2  13
Direct
    0.493145     0.501283     0.431326 
    0.399441     0.497507     0.596051 
    0.594729     0.626386     0.491137 
    0.658829     0.560223     0.407878 
    0.484677     0.650945     0.545420 
    0.383485     0.645059     0.486798 
    0.320686     0.560183     0.435612 
    0.320812     0.442669     0.432840 
    0.546598     0.435456     0.609568 
    0.658626     0.441036     0.406462 
    0.594026     0.373495     0.487671 
    0.546819     0.561948     0.611253 
    0.630939     0.499523     0.535620 
    0.383291     0.356285     0.481284 
    0.483897     0.348001     0.541081 
EA25025 13.952 13.256 11.629 90.00 90.00 90.00 Sym.group:    0
1.0
   13.952497     0.000000     0.000000
    0.000000    13.255633     0.000000
    0.000000     0.000000    11.629422
   W   B
   2  13
Direct
    0.506503     0.500377     0.430647 
    0.601881     0.500833     0.595151 
    0.404336     0.626140     0.490500 
    0.339821     0.559176     0.408120 
    0.515446     0.651342     0.543713 
    0.616825     0.644880     0.483730 
    0.679799     0.559400     0.433057 
    0.680509     0.441837     0.432994 
    0.453595     0.436341     0.610562 
    0.340174     0.439897     0.407717 
    0.405371     0.373070     0.489886 
    0.453158     0.562856     0.610816 
    0.368238     0.499362     0.536326 
    0.617800     0.356115     0.483325 
    0.516546     0.348377     0.543455 
EA25282 14.015 13.746 12.055 90.00 90.00 90.00 Sym.group:    0
1.0
   14.015466     0.000000     0.000000
    0.000000    13.746237     0.000000
    0.000000     0.000000    12.055410
   W   B
   2  14
Direct
    0.509196     0.440651     0.623116 
    0.498384     0.492079     0.443176 
    0.639967     0.397098     0.515654 
    0.551036     0.320413     0.514948 
    0.631302     0.519022     0.559769 
    0.540023     0.600323     0.580756 
    0.426008     0.578749     0.592727 
    0.564753     0.657064     0.442627 
    0.684112     0.478300     0.437572 
    0.458926     0.656637     0.484258 
    0.650524     0.586092     0.424589 
    0.444416     0.320852     0.481683 
    0.355297     0.387472     0.454421 
    0.322135     0.492061     0.418847 
    0.362929     0.483025     0.555153 
    0.360993     0.590163     0.470707 
EA25638 14.015 13.746 12.055 90.00 90.00 90.00 Sym.group:    0
1.0
   14.015466     0.000000     0.000000
    0.000000    13.746237     0.000000
    0.000000     0.000000    12.055410
   W   B
   2  14
Direct
    0.509196     0.440651     0.623116 
    0.498384     0.492079     0.443176 
    0.639967     0.397098     0.515654 
    0.551036     0.320413     0.514948 
    0.631302     0.519022     0.559769 
    0.540023     0.600323     0.580756 
    0.426008     0.578749     0.592727 
    0.564753     0.657064     0.442627 
    0.684112     0.478300     0.437572 
    0.458926     0.656637     0.484258 
    0.650524     0.586092     0.424589 
    0.444416     0.320852     0.481683 
    0.355297     0.387472     0.454421 
    0.322135     0.492061     0.418847 
    0.362929     0.483025     0.555153 
    0.360993     0.590163     0.470707 
EA25946 13.962 12.129 13.696 90.00 90.00 90.00 Sym.group:    0
1.0
   13.962382     0.000000     0.000000
    0.000000    12.129277     0.000000
    0.000000     0.000000    13.695813
   W   B
   2  14
Direct
    0.494460     0.494955     0.450164 
    0.483630     0.425390     0.603735 
    0.372341     0.346046     0.474750 
    0.318898     0.460752     0.462035 
    0.331040     0.586736     0.440207 
    0.673331     0.520624     0.439359 
    0.661055     0.392014     0.438343 
    0.584068     0.323346     0.496901 
    0.470168     0.291602     0.495696 
    0.627122     0.446326     0.549865 
    0.581583     0.575548     0.570930 
    0.469539     0.610167     0.588448 
    0.623621     0.635351     0.453159 
    0.527968     0.682147     0.493734 
    0.370034     0.546710     0.555028 
    0.411142     0.662284     0.487644 
EA26303 13.865 13.454 12.975 90.00 90.00 90.00 Sym.group:    0
1.0
   13.864566     0.000000     0.000000
    0.000000    13.454413     0.000000
    0.000000     0.000000    12.974579
   W   B
   3  13
Direct
    0.460577     0.457642     0.398882 
    0.470505     0.438823     0.603873 
    0.629008     0.578624     0.494638 
    0.399668     0.600819     0.449559 
    0.345782     0.386877     0.501079 
    0.345293     0.506706     0.512408 
    0.408999     0.589387     0.580966 
    0.435786     0.317739     0.487973 
    0.506827     0.616978     0.386099 
    0.587986     0.535676     0.343571 
    0.616382     0.437124     0.418549 
    0.623433     0.426991     0.552362 
    0.549514     0.349305     0.484493 
    0.521904     0.596621     0.628787 
    0.605137     0.510890     0.644068 
    0.493197     0.649797     0.512692 
EA26695 13.332 13.075 13.262 90.00 90.00 90.00 Sym.group:    0
1.0
   13.331885     0.000000     0.000000
    0.000000    13.075026     0.000000
    0.000000     0.000000    13.261797
   W   B
   2  13
Direct
    0.395109     0.501274     0.584372 
    0.493717     0.499607     0.439052 
    0.483295     0.653119     0.535255 
    0.375674     0.645642     0.485960 
    0.308069     0.558428     0.445258 
    0.308363     0.439329     0.446255 
    0.550255     0.436679     0.596737 
    0.549895     0.565041     0.595527 
    0.376277     0.353337     0.488811 
    0.483860     0.347392     0.538106 
    0.600284     0.371949     0.490802 
    0.668426     0.439117     0.417903 
    0.668356     0.560193     0.417202 
    0.600232     0.628470     0.489163 
    0.638187     0.500425     0.529600 
EA27219 13.453 11.210 13.281 90.00 90.00 90.00 Sym.group:    0
1.0
   13.452774     0.000000     0.000000
    0.000000    11.209919     0.000000
    0.000000     0.000000    13.280861
   W   B
   1  11
Direct
    0.497650     0.495680     0.588187 
    0.534814     0.426857     0.436228 
    0.513252     0.308542     0.511797 
    0.617582     0.368899     0.523182 
    0.643403     0.509221     0.508977 
    0.551560     0.573508     0.433403 
    0.601401     0.641307     0.534210 
    0.484391     0.670391     0.509141 
    0.373518     0.618900     0.521957 
    0.408628     0.372972     0.486763 
    0.339179     0.485284     0.510477 
    0.434622     0.528441     0.435676 
EA27551 12.771 13.526 12.124 90.00 90.00 90.00 Sym.group:    0
1.0
   12.770600     0.000000     0.000000
    0.000000    13.525709     0.000000
    0.000000     0.000000    12.124147
   W   B
   1  11
Direct
    0.505273     0.498965     0.596925 
    0.565246     0.532631     0.426744 
    0.503049     0.639409     0.488938 
    0.622958     0.605937     0.520039 
    0.431335     0.525107     0.436223 
    0.503033     0.422386     0.425164 
    0.665481     0.497565     0.514185 
    0.606765     0.390302     0.510939 
    0.493798     0.342371     0.530000 
    0.330933     0.513679     0.531319 
    0.388311     0.412091     0.503954 
    0.383819     0.619556     0.515568 
EA27844 12.438 13.357 12.775 90.00 90.00 90.00 Sym.group:    0
1.0
   12.438121     0.000000     0.000000
    0.000000    13.356510     0.000000
    0.000000     0.000000    12.775208
   W   B
   1  12
Direct
    0.487585     0.504103     0.590071 
    0.437419     0.531619     0.427632 
    0.574797     0.539035     0.442934 
    0.511501     0.422225     0.441687 
    0.567062     0.340580     0.533387 
    0.679304     0.542602     0.535209 
    0.645071     0.431280     0.516743 
    0.612669     0.639059     0.524896 
    0.444861     0.333226     0.519577 
    0.314652     0.523235     0.493849 
    0.370254     0.626085     0.496602 
    0.361974     0.415297     0.487133 
    0.492851     0.651654     0.490280 
EA27947 14.467 13.691 11.851 90.00 90.00 90.00 Sym.group:    0
1.0
   14.467233     0.000000     0.000000
    0.000000    13.690678     0.000000
    0.000000     0.000000    11.851259
   W   B
   3  14
Direct
    0.503281     0.503908     0.557049 
    0.414055     0.397967     0.409121 
    0.420783     0.595351     0.391658 
    0.625798     0.393677     0.562041 
    0.631927     0.490938     0.451703 
    0.565171     0.388169     0.430550 
    0.573584     0.595323     0.411130 
    0.535854     0.489242     0.362263 
    0.633867     0.601525     0.543327 
    0.665816     0.498694     0.593132 
    0.537517     0.666909     0.517261 
    0.524085     0.334710     0.547681 
    0.419179     0.356572     0.587282 
    0.349662     0.446299     0.569189 
    0.354797     0.575803     0.557008 
    0.431410     0.660388     0.559370 
    0.313213     0.504526     0.450237 
EA28578 12.669 12.996 12.129 90.00 90.00 90.00 Sym.group:    0
1.0
   12.668986     0.000000     0.000000
    0.000000    12.995578     0.000000
    0.000000     0.000000    12.129371
   W   B
   1  11
Direct
    0.501619     0.499025     0.403483 
    0.644695     0.419944     0.482616 
    0.425993     0.375297     0.507106 
    0.548977     0.343999     0.475253 
    0.654932     0.544168     0.487769 
    0.543903     0.565392     0.573613 
    0.537160     0.434546     0.573165 
    0.426548     0.506263     0.568836 
    0.581352     0.640531     0.467914 
    0.347675     0.576398     0.480052 
    0.453585     0.639837     0.497996 
    0.333561     0.454599     0.482198 
EA28898 13.541 14.255 11.310 90.00 90.00 90.00 Sym.group:    0
1.0
   13.541398     0.000000     0.000000
    0.000000    14.254637     0.000000
    0.000000     0.000000    11.309894
   W   B
   1  12
Direct
    0.493936     0.501578     0.602555 
    0.562652     0.650477     0.525551 
    0.506976     0.570629     0.429412 
    0.371626     0.577885     0.490049 
    0.382310     0.381587     0.513264 
    0.437636     0.467609     0.424861 
    0.494073     0.356840     0.498190 
    0.667467     0.461935     0.526993 
    0.606149     0.371019     0.523283 
    0.564600     0.462728     0.433883 
    0.633532     0.565270     0.506269 
    0.449460     0.655533     0.516902 
    0.329580     0.476907     0.508788 
EA28983 14.023 13.793 12.081 90.00 90.00 90.00 Sym.group:    0
1.0
   14.023378     0.000000     0.000000
    0.000000    13.793198     0.000000
    0.000000     0.000000    12.080899
   W   B
   2  15
Direct
    0.497537     0.458306     0.356540 
    0.501254     0.494889     0.555661 
    0.330582     0.482504     0.583867 
    0.388451     0.558108     0.435332 
    0.565932     0.347578     0.472493 
    0.645897     0.381770     0.559450 
    0.370869     0.376080     0.573139 
    0.369576     0.434473     0.450861 
    0.447862     0.342292     0.481583 
    0.597103     0.569034     0.420085 
    0.554556     0.656752     0.515763 
    0.437133     0.654223     0.525395 
    0.352837     0.594154     0.576101 
    0.642253     0.596173     0.560229 
    0.489846     0.611076     0.402574 
    0.633262     0.453867     0.446314 
    0.675050     0.488720     0.584612 
EA29385 14.006 13.494 13.490 90.00 90.00 90.00 Sym.group:    0
1.0
   14.005547     0.000000     0.000000
    0.000000    13.493781     0.000000
    0.000000     0.000000    13.490188
   W   B
   4  12
Direct
    0.504305     0.439817     0.403570 
    0.507338     0.434784     0.590446 
    0.553803     0.612238     0.503108 
    0.671026     0.437529     0.494850 
    0.362898     0.510625     0.440614 
    0.456212     0.310845     0.494693 
    0.364485     0.506831     0.564409 
    0.570558     0.314408     0.492997 
    0.436050     0.597331     0.388381 
    0.542584     0.590855     0.342527 
    0.636058     0.534129     0.379343 
    0.639470     0.526639     0.618531 
    0.439273     0.590132     0.619984 
    0.547121     0.581015     0.662206 
    0.394497     0.612696     0.505467 
    0.374321     0.400125     0.498875 
EA29624 13.918 13.975 12.150 90.00 90.00 90.00 Sym.group:    0
1.0
   13.917601     0.000000     0.000000
    0.000000    13.974536     0.000000
    0.000000     0.000000    12.150232
   W   B
   4  14
Direct
    0.488952     0.497828     0.652850 
    0.466839     0.667820     0.588072 
    0.505638     0.499986     0.457886 
    0.662547     0.452813     0.600354 
    0.353047     0.449314     0.550478 
    0.381336     0.614159     0.424072 
    0.607155     0.598419     0.588790 
    0.482780     0.665637     0.408187 
    0.586054     0.652956     0.463157 
    0.358195     0.564575     0.551795 
    0.486394     0.336458     0.430825 
    0.382235     0.393239     0.418065 
    0.665039     0.455932     0.419911 
    0.600777     0.363192     0.438522 
    0.427963     0.363577     0.555132 
    0.543418     0.358549     0.566061 
    0.663016     0.562407     0.464921 
    0.338613     0.503140     0.420920 
EA30209 13.880 13.643 11.259 90.00 90.00 90.00 Sym.group:    0
1.0
   13.879752     0.000000     0.000000
    0.000000    13.642608     0.000000
    0.000000     0.000000    11.259457
   W   B
   1  13
Direct
    0.501525     0.505135     0.408838 
    0.395328     0.499917     0.559824 
    0.504898     0.434321     0.582728 
    0.522183     0.336235     0.489589 
    0.618959     0.396855     0.481736 
    0.333522     0.447723     0.446196 
    0.338315     0.561639     0.447849 
    0.414159     0.369670     0.483999 
    0.492148     0.555412     0.605938 
    0.423839     0.626820     0.505925 
    0.539203     0.646890     0.508017 
    0.599542     0.519333     0.565853 
    0.676426     0.495910     0.452652 
    0.639952     0.604140     0.460859 
EA30624 13.537 12.932 11.626 90.00 90.00 90.00 Sym.group:    0
1.0
   13.536555     0.000000     0.000000
    0.000000    12.931538     0.000000
    0.000000     0.000000    11.626219
   W   B
   1  11
Direct
    0.505012     0.489240     0.596739 
    0.457306     0.360997     0.483875 
    0.603193     0.523287     0.426526 
    0.574120     0.381098     0.476726 
    0.645218     0.575575     0.549960 
    0.659121     0.453701     0.529220 
    0.491040     0.546241     0.391075 
    0.424056     0.610162     0.507601 
    0.360632     0.409372     0.540806 
    0.343756     0.530608     0.560181 
    0.391698     0.490786     0.433752 
    0.544848     0.628932     0.503539 
EA30773 13.775 12.091 13.893 90.00 90.00 90.00 Sym.group:    0
1.0
   13.774599     0.000000     0.000000
    0.000000    12.091036     0.000000
    0.000000     0.000000    13.892978
   W   B
   1  14
Direct
    0.494074     0.502342     0.564743 
    0.463868     0.326141     0.505361 
    0.477282     0.467148     0.410755 
    0.372229     0.408843     0.491447 
    0.379687     0.541028     0.441075 
    0.326520     0.520015     0.547797 
    0.379149     0.638582     0.541527 
    0.656210     0.391024     0.561543 
    0.589528     0.637743     0.508979 
    0.570026     0.309105     0.552222 
    0.578616     0.406929     0.462282 
    0.654797     0.514926     0.518040 
    0.487413     0.690292     0.541331 
    0.485663     0.610335     0.434007 
    0.584936     0.535547     0.418891 
EA31279 13.590 13.473 11.387 90.00 90.00 90.00 Sym.group:    0
1.0
   13.589863     0.000000     0.000000
    0.000000    13.473324     0.000000
    0.000000     0.000000    11.386545
   W   B
   1  12
Direct
    0.496107     0.498660     0.595312 
    0.495509     0.659059     0.519602 
    0.336213     0.495999     0.548052 
    0.389148     0.604539     0.518181 
    0.396211     0.391982     0.508769 
    0.396221     0.501250     0.423129 
    0.503329     0.563198     0.415045 
    0.603110     0.607707     0.520683 
    0.660434     0.503316     0.562477 
    0.609417     0.395703     0.524913 
    0.608529     0.500280     0.432532 
    0.503660     0.340622     0.516886 
    0.502111     0.437685     0.414418 
EA31586 13.087 12.299 13.353 90.00 90.00 90.00 Sym.group:    0
1.0
   13.086963     0.000000     0.000000
    0.000000    12.299346     0.000000
    0.000000     0.000000    13.352984
   W   B
   1  12
Direct
    0.505997     0.490531     0.585749 
    0.389723     0.353570     0.509287 
    0.343185     0.472315     0.506307 
    0.347244     0.595010     0.528636 
    0.478515     0.424235     0.435466 
    0.443989     0.560722     0.445180 
    0.437576     0.676313     0.526242 
    0.498743     0.308249     0.508071 
    0.601824     0.369164     0.488755 
    0.554567     0.660116     0.508196 
    0.656007     0.592400     0.515885 
    0.673009     0.469354     0.504882 
    0.569620     0.528021     0.437343 
EA31650 13.886 13.956 12.924 90.00 90.00 90.00 Sym.group:    0
1.0
   13.885539     0.000000     0.000000
    0.000000    13.955699     0.000000
    0.000000     0.000000    12.923599
   W   B
   5  14
Direct
    0.598355     0.621867     0.576395 
    0.483759     0.509649     0.454988 
    0.483260     0.461049     0.650326 
    0.674948     0.600020     0.395363 
    0.312102     0.495826     0.576296 
    0.636263     0.456776     0.390870 
    0.608256     0.402776     0.562312 
    0.550739     0.668606     0.418437 
    0.462159     0.673979     0.498957 
    0.639799     0.488670     0.641115 
    0.677120     0.502749     0.518103 
    0.348407     0.419324     0.421806 
    0.324190     0.532396     0.416493 
    0.445073     0.349119     0.416032 
    0.509014     0.350539     0.529522 
    0.394567     0.375766     0.538697 
    0.357252     0.621702     0.490082 
    0.432125     0.602121     0.597898 
    0.562611     0.367070     0.406307 
EA32112 12.560 13.280 13.729 90.00 90.00 90.00 Sym.group:    0
1.0
   12.560280     0.000000     0.000000
    0.000000    13.279949     0.000000
    0.000000     0.000000    13.729161
   W   B
   1  14
Direct
    0.495896     0.476502     0.529620 
    0.373488     0.372768     0.477668 
    0.328518     0.440065     0.573739 
    0.484491     0.317624     0.457794 
    0.331825     0.496525     0.461683 
    0.350873     0.558951     0.579942 
    0.380879     0.607508     0.457563 
    0.454173     0.635973     0.561686 
    0.502163     0.647530     0.445034 
    0.687798     0.412902     0.540101 
    0.606591     0.341530     0.481916 
    0.605989     0.575833     0.426861 
    0.635279     0.458132     0.433202 
    0.584739     0.623828     0.541473 
    0.677299     0.534329     0.531720 
EA32644 13.554 11.577 12.965 90.00 90.00 90.00 Sym.group:    0
1.0
   13.553873     0.000000     0.000000
    0.000000    11.577393     0.000000
    0.000000     0.000000    12.964937
   W   B
   1  11
Direct
    0.494566     0.494118     0.589980 
    0.477892     0.588238     0.432707 
    0.369388     0.583131     0.508368 
    0.349670     0.444332     0.513761 
    0.421645     0.338719     0.511034 
    0.455401     0.672212     0.535572 
    0.450634     0.446158     0.428593 
    0.540519     0.346038     0.487904 
    0.641126     0.408997     0.515999 
    0.655617     0.543821     0.527976 
    0.572809     0.639362     0.509632 
    0.570735     0.494873     0.438471 
EA32991 13.158 13.288 11.925 90.00 90.00 90.00 Sym.group:    0
1.0
   13.158060     0.000000     0.000000
    0.000000    13.287514     0.000000
    0.000000     0.000000    11.925162
   W   B
   1  11
Direct
    0.506563     0.502658     0.402408 
    0.525917     0.343471     0.468073 
    0.597772     0.627269     0.479815 
    0.656114     0.524123     0.491766 
    0.626616     0.405620     0.485372 
    0.550931     0.551321     0.579376 
    0.520465     0.426931     0.573387 
    0.474379     0.638918     0.507410 
    0.411666     0.389277     0.496587 
    0.335770     0.479980     0.472403 
    0.364875     0.595336     0.477111 
    0.428934     0.515095     0.566292 
EA33024 13.821 13.941 12.407 90.00 90.00 90.00 Sym.group:    0
1.0
   13.820504     0.000000     0.000000
    0.000000    13.940786     0.000000
    0.000000     0.000000    12.407406
   W   B
   5  13
Direct
    0.677987     0.596862     0.568807 
    0.491704     0.506849     0.562324 
    0.574271     0.415650     0.382000 
    0.549963     0.599808     0.399213 
    0.299952     0.472800     0.445081 
    0.596685     0.376427     0.556264 
    0.682478     0.448856     0.507801 
    0.637396     0.468456     0.633101 
    0.490583     0.339171     0.518796 
    0.548949     0.668808     0.565021 
    0.438178     0.662449     0.521553 
    0.382156     0.380544     0.557848 
    0.338735     0.479085     0.609343 
    0.347938     0.587061     0.556224 
    0.419217     0.381529     0.420008 
    0.391748     0.593631     0.420096 
    0.691395     0.528748     0.412560 
    0.440666     0.493267     0.363959 
EA33670 13.268 13.463 11.128 90.00 90.00 90.00 Sym.group:    0
1.0
   13.267754     0.000000     0.000000
    0.000000    13.462717     0.000000
    0.000000     0.000000    11.127602
   W   B
   1  11
Direct
    0.495701     0.502183     0.395515 
    0.600819     0.377307     0.457217 
    0.489014     0.344055     0.481415 
    0.384968     0.404303     0.500888 
    0.336600     0.511173     0.487527 
    0.436606     0.514483     0.580563 
    0.557418     0.553012     0.581030 
    0.539503     0.433095     0.573027 
    0.643540     0.489433     0.489747 
    0.391300     0.615862     0.493801 
    0.506648     0.648935     0.495012 
    0.617882     0.606158     0.464259 
EA33719 14.009 13.775 12.456 90.00 90.00 90.00 Sym.group:    0
1.0
   14.008756     0.000000     0.000000
    0.000000    13.775144     0.000000
    0.000000     0.000000    12.456212
   W   B
   4  14
Direct
    0.675008     0.596566     0.565020 
    0.491351     0.505053     0.558628 
    0.573353     0.421186     0.377959 
    0.554204     0.598472     0.395509 
    0.588771     0.373717     0.555059 
    0.676147     0.446017     0.507952 
    0.632286     0.466518     0.631687 
    0.482157     0.334260     0.520131 
    0.545627     0.668106     0.560979 
    0.434960     0.662755     0.523946 
    0.377691     0.378511     0.559327 
    0.327358     0.475682     0.601244 
    0.346106     0.582757     0.557198 
    0.424511     0.391705     0.423286 
    0.349813     0.482498     0.465665 
    0.396055     0.593858     0.425122 
    0.690364     0.525709     0.410437 
    0.434238     0.496633     0.360851 
EA34097 12.339 13.787 13.985 90.00 90.00 90.00 Sym.group:    0
1.0
   12.338835     0.000000     0.000000
    0.000000    13.787296     0.000000
    0.000000     0.000000    13.985489
   W   B
   2  14
Direct
    0.491382     0.566132     0.599612 
    0.501454     0.504784     0.449412 
    0.564220     0.680531     0.476601 
    0.442399     0.679925     0.498195 
    0.349408     0.488714     0.554700 
    0.329395     0.409369     0.448220 
    0.289277     0.517803     0.446687 
    0.341473     0.604794     0.505490 
    0.702387     0.505458     0.431267 
    0.664392     0.609959     0.461751 
    0.657267     0.514767     0.548178 
    0.581956     0.423512     0.582810 
    0.547460     0.342890     0.490477 
    0.658172     0.408710     0.478586 
    0.427330     0.337176     0.456881 
    0.452027     0.405478     0.571132 
EA34519 12.314 12.663 11.914 90.00 90.00 90.00 Sym.group:    0
1.0
   12.313683     0.000000     0.000000
    0.000000    12.663331     0.000000
    0.000000     0.000000    11.914215
   W   B
   3  12
Direct
    0.611562     0.436357     0.500000 
    0.501736     0.626302     0.500000 
    0.386214     0.437513     0.500000 
    0.430700     0.539568     0.353228 
    0.499419     0.422055     0.353392 
    0.569778     0.538673     0.353219 
    0.430700     0.539568     0.646772 
    0.499419     0.422055     0.646608 
    0.569778     0.538673     0.646781 
    0.498497     0.316144     0.432944 
    0.664577     0.590404     0.432950 
    0.337274     0.593070     0.432997 
    0.498497     0.316144     0.567056 
    0.664577     0.590404     0.567051 
    0.337274     0.593070     0.567003 
EA34788 14.227 13.403 12.332 90.00 90.00 90.00 Sym.group:    0
1.0
   14.226604     0.000000     0.000000
    0.000000    13.402800     0.000000
    0.000000     0.000000    12.332441
   W   B
   5  11
Direct
    0.361941     0.439893     0.590130 
    0.311903     0.544617     0.435406 
    0.494097     0.493325     0.448501 
    0.509490     0.526405     0.663364 
    0.648540     0.442392     0.577975 
    0.363118     0.401686     0.414621 
    0.443257     0.335373     0.481978 
    0.633737     0.424931     0.406185 
    0.565529     0.344126     0.466775 
    0.510440     0.371432     0.589354 
    0.611741     0.594413     0.546063 
    0.506682     0.648878     0.546018 
    0.435086     0.645628     0.428219 
    0.561231     0.640119     0.421936 
    0.400072     0.600559     0.560319 
    0.643138     0.546222     0.423155 
EA35369 12.833 12.979 13.247 90.00 90.00 90.00 Sym.group:    0
1.0
   12.832589     0.000000     0.000000
    0.000000    12.978754     0.000000
    0.000000     0.000000    13.246650
   W   B
   1  11
Direct
    0.491286     0.512193     0.583904 
    0.499026     0.364813     0.503807 
    0.380512     0.379155     0.543447 
    0.324389     0.486922     0.522828 
    0.379360     0.585738     0.478761 
    0.409247     0.444943     0.435605 
    0.487607     0.646744     0.485380 
    0.530081     0.458127     0.406571 
    0.613981     0.422715     0.512770 
    0.661499     0.528862     0.560941 
    0.603394     0.633553     0.524642 
    0.619617     0.536235     0.441344 
EA35709 13.364 11.697 13.452 90.00 90.00 90.00 Sym.group:    0
1.0
   13.363609     0.000000     0.000000
    0.000000    11.697323     0.000000
    0.000000     0.000000    13.452088
   W   B
   1  11
Direct
    0.497770     0.498089     0.586946 
    0.425226     0.497132     0.430623 
    0.513745     0.318108     0.520166 
    0.641067     0.511816     0.497801 
    0.618496     0.377011     0.521581 
    0.536187     0.427714     0.437130 
    0.529692     0.573341     0.437276 
    0.606527     0.639089     0.520440 
    0.392306     0.613769     0.503880 
    0.493730     0.682916     0.518102 
    0.341778     0.487921     0.523674 
    0.403472     0.373094     0.502380 
EA35986 13.793 13.371 11.469 90.00 90.00 90.00 Sym.group:    0
1.0
   13.792828     0.000000     0.000000
    0.000000    13.371325     0.000000
    0.000000     0.000000    11.469008
   W   B
   1  12
Direct
    0.501254     0.497151     0.600975 
    0.428349     0.512410     0.431639 
    0.419966     0.365400     0.496439 
    0.624377     0.382349     0.505063 
    0.340833     0.447077     0.514192 
    0.526039     0.326019     0.508767 
    0.342167     0.561878     0.524193 
    0.526329     0.433825     0.425523 
    0.650580     0.496054     0.498209 
    0.544356     0.562383     0.432427 
    0.632879     0.609342     0.525740 
    0.426718     0.638363     0.511362 
    0.536153     0.667748     0.525473 
EA36337 13.496 13.394 11.559 90.00 90.00 90.00 Sym.group:    0
1.0
   13.495951     0.000000     0.000000
    0.000000    13.394270     0.000000
    0.000000     0.000000    11.559242
   W   B
   1  12
Direct
    0.488282     0.501280     0.400451 
    0.583854     0.344383     0.486290 
    0.471394     0.349692     0.519516 
    0.364977     0.394147     0.506352 
    0.327928     0.502930     0.496908 
    0.381635     0.605355     0.502663 
    0.434045     0.486646     0.579163 
    0.584763     0.643987     0.453835 
    0.644512     0.546568     0.478058 
    0.659652     0.429974     0.476038 
    0.527679     0.575629     0.562443 
    0.556394     0.450738     0.563975 
    0.474885     0.668670     0.474310 
EA36644 13.945 13.604 11.399 90.00 90.00 90.00 Sym.group:    0
1.0
   13.945223     0.000000     0.000000
    0.000000    13.604062     0.000000
    0.000000     0.000000    11.398649
   W   B
   1  13
Direct
    0.496796     0.502972     0.589182 
    0.324947     0.485848     0.545455 
    0.504399     0.436378     0.412442 
    0.398972     0.500060     0.430815 
    0.359582     0.594322     0.531158 
    0.455827     0.651815     0.499525 
    0.568773     0.635660     0.500345 
    0.501466     0.558628     0.402716 
    0.591285     0.376436     0.510809 
    0.604936     0.505503     0.439477 
    0.485152     0.337336     0.509330 
    0.657093     0.571082     0.550854 
    0.667700     0.457138     0.553984 
    0.383072     0.386822     0.523909 
EA36817 12.704 14.036 13.272 90.00 90.00 90.00 Sym.group:    0
1.0
   12.704098     0.000000     0.000000
    0.000000    14.036161     0.000000
    0.000000     0.000000    13.271878
   W   B
   4  12
Direct
    0.447254     0.425425     0.604079 
    0.385354     0.602864     0.565128 
    0.516937     0.493417     0.427876 
    0.640781     0.477501     0.587668 
    0.499299     0.646105     0.452636 
    0.393073     0.611011     0.398847 
    0.328923     0.519273     0.429763 
    0.298889     0.476397     0.545210 
    0.358443     0.404395     0.460359 
    0.457723     0.336523     0.468782 
    0.562424     0.614180     0.556317 
    0.657534     0.591634     0.474302 
    0.666710     0.396506     0.443905 
    0.575608     0.347099     0.509486 
    0.695998     0.500756     0.415990 
    0.515051     0.556912     0.659652 
EA37254 13.745 12.846 13.357 90.00 90.00 90.00 Sym.group:    0
1.0
   13.745140     0.000000     0.000000
    0.000000    12.845585     0.000000
    0.000000     0.000000    13.356628
   W   B
   4  11
Direct
    0.386122     0.496217     0.498639 
    0.548361     0.504138     0.397737 
    0.566314     0.481481     0.606461 
    0.433582     0.358069     0.385547 
    0.571494     0.354891     0.492452 
    0.470097     0.351529     0.558469 
    0.582078     0.627621     0.521074 
    0.477100     0.625192     0.589129 
    0.472338     0.647991     0.463566 
    0.419426     0.421594     0.646527 
    0.391948     0.496323     0.321065 
    0.667987     0.429680     0.488118 
    0.423224     0.543739     0.661826 
    0.415380     0.609722     0.367148 
    0.674549     0.551813     0.502243 
EA37650 11.551 14.110 12.767 90.00 90.00 90.00 Sym.group:    0
1.0
   11.550509     0.000000     0.000000
    0.000000    14.110336     0.000000
    0.000000     0.000000    12.767018
   W   B
   1  13
Direct
    0.488219     0.509050     0.421970 
    0.288227     0.475600     0.480204 
    0.334324     0.576943     0.515114 
    0.438286     0.649238     0.530173 
    0.571860     0.641950     0.501678 
    0.677272     0.588957     0.445187 
    0.488838     0.548411     0.586255 
    0.632808     0.514121     0.540438 
    0.537592     0.437432     0.581516 
    0.352453     0.379941     0.457887 
    0.616580     0.394709     0.469578 
    0.484095     0.355900     0.485906 
    0.398486     0.446971     0.562155 
    0.690957     0.480776     0.421937 
EA38008 13.669 11.775 13.591 90.00 90.00 90.00 Sym.group:    0
1.0
   13.669117     0.000000     0.000000
    0.000000    11.775235     0.000000
    0.000000     0.000000    13.591499
   W   B
   1  13
Direct
    0.498054     0.500485     0.424936 
    0.410707     0.649117     0.498566 
    0.327835     0.559007     0.468921 
    0.541103     0.331910     0.492250 
    0.396459     0.495041     0.556388 
    0.333307     0.427476     0.463523 
    0.424423     0.351481     0.500835 
    0.618090     0.621949     0.488536 
    0.677850     0.512172     0.452873 
    0.640575     0.387066     0.450969 
    0.605425     0.471536     0.547879 
    0.497454     0.429772     0.584144 
    0.519804     0.691101     0.498768 
    0.508913     0.571884     0.571410 
EA38348 13.078 13.322 12.228 90.00 90.00 90.00 Sym.group:    0
1.0
   13.077755     0.000000     0.000000
    0.000000    13.322043     0.000000
    0.000000     0.000000    12.228334
   W   B
   1  13
Direct
    0.498726     0.500418     0.582722 
    0.313919     0.476981     0.537453 
    0.341044     0.590657     0.537277 
    0.443739     0.645365     0.496691 
    0.383060     0.381278     0.507945 
    0.394806     0.514942     0.437929 
    0.491373     0.331056     0.501148 
    0.603310     0.374494     0.512695 
    0.613281     0.511565     0.446945 
    0.679564     0.460942     0.552013 
    0.502245     0.435380     0.419085 
    0.661820     0.576941     0.558235 
    0.567339     0.639417     0.504326 
    0.505776     0.560561     0.405538 
EA38693 13.654 13.156 13.919 90.00 90.00 90.00 Sym.group:    0
1.0
   13.653960     0.000000     0.000000
    0.000000    13.156337     0.000000
    0.000000     0.000000    13.918788
   W   B
   3  11
Direct
    0.555249     0.384045     0.416225 
    0.455413     0.574803     0.419417 
    0.499369     0.508466     0.575596 
    0.528628     0.331055     0.565745 
    0.425686     0.362252     0.519103 
    0.350612     0.468079     0.504854 
    0.342551     0.578759     0.544887 
    0.609123     0.532944     0.393780 
    0.407437     0.416407     0.412383 
    0.415939     0.667591     0.561300 
    0.605412     0.611815     0.488122 
    0.525101     0.681409     0.537897 
    0.626913     0.390953     0.559364 
    0.652567     0.491420     0.501325 
