EA20771 12.313 11.360 10.953 90.00 90.00 90.00 Sym.group:    0
1.0
   12.313114     0.000000     0.000000
    0.000000    11.359541     0.000000
    0.000000     0.000000    10.952978
   B
  21
Direct
    0.437037     0.616824     0.392218 
    0.316358     0.555620     0.386259 
    0.411018     0.464783     0.341473 
    0.600810     0.422113     0.623274 
    0.546549     0.568458     0.659408 
    0.675492     0.541505     0.634083 
    0.449498     0.359547     0.457738 
    0.597798     0.555191     0.378208 
    0.355301     0.589504     0.528009 
    0.619885     0.622299     0.526726 
    0.589256     0.357571     0.473179 
    0.367336     0.474580     0.631055 
    0.552170     0.686249     0.416859 
    0.330641     0.437218     0.478142 
    0.531737     0.415529     0.332462 
    0.507945     0.326529     0.592162 
    0.416192     0.603606     0.663350 
    0.681685     0.477823     0.499080 
    0.370887     0.341292     0.580699 
    0.661093     0.428070     0.362400 
    0.481312     0.655689     0.543215 
EA20715 12.522 12.076 12.077 90.00 90.00 90.00 Sym.group:    0
1.0
   12.521517     0.000000     0.000000
    0.000000    12.076499     0.000000
    0.000000     0.000000    12.076524
   B
  22
Direct
    0.504597     0.525847     0.314631 
    0.356687     0.435516     0.579629 
    0.426419     0.491985     0.678675 
    0.438405     0.603211     0.400962 
    0.314617     0.400104     0.444612 
    0.453920     0.685924     0.529160 
    0.376847     0.580591     0.590798 
    0.308155     0.529054     0.470489 
    0.341125     0.655830     0.477253 
    0.429827     0.437055     0.382969 
    0.416505     0.331179     0.483331 
    0.664139     0.360035     0.450076 
    0.687553     0.619887     0.485045 
    0.585195     0.586227     0.403882 
    0.578497     0.434633     0.377340 
    0.487129     0.398066     0.599664 
    0.621602     0.407572     0.579167 
    0.632328     0.552380     0.593721 
    0.690792     0.487990     0.474572 
    0.542308     0.326525     0.475551 
    0.579827     0.673236     0.529129 
    0.563528     0.477154     0.679346 
EA4655 11.860 11.932 13.075 90.00 90.00 90.00 Sym.group:    0
1.0
   11.860015     0.000000     0.000000
    0.000000    11.931701     0.000000
    0.000000     0.000000    13.075309
   B
  23
Direct
    0.508304     0.350112     0.560266 
    0.443328     0.421850     0.651477 
    0.366634     0.525451     0.609967 
    0.435112     0.651889     0.571213 
    0.382323     0.481568     0.382610 
    0.288534     0.510664     0.485152 
    0.370199     0.395153     0.547907 
    0.422973     0.337814     0.429260 
    0.298167     0.385700     0.437075 
    0.300696     0.628938     0.549394 
    0.475301     0.574191     0.347666 
    0.382318     0.618001     0.441456 
    0.518689     0.534825     0.624885 
    0.519202     0.648170     0.452919 
    0.726484     0.433804     0.540703 
    0.718947     0.529099     0.449023 
    0.642186     0.326025     0.534312 
    0.554799     0.310711     0.437368 
    0.609445     0.572332     0.375845 
    0.654727     0.409120     0.429885 
    0.570217     0.659396     0.583673 
    0.655817     0.547690     0.579089 
    0.655599     0.647494     0.478854 
EA20630 13.399 13.813  8.836 90.00 90.00 90.00 Sym.group:    0
1.0
   13.399059     0.000000     0.000000
    0.000000    13.813183     0.000000
    0.000000     0.000000     8.836235
   B
  24
Direct
    0.305909     0.375793     0.582609 
    0.513971     0.275152     0.582824 
    0.707892     0.399256     0.582839 
    0.694106     0.624177     0.582610 
    0.486000     0.724846     0.582830 
    0.292124     0.600770     0.582831 
    0.725603     0.572733     0.417434 
    0.548015     0.725778     0.417488 
    0.322204     0.653155     0.417592 
    0.274380     0.427292     0.417421 
    0.452017     0.274226     0.417497 
    0.677782     0.346820     0.417580 
    0.725387     0.455699     0.416885 
    0.652288     0.667350     0.416861 
    0.426929     0.711486     0.416964 
    0.274598     0.544275     0.416888 
    0.347698     0.332677     0.416856 
    0.573105     0.288514     0.416969 
    0.605010     0.701913     0.582737 
    0.372264     0.689195     0.582941 
    0.267121     0.487351     0.582827 
    0.395010     0.298080     0.582742 
    0.627715     0.310794     0.582939 
    0.732874     0.512669     0.582836 
EA20585 12.223 11.646 12.971 90.00 90.00 90.00 Sym.group:    0
1.0
   12.223420     0.000000     0.000000
    0.000000    11.645702     0.000000
    0.000000     0.000000    12.971131
   B
  25
Direct
    0.344557     0.565318     0.569709 
    0.589154     0.289305     0.523786 
    0.388839     0.430460     0.613104 
    0.458420     0.299082     0.542760 
    0.329583     0.319841     0.550884 
    0.445550     0.547178     0.654912 
    0.452245     0.652221     0.566455 
    0.690443     0.377440     0.548439 
    0.689754     0.587527     0.472551 
    0.738499     0.452835     0.447504 
    0.658319     0.344032     0.426717 
    0.680427     0.615104     0.604151 
    0.748626     0.504237     0.562849 
    0.557932     0.626062     0.645155 
    0.586528     0.677275     0.526978 
    0.388254     0.367468     0.440794 
    0.525223     0.341729     0.416415 
    0.277544     0.443567     0.519103 
    0.589934     0.637701     0.398194 
    0.472267     0.571296     0.373597 
    0.479663     0.701451     0.436226 
    0.347159     0.501413     0.394167 
    0.358727     0.646200     0.451672 
    0.250341     0.567007     0.466783 
    0.452009     0.434249     0.347096 
