EA11   11.508 11.554 11.450 90.00 90.00 90.00 Sym.group:    0
1.0
   11.508230     0.000000     0.000000
    0.000000    11.553924     0.000000
    0.000000     0.000000    11.449702
   B
  25
Direct
    0.421047     0.471969     0.666643 
    0.421064     0.341741     0.555232 
    0.420002     0.371108     0.389702 
    0.421047     0.528034     0.333358 
    0.421061     0.658259     0.444767 
    0.420006     0.628893     0.610301 
    0.687398     0.409963     0.608306 
    0.690149     0.354690     0.474634 
    0.690140     0.450136     0.360961 
    0.687397     0.590036     0.391692 
    0.690149     0.645309     0.525363 
    0.690142     0.549863     0.639036 
    0.624068     0.500000     0.499999 
    0.565947     0.343416     0.552548 
    0.565744     0.373614     0.393371 
    0.565384     0.524199     0.336305 
    0.565946     0.656583     0.447451 
    0.565745     0.626385     0.606627 
    0.565388     0.475801     0.663695 
    0.302977     0.451263     0.363770 
    0.304925     0.591422     0.391436 
    0.303183     0.640832     0.526176 
    0.302979     0.548736     0.636234 
    0.304928     0.408581     0.608567 
    0.303182     0.359168     0.473825 
EA356  12.751 12.919 11.505 90.00 90.00 90.00 Sym.group:    0
1.0
   12.750656     0.000000     0.000000
    0.000000    12.918528     0.000000
    0.000000     0.000000    11.505117
   B
  22
Direct
    0.591170     0.581187     0.392067 
    0.610146     0.448837     0.394339 
    0.478410     0.388725     0.402552 
    0.378627     0.481102     0.390054 
    0.448781     0.598380     0.404059 
    0.377254     0.481740     0.609151 
    0.447687     0.599139     0.595105 
    0.590018     0.581597     0.607637 
    0.609010     0.449572     0.606404 
    0.477306     0.389204     0.598420 
    0.341451     0.580061     0.498623 
    0.529987     0.677169     0.499680 
    0.668971     0.525214     0.500495 
    0.581085     0.338485     0.501826 
    0.372976     0.379625     0.499634 
    0.284412     0.468834     0.499207 
    0.405302     0.688176     0.499054 
    0.652670     0.650177     0.500035 
    0.689371     0.400750     0.501096 
    0.464895     0.292558     0.500717 
    0.499327     0.500298     0.669557 
    0.501144     0.499171     0.330289 
EA444  12.883 13.109 11.770 90.00 90.00 90.00 Sym.group:    0
1.0
   12.882694     0.000000     0.000000
    0.000000    13.109226     0.000000
    0.000000     0.000000    11.769888
   B
  25
Direct
    0.358248     0.633063     0.423517 
    0.453763     0.312538     0.424470 
    0.688446     0.554154     0.424643 
    0.649373     0.605233     0.553631 
    0.332450     0.574779     0.552740 
    0.517830     0.320242     0.553648 
    0.509475     0.428254     0.367039 
    0.558727     0.543306     0.367214 
    0.432732     0.527697     0.366902 
    0.375887     0.411943     0.410192 
    0.639869     0.438046     0.410726 
    0.484847     0.649586     0.409981 
    0.307067     0.517596     0.419419 
    0.581220     0.326576     0.420566 
    0.612311     0.655482     0.419963 
    0.633391     0.371115     0.546327 
    0.546800     0.678087     0.545653 
    0.319498     0.450955     0.545506 
    0.495357     0.415424     0.646187 
    0.576366     0.538823     0.646114 
    0.427351     0.546273     0.645622 
    0.424231     0.658116     0.552106 
    0.398476     0.356945     0.552569 
    0.676864     0.485474     0.553118 
    0.499422     0.500294     0.742149 
EA893  12.007 11.648 11.502 90.00 90.00 90.00 Sym.group:    0
1.0
   12.007451     0.000000     0.000000
    0.000000    11.647824     0.000000
    0.000000     0.000000    11.501820
   B
  21
Direct
    0.452222     0.534282     0.657407 
    0.321260     0.498092     0.637766 
    0.407761     0.393171     0.610136 
    0.587780     0.497206     0.348760 
    0.548823     0.637795     0.413532 
    0.676821     0.591052     0.399652 
    0.432718     0.374009     0.458051 
    0.622670     0.466317     0.614006 
    0.362513     0.601037     0.548193 
    0.634753     0.597623     0.535912 
    0.573491     0.363275     0.428259 
    0.362475     0.567985     0.399909 
    0.578956     0.589254     0.666297 
    0.318130     0.454745     0.498026 
    0.526353     0.341789     0.576554 
    0.483427     0.412109     0.327390 
    0.422718     0.682812     0.447921 
    0.680758     0.465090     0.465888 
    0.347329     0.436443     0.360553 
    0.659202     0.350394     0.544226 
    0.499840     0.645520     0.561563 
EA1074 13.482 11.531 11.532 90.00 90.00 90.00 Sym.group:    0
1.0
   13.481912     0.000000     0.000000
    0.000000    11.531137     0.000000
    0.000000     0.000000    11.531571
   B
  22
Direct
    0.441510     0.392990     0.353580 
    0.442628     0.604803     0.648587 
    0.552214     0.669384     0.377703 
    0.556912     0.332203     0.620715 
    0.641253     0.567467     0.589082 
    0.640423     0.436248     0.406786 
    0.340307     0.408267     0.566238 
    0.338763     0.587997     0.437890 
    0.640505     0.592834     0.432270 
    0.642951     0.410213     0.564073 
    0.338309     0.433329     0.412126 
    0.339002     0.562334     0.592688 
    0.444928     0.352761     0.606163 
    0.440818     0.646815     0.394705 
    0.554328     0.622226     0.667886 
    0.552995     0.379001     0.330733 
    0.525951     0.620358     0.519056 
    0.528477     0.481059     0.619488 
    0.528002     0.380128     0.480032 
    0.525368     0.519801     0.379996 
    0.266910     0.497955     0.502771 
    0.717444     0.501826     0.497437 
EA1212 14.219 12.747 11.020 90.00 90.00 90.00 Sym.group:    0
1.0
   14.218607     0.000000     0.000000
    0.000000    12.746906     0.000000
    0.000000     0.000000    11.019636
   B
  25
Direct
    0.565896     0.693239     0.456296 
    0.460666     0.642137     0.411571 
    0.456416     0.542267     0.324157 
    0.407278     0.433483     0.366843 
    0.645362     0.374416     0.565992 
    0.734941     0.419117     0.497898 
    0.469132     0.339672     0.432158 
    0.664496     0.517050     0.566207 
    0.526728     0.438918     0.358976 
    0.661179     0.622831     0.449840 
    0.737237     0.532306     0.440613 
    0.632412     0.454860     0.419678 
    0.573369     0.603050     0.570366 
    0.368151     0.505749     0.601370 
    0.469600     0.556572     0.634405 
    0.480380     0.698296     0.552886 
    0.292311     0.454908     0.485442 
    0.364976     0.561387     0.413855 
    0.377817     0.640707     0.555156 
    0.281618     0.572907     0.527956 
    0.352093     0.347576     0.459899 
    0.454108     0.428135     0.646350 
    0.561935     0.475351     0.616311 
    0.425755     0.312756     0.570206 
    0.536147     0.332311     0.575570 
EA1526 12.304 11.652 11.619 90.00 90.00 90.00 Sym.group:    0
1.0
   12.304196     0.000000     0.000000
    0.000000    11.651719     0.000000
    0.000000     0.000000    11.618712
   B
  22
Direct
    0.595738     0.687261     0.460509 
    0.713251     0.444430     0.528150 
    0.444402     0.513310     0.350847 
    0.528518     0.366381     0.395768 
    0.647939     0.446995     0.403233 
    0.580764     0.579969     0.369618 
    0.534942     0.635620     0.580923 
    0.619599     0.470744     0.618842 
    0.652281     0.569071     0.510086 
    0.469530     0.648459     0.440030 
    0.613607     0.352357     0.517310 
    0.560453     0.462890     0.297713 
    0.511363     0.503649     0.686835 
    0.446502     0.625554     0.689112 
    0.375091     0.500213     0.664806 
    0.329500     0.479719     0.532320 
    0.394748     0.365474     0.452955 
    0.389522     0.617054     0.563594 
    0.427844     0.388350     0.600467 
    0.320054     0.457560     0.386983 
    0.349547     0.588838     0.432009 
    0.494806     0.296105     0.517894 
EA1652 12.992 12.645 11.806 90.00 90.00 90.00 Sym.group:    0
1.0
   12.992025     0.000000     0.000000
    0.000000    12.645478     0.000000
    0.000000     0.000000    11.805825
   B
  25
Direct
    0.394913     0.432814     0.354566 
    0.590396     0.344894     0.420110 
    0.342518     0.553816     0.366255 
    0.311727     0.417541     0.580604 
    0.524825     0.399913     0.652187 
    0.291801     0.501977     0.475871 
    0.532503     0.308265     0.539307 
    0.459827     0.343904     0.427070 
    0.359503     0.619823     0.496693 
    0.330613     0.544713     0.609303 
    0.417631     0.348820     0.572995 
    0.454748     0.540873     0.305784 
    0.524298     0.441686     0.350126 
    0.411383     0.458198     0.660196 
    0.559335     0.652633     0.613235 
    0.701973     0.498047     0.540070 
    0.469987     0.684510     0.508873 
    0.672365     0.618649     0.573451 
    0.627322     0.399627     0.558891 
    0.647544     0.460043     0.405756 
    0.681154     0.584661     0.429486 
    0.587430     0.665316     0.464364 
    0.583605     0.517975     0.622418 
    0.451323     0.591841     0.612194 
    0.571276     0.569463     0.360198 
EA2047 12.285 12.081 11.483 90.00 90.00 90.00 Sym.group:    0
1.0
   12.285342     0.000000     0.000000
    0.000000    12.081439     0.000000
    0.000000     0.000000    11.482782
   B
  22
Direct
    0.429158     0.639786     0.457722 
    0.365082     0.561470     0.574265 
    0.373203     0.383600     0.455766 
    0.480215     0.337780     0.557428 
    0.467263     0.459049     0.350904 
    0.378406     0.411279     0.608031 
    0.546436     0.617635     0.370680 
    0.350126     0.526997     0.419008 
    0.283237     0.464970     0.521197 
    0.427845     0.587896     0.321238 
    0.482109     0.328066     0.400140 
    0.661198     0.641830     0.440258 
    0.615147     0.393708     0.585353 
    0.597886     0.397542     0.386319 
    0.536944     0.592998     0.650887 
    0.591215     0.298723     0.489492 
    0.554260     0.671253     0.518849 
    0.620555     0.494712     0.681552 
    0.655169     0.514798     0.405404 
    0.497393     0.447769     0.654508 
    0.646340     0.554522     0.554071 
    0.440814     0.673616     0.596926 
EA2250 12.126 11.789 12.615 90.00 90.00 90.00 Sym.group:    0
1.0
   12.126182     0.000000     0.000000
    0.000000    11.789059     0.000000
    0.000000     0.000000    12.614875
   B
  22
Direct
    0.504822     0.463517     0.324215 
    0.363691     0.596315     0.569259 
    0.422635     0.532911     0.667696 
    0.420228     0.404666     0.406821 
    0.329393     0.634108     0.438673 
    0.418452     0.322321     0.534137 
    0.360530     0.446783     0.585070 
    0.301787     0.505509     0.465780 
    0.310895     0.371664     0.479354 
    0.441452     0.569555     0.385137 
    0.445428     0.687004     0.470330 
    0.693061     0.606566     0.450509 
    0.668534     0.342713     0.498545 
    0.571642     0.391521     0.416687 
    0.598366     0.541763     0.379523 
    0.504144     0.609280     0.588234 
    0.638934     0.575191     0.575396 
    0.623803     0.427391     0.598081 
    0.696060     0.474367     0.482390 
    0.572819     0.662157     0.469402 
    0.548612     0.313597     0.541877 
    0.564714     0.521099     0.672884 
EA2384 14.301 12.854 10.986 90.00 90.00 90.00 Sym.group:    0
1.0
   14.300659     0.000000     0.000000
    0.000000    12.853729     0.000000
    0.000000     0.000000    10.986203
   B
  25
Direct
    0.434128     0.297999     0.487502 
    0.536474     0.353730     0.427316 
    0.539064     0.445733     0.330081 
    0.585671     0.556365     0.361737 
    0.353820     0.628734     0.552092 
    0.265107     0.575476     0.491677 
    0.524903     0.650685     0.420231 
    0.341940     0.488232     0.564991 
    0.469191     0.550583     0.350112 
    0.339592     0.368409     0.473671 
    0.265283     0.457730     0.450172 
    0.364319     0.539660     0.411782 
    0.436660     0.407587     0.575748 
    0.635676     0.499916     0.593658 
    0.535368     0.463651     0.641510 
    0.524718     0.298606     0.569971 
    0.714858     0.541567     0.483797 
    0.633104     0.433731     0.416018 
    0.624595     0.360800     0.558722 
    0.720644     0.425018     0.525575 
    0.640199     0.638091     0.471939 
    0.550938     0.590128     0.617592 
    0.440601     0.533654     0.617707 
    0.565272     0.710156     0.550056 
    0.457876     0.683761     0.556339 
EA2604 12.464 11.809 12.926 90.00 90.00 90.00 Sym.group:    0
1.0
   12.463643     0.000000     0.000000
    0.000000    11.809260     0.000000
    0.000000     0.000000    12.926193
   B
  25
Direct
    0.317492     0.450323     0.518028 
    0.372690     0.323965     0.527712 
    0.303397     0.589006     0.485175 
    0.422797     0.647758     0.520153 
    0.634854     0.588095     0.408139 
    0.497638     0.349279     0.374919 
    0.575163     0.465544     0.357730 
    0.697696     0.460342     0.401294 
    0.368703     0.368829     0.401870 
    0.401160     0.614700     0.393543 
    0.319098     0.500263     0.388099 
    0.441338     0.472778     0.346844 
    0.521918     0.661262     0.424168 
    0.348205     0.556521     0.607006 
    0.577593     0.579490     0.650324 
    0.541326     0.687497     0.562603 
    0.455147     0.627219     0.645872 
    0.542519     0.442070     0.638505 
    0.735098     0.546681     0.489974 
    0.665306     0.628917     0.557655 
    0.664689     0.486100     0.596498 
    0.384623     0.419285     0.621644 
    0.617343     0.348414     0.426101 
    0.611208     0.357022     0.560132 
    0.483001     0.328639     0.596012 
EA3002 12.522 12.076 12.077 90.00 90.00 90.00 Sym.group:    0
1.0
   12.521517     0.000000     0.000000
    0.000000    12.076499     0.000000
    0.000000     0.000000    12.076524
   B
  22
Direct
    0.504597     0.525847     0.314631 
    0.356687     0.435516     0.579629 
    0.426419     0.491985     0.678675 
    0.438405     0.603211     0.400962 
    0.314617     0.400104     0.444612 
    0.453920     0.685924     0.529160 
    0.376847     0.580591     0.590798 
    0.308155     0.529054     0.470489 
    0.341125     0.655830     0.477253 
    0.429827     0.437055     0.382969 
    0.416505     0.331179     0.483331 
    0.664139     0.360035     0.450076 
    0.687553     0.619887     0.485045 
    0.585195     0.586227     0.403882 
    0.578497     0.434633     0.377340 
    0.487129     0.398066     0.599664 
    0.621602     0.407572     0.579167 
    0.632328     0.552380     0.593721 
    0.690792     0.487990     0.474572 
    0.542308     0.326525     0.475551 
    0.579827     0.673236     0.529129 
    0.563528     0.477154     0.679346 
EA3181 12.220 12.217 10.684 90.00 90.00 90.00 Sym.group:    0
1.0
   12.220294     0.000000     0.000000
    0.000000    12.216685     0.000000
    0.000000     0.000000    10.683591
   B
  24
Direct
    0.547861     0.320716     0.500052 
    0.320741     0.452433     0.500045 
    0.452133     0.679292     0.499957 
    0.679251     0.547567     0.499971 
    0.410295     0.338840     0.500051 
    0.661669     0.409961     0.499921 
    0.589710     0.661158     0.499925 
    0.338326     0.590033     0.500068 
    0.673364     0.478061     0.636869 
    0.478323     0.327226     0.636966 
    0.326446     0.522113     0.637035 
    0.521686     0.673309     0.636940 
    0.326767     0.521901     0.363095 
    0.478351     0.326840     0.363018 
    0.673401     0.477945     0.362929 
    0.521646     0.672634     0.363001 
    0.368158     0.397210     0.358771 
    0.396285     0.632803     0.359045 
    0.631986     0.602759     0.358762 
    0.603088     0.367947     0.358512 
    0.603609     0.367369     0.640991 
    0.631653     0.602655     0.641263 
    0.397043     0.631855     0.641531 
    0.368208     0.397376     0.641281 
EA3392 12.220 12.217 10.684 90.00 90.00 90.00 Sym.group:    0
1.0
   12.220294     0.000000     0.000000
    0.000000    12.216685     0.000000
    0.000000     0.000000    10.683591
   B
  24
Direct
    0.547861     0.320716     0.500052 
    0.320741     0.452433     0.500045 
    0.452133     0.679292     0.499957 
    0.679251     0.547567     0.499971 
    0.410295     0.338840     0.500051 
    0.661669     0.409961     0.499921 
    0.589710     0.661158     0.499925 
    0.338326     0.590033     0.500068 
    0.673364     0.478061     0.636869 
    0.478323     0.327226     0.636966 
    0.326446     0.522113     0.637035 
    0.521686     0.673309     0.636940 
    0.326767     0.521901     0.363095 
    0.478351     0.326840     0.363018 
    0.673401     0.477945     0.362929 
    0.521646     0.672634     0.363001 
    0.368158     0.397210     0.358771 
    0.396285     0.632803     0.359045 
    0.631986     0.602759     0.358762 
    0.603088     0.367947     0.358512 
    0.603609     0.367369     0.640991 
    0.631653     0.602655     0.641263 
    0.397043     0.631855     0.641531 
    0.368208     0.397376     0.641281 
EA3561 12.821 12.076 11.360 90.00 90.00 90.00 Sym.group:    0
1.0
   12.821201     0.000000     0.000000
    0.000000    12.076319     0.000000
    0.000000     0.000000    11.359896
   B
  25
Direct
    0.395861     0.557706     0.333337 
    0.363204     0.606793     0.578550 
    0.309999     0.595904     0.431706 
    0.434202     0.637594     0.447345 
    0.468141     0.683420     0.581274 
    0.557228     0.688995     0.464084 
    0.582653     0.639508     0.608521 
    0.521562     0.564040     0.350059 
    0.636865     0.638117     0.362296 
    0.642349     0.501135     0.374065 
    0.663298     0.599470     0.498512 
    0.669301     0.543695     0.630690 
    0.336306     0.474855     0.652556 
    0.271843     0.508314     0.534008 
    0.410846     0.365217     0.397483 
    0.318152     0.459582     0.398897 
    0.684751     0.456475     0.523166 
    0.608290     0.428906     0.648863 
    0.539623     0.316732     0.647671 
    0.541400     0.396105     0.391002 
    0.672977     0.371922     0.406376 
    0.471494     0.335185     0.522276 
    0.355021     0.397706     0.526397 
    0.437784     0.397017     0.665638 
    0.606850     0.335609     0.525230 
EA3808 12.223 11.646 12.971 90.00 90.00 90.00 Sym.group:    0
1.0
   12.223420     0.000000     0.000000
    0.000000    11.645702     0.000000
    0.000000     0.000000    12.971131
   B
  25
Direct
    0.344557     0.565318     0.569709 
    0.589154     0.289305     0.523786 
    0.388839     0.430460     0.613104 
    0.458420     0.299082     0.542760 
    0.329583     0.319841     0.550884 
    0.445550     0.547178     0.654912 
    0.452245     0.652221     0.566455 
    0.690443     0.377440     0.548439 
    0.689754     0.587527     0.472551 
    0.738499     0.452835     0.447504 
    0.658319     0.344032     0.426717 
    0.680427     0.615104     0.604151 
    0.748626     0.504237     0.562849 
    0.557932     0.626062     0.645155 
    0.586528     0.677275     0.526978 
    0.388254     0.367468     0.440794 
    0.525223     0.341729     0.416415 
    0.277544     0.443567     0.519103 
    0.589934     0.637701     0.398194 
    0.472267     0.571296     0.373597 
    0.479663     0.701451     0.436226 
    0.347159     0.501413     0.394167 
    0.358727     0.646200     0.451672 
    0.250341     0.567007     0.466783 
    0.452009     0.434249     0.347096 
EA4050 12.223 11.646 12.971 90.00 90.00 90.00 Sym.group:    0
1.0
   12.223420     0.000000     0.000000
    0.000000    11.645702     0.000000
    0.000000     0.000000    12.971131
   B
  25
Direct
    0.344557     0.565318     0.569709 
    0.589154     0.289305     0.523786 
    0.388839     0.430460     0.613104 
    0.458420     0.299082     0.542760 
    0.329583     0.319841     0.550884 
    0.445550     0.547178     0.654912 
    0.452245     0.652221     0.566455 
    0.690443     0.377440     0.548439 
    0.689754     0.587527     0.472551 
    0.738499     0.452835     0.447504 
    0.658319     0.344032     0.426717 
    0.680427     0.615104     0.604151 
    0.748626     0.504237     0.562849 
    0.557932     0.626062     0.645155 
    0.586528     0.677275     0.526978 
    0.388254     0.367468     0.440794 
    0.525223     0.341729     0.416415 
    0.277544     0.443567     0.519103 
    0.589934     0.637701     0.398194 
    0.472267     0.571296     0.373597 
    0.479663     0.701451     0.436226 
    0.347159     0.501413     0.394167 
    0.358727     0.646200     0.451672 
    0.250341     0.567007     0.466783 
    0.452009     0.434249     0.347096 
EA4476 12.422 12.143 12.156 90.00 90.00 90.00 Sym.group:    0
1.0
   12.421762     0.000000     0.000000
    0.000000    12.143431     0.000000
    0.000000     0.000000    12.156375
   B
  22
Direct
    0.502663     0.495693     0.315128 
    0.370212     0.576706     0.580634 
    0.428260     0.506585     0.677088 
    0.406964     0.433680     0.381276 
    0.324863     0.632261     0.459253 
    0.441956     0.332996     0.493808 
    0.365008     0.430802     0.585902 
    0.305682     0.502770     0.470442 
    0.322813     0.373003     0.463900 
    0.434447     0.583735     0.392907 
    0.433640     0.682622     0.505691 
    0.674551     0.635751     0.464763 
    0.682191     0.375928     0.474662 
    0.578523     0.420572     0.396012 
    0.579157     0.575767     0.390084 
    0.499025     0.409593     0.609959 
    0.624968     0.579406     0.582096 
    0.637180     0.433968     0.596143 
    0.693473     0.506097     0.474273 
    0.561020     0.681222     0.503464 
    0.567241     0.323871     0.503344 
    0.566165     0.506973     0.679177 
EA4698 13.269 11.553 11.396 90.00 90.00 90.00 Sym.group:    0
1.0
   13.268779     0.000000     0.000000
    0.000000    11.552793     0.000000
    0.000000     0.000000    11.395669
   B
  22
Direct
    0.615914     0.372619     0.535421 
    0.642980     0.359108     0.396068 
    0.526096     0.331042     0.408895 
    0.675413     0.487051     0.439702 
    0.361824     0.381036     0.588068 
    0.415803     0.328305     0.465478 
    0.592052     0.407999     0.669044 
    0.480621     0.384097     0.613835 
    0.650330     0.512275     0.601957 
    0.690431     0.610933     0.509015 
    0.524621     0.527363     0.646774 
    0.381320     0.606997     0.377361 
    0.285649     0.550812     0.437596 
    0.581036     0.645156     0.569791 
    0.495630     0.593995     0.331902 
    0.560065     0.470033     0.363191 
    0.480475     0.639920     0.469708 
    0.360857     0.622382     0.535821 
    0.463775     0.649587     0.614401 
    0.599459     0.607842     0.406234 
    0.295028     0.497405     0.567137 
    0.320620     0.414043     0.452599 
EA4773 12.621 12.769 12.219 90.00 90.00 90.00 Sym.group:    0
1.0
   12.620606     0.000000     0.000000
    0.000000    12.768949     0.000000
    0.000000     0.000000    12.219314
   B
  25
Direct
    0.426905     0.629608     0.611954 
    0.363309     0.684536     0.508285 
    0.434286     0.395919     0.377985 
    0.489932     0.309597     0.585415 
    0.378881     0.346000     0.633160 
    0.381584     0.356045     0.494379 
    0.477607     0.435484     0.636479 
    0.315686     0.443392     0.577133 
    0.344782     0.472240     0.439771 
    0.501048     0.554764     0.689004 
    0.316818     0.566975     0.538160 
    0.354620     0.602174     0.407741 
    0.649267     0.461790     0.315493 
    0.645290     0.569264     0.383980 
    0.612492     0.663283     0.468166 
    0.669943     0.560910     0.526544 
    0.680410     0.442612     0.446983 
    0.594731     0.371373     0.541823 
    0.609665     0.502869     0.643234 
    0.705655     0.443820     0.578817 
    0.563569     0.617739     0.584854 
    0.568381     0.391793     0.394956 
    0.521526     0.471188     0.295654 
    0.403565     0.514641     0.322909 
    0.490047     0.691980     0.497119 
EA5145 11.130 12.205 12.954 90.00 90.00 90.00 Sym.group:    0
1.0
   11.130039     0.000000     0.000000
    0.000000    12.205097     0.000000
    0.000000     0.000000    12.953987
   B
  22
Direct
    0.480389     0.524252     0.656848 
    0.491078     0.303902     0.537611 
    0.680385     0.453179     0.518349 
    0.561899     0.428449     0.601264 
    0.348408     0.305216     0.517673 
    0.734752     0.591505     0.547959 
    0.616473     0.561808     0.615966 
    0.633094     0.327775     0.535511 
    0.277831     0.420878     0.516972 
    0.486795     0.625956     0.568897 
    0.357422     0.542764     0.595166 
    0.398544     0.365003     0.413904 
    0.249222     0.548832     0.505954 
    0.359608     0.637283     0.488940 
    0.359041     0.503478     0.428731 
    0.561342     0.390027     0.439964 
    0.614771     0.511206     0.383217 
    0.737864     0.558516     0.432828 
    0.477080     0.460754     0.355168 
    0.606433     0.639242     0.473362 
    0.485661     0.590199     0.401128 
    0.481906     0.709776     0.464590 
EA5312 13.363 11.954 11.609 90.00 90.00 90.00 Sym.group:    0
1.0
   13.362886     0.000000     0.000000
    0.000000    11.954493     0.000000
    0.000000     0.000000    11.608647
   B
  24
Direct
    0.576779     0.528848     0.668120 
    0.356564     0.628726     0.561654 
    0.476022     0.672354     0.552931 
    0.665233     0.522229     0.572492 
    0.593569     0.647767     0.585664 
    0.371300     0.388082     0.597778 
    0.474184     0.455249     0.662422 
    0.319314     0.488758     0.518395 
    0.475894     0.322745     0.556284 
    0.587940     0.296206     0.512326 
    0.365342     0.517193     0.651126 
    0.584117     0.408213     0.602734 
    0.660785     0.393734     0.469343 
    0.624185     0.546200     0.368887 
    0.670705     0.630549     0.474499 
    0.722090     0.506763     0.446967 
    0.544804     0.638915     0.434056 
    0.423129     0.629649     0.425809 
    0.361200     0.505871     0.365220 
    0.505601     0.518254     0.352519 
    0.434070     0.405929     0.320015 
    0.514503     0.362379     0.412952 
    0.299290     0.600746     0.434728 
    0.393377     0.384641     0.453083 
EA5686 12.731 12.749 10.742 90.00 90.00 90.00 Sym.group:    0
1.0
   12.731341     0.000000     0.000000
    0.000000    12.748669     0.000000
    0.000000     0.000000    10.742297
   B
  21
Direct
    0.364850     0.359769     0.529939 
    0.323652     0.573531     0.492830 
    0.475787     0.299586     0.496238 
    0.288614     0.452173     0.491538 
    0.382095     0.686368     0.493673 
    0.513167     0.506707     0.342219 
    0.381253     0.479269     0.609037 
    0.443362     0.598900     0.403267 
    0.510901     0.379250     0.375201 
    0.401708     0.463791     0.408313 
    0.587769     0.344136     0.541495 
    0.480676     0.391462     0.619505 
    0.561664     0.591542     0.622192 
    0.628430     0.651869     0.498262 
    0.590033     0.459268     0.630279 
    0.653709     0.549661     0.405266 
    0.674034     0.548113     0.570844 
    0.675130     0.433372     0.501105 
    0.626093     0.437366     0.349463 
    0.506194     0.690049     0.509246 
    0.430878     0.603820     0.610092 
EA5732 12.805 11.814 11.587 90.00 90.00 90.00 Sym.group:    0
1.0
   12.805369     0.000000     0.000000
    0.000000    11.814459     0.000000
    0.000000     0.000000    11.586526
   B
  25
Direct
    0.517513     0.663228     0.500524 
    0.562923     0.544516     0.310803 
    0.460118     0.463097     0.286281 
    0.483319     0.643543     0.357746 
    0.295621     0.537216     0.453980 
    0.341348     0.404876     0.482436 
    0.388235     0.666646     0.454247 
    0.344874     0.459643     0.349367 
    0.445489     0.390545     0.408562 
    0.307065     0.626120     0.561706 
    0.421958     0.679234     0.594938 
    0.314046     0.489374     0.593310 
    0.631695     0.589473     0.538566 
    0.611316     0.637914     0.404799 
    0.526130     0.607212     0.638105 
    0.649107     0.497335     0.418060 
    0.630547     0.530403     0.669283 
    0.509986     0.460613     0.661366 
    0.401139     0.385148     0.616386 
    0.624583     0.392037     0.679435 
    0.566713     0.401419     0.340753 
    0.672730     0.443379     0.552016 
    0.513346     0.319308     0.634856 
    0.658012     0.357855     0.433040 
    0.622188     0.309863     0.559437 
EA6009 11.903 12.513 10.759 90.00 90.00 90.00 Sym.group:    0
1.0
   11.902794     0.000000     0.000000
    0.000000    12.513119     0.000000
    0.000000     0.000000    10.758888
   B
  24
Direct
    0.363076     0.475541     0.705479 
    0.408908     0.600938     0.705611 
    0.546364     0.625150     0.705526 
    0.636919     0.524469     0.705468 
    0.591091     0.399070     0.705626 
    0.453642     0.374863     0.705529 
    0.650402     0.447955     0.578180 
    0.527560     0.350309     0.579130 
    0.377491     0.402256     0.578984 
    0.349602     0.552041     0.578188 
    0.472422     0.649699     0.579117 
    0.622518     0.597747     0.578983 
    0.363319     0.476263     0.294380 
    0.409699     0.600734     0.294195 
    0.546595     0.624598     0.294211 
    0.636679     0.523743     0.294372 
    0.590289     0.399248     0.294206 
    0.453416     0.375381     0.294218 
    0.377456     0.398634     0.421394 
    0.346552     0.550157     0.421474 
    0.468802     0.651493     0.421431 
    0.622553     0.601367     0.421388 
    0.653450     0.449835     0.421480 
    0.531195     0.348509     0.421432 
EA6349 12.837 12.423 11.584 90.00 90.00 90.00 Sym.group:    0
1.0
   12.837227     0.000000     0.000000
    0.000000    12.423313     0.000000
    0.000000     0.000000    11.583529
   B
  22
Direct
    0.335521     0.552078     0.453591 
    0.441240     0.641721     0.411514 
    0.504984     0.531829     0.352404 
    0.602765     0.466040     0.391756 
    0.381101     0.556569     0.321204 
    0.558381     0.585024     0.477196 
    0.689908     0.593669     0.544517 
    0.619755     0.482158     0.584215 
    0.611511     0.691287     0.555708 
    0.528523     0.429696     0.677023 
    0.398087     0.631943     0.563007 
    0.492640     0.710483     0.524609 
    0.718033     0.486840     0.473209 
    0.379107     0.438413     0.373508 
    0.351224     0.425914     0.526437 
    0.536607     0.346150     0.446382 
    0.314311     0.539643     0.593767 
    0.406993     0.328811     0.444938 
    0.663616     0.370944     0.476669 
    0.418394     0.483550     0.645712 
    0.587711     0.346060     0.592122 
    0.459588     0.361175     0.570510 
EA6634 13.386 11.877 11.193 90.00 90.00 90.00 Sym.group:    0
1.0
   13.385656     0.000000     0.000000
    0.000000    11.876673     0.000000
    0.000000     0.000000    11.192743
   B
  21
Direct
    0.404809     0.364917     0.525659 
    0.514655     0.677091     0.552954 
    0.424417     0.487762     0.329100 
    0.344387     0.410475     0.388252 
    0.394517     0.656039     0.526251 
    0.371465     0.459079     0.634556 
    0.314938     0.568775     0.583122 
    0.295185     0.436227     0.517983 
    0.351992     0.551669     0.438997 
    0.520972     0.322939     0.526718 
    0.492688     0.434275     0.630383 
    0.632488     0.667480     0.563251 
    0.462328     0.609306     0.407328 
    0.684572     0.544760     0.534930 
    0.590619     0.604458     0.436977 
    0.565084     0.552421     0.610472 
    0.607255     0.419193     0.581363 
    0.636314     0.324377     0.473556 
    0.631527     0.467436     0.404701 
    0.717613     0.415111     0.502950 
    0.542176     0.526206     0.330494 
EA6906 12.694 12.368 10.797 90.00 90.00 90.00 Sym.group:    0
1.0
   12.694248     0.000000     0.000000
    0.000000    12.368243     0.000000
    0.000000     0.000000    10.797364
   B
  21
Direct
    0.548488     0.348878     0.415537 
    0.520475     0.492182     0.355974 
    0.548268     0.325772     0.581817 
    0.445691     0.301780     0.492770 
    0.637320     0.430599     0.366146 
    0.654559     0.387815     0.530647 
    0.566582     0.460101     0.635880 
    0.678175     0.512808     0.565195 
    0.634579     0.560244     0.370246 
    0.519631     0.622893     0.405260 
    0.638427     0.634170     0.500966 
    0.341773     0.381277     0.487178 
    0.405546     0.529640     0.411856 
    0.351258     0.507255     0.575029 
    0.274939     0.485657     0.442747 
    0.300151     0.606784     0.471879 
    0.411206     0.675053     0.477297 
    0.444818     0.413747     0.592309 
    0.591074     0.590556     0.640104 
    0.465037     0.551966     0.622881 
    0.522004     0.680824     0.558285 
EA7105 12.868 12.331 11.560 90.00 90.00 90.00 Sym.group:    0
1.0
   12.868236     0.000000     0.000000
    0.000000    12.331481     0.000000
    0.000000     0.000000    11.560408
   B
  22
Direct
    0.526870     0.369856     0.392462 
    0.496845     0.375319     0.652012 
    0.463514     0.338643     0.514486 
    0.377656     0.384493     0.612734 
    0.584585     0.473436     0.666666 
    0.603634     0.369082     0.576817 
    0.308206     0.496010     0.584174 
    0.366793     0.610680     0.595017 
    0.340395     0.546899     0.457604 
    0.334689     0.404352     0.482640 
    0.378006     0.448863     0.356374 
    0.445726     0.643847     0.468797 
    0.491577     0.473347     0.300196 
    0.462811     0.690159     0.606220 
    0.559772     0.707009     0.524152 
    0.419157     0.575435     0.350396 
    0.649012     0.626351     0.485305 
    0.611381     0.457511     0.335075 
    0.661409     0.497789     0.557462 
    0.694918     0.521346     0.422415 
    0.657634     0.395398     0.448599 
    0.565411     0.594174     0.610397 
EA7156 13.525 11.540 12.454 90.00 90.00 90.00 Sym.group:    0
1.0
   13.524623     0.000000     0.000000
    0.000000    11.540168     0.000000
    0.000000     0.000000    12.453847
   B
  25
Direct
    0.668173     0.545573     0.416541 
    0.685559     0.437884     0.628575 
    0.672752     0.566502     0.567788 
    0.636766     0.665900     0.474774 
    0.575762     0.497852     0.636917 
    0.479677     0.434605     0.484171 
    0.693682     0.423444     0.499325 
    0.585582     0.340772     0.437148 
    0.597731     0.349252     0.591766 
    0.670034     0.416347     0.372512 
    0.510086     0.285074     0.522714 
    0.555785     0.471952     0.366406 
    0.266118     0.513192     0.504867 
    0.339310     0.621927     0.539199 
    0.391041     0.320840     0.515389 
    0.356207     0.437184     0.422699 
    0.461201     0.532799     0.615093 
    0.280808     0.375468     0.520179 
    0.361595     0.462471     0.585798 
    0.422395     0.663172     0.424404 
    0.439615     0.691467     0.565255 
    0.330365     0.579945     0.401310 
    0.443782     0.518272     0.363860 
    0.524951     0.722115     0.472961 
    0.551025     0.625991     0.570349 
EA7614 13.097 12.831 11.217 90.00 90.00 90.00 Sym.group:    0
1.0
   13.097138     0.000000     0.000000
    0.000000    12.830968     0.000000
    0.000000     0.000000    11.217198
   B
  21
Direct
    0.358014     0.362761     0.559245 
    0.468632     0.308372     0.569255 
    0.307924     0.475091     0.584165 
    0.357201     0.447493     0.439633 
    0.350259     0.571968     0.481957 
    0.589699     0.338496     0.595679 
    0.427434     0.336378     0.428816 
    0.389174     0.673212     0.569450 
    0.310595     0.593258     0.623328 
    0.433964     0.422745     0.320859 
    0.413121     0.539599     0.351597 
    0.658976     0.365539     0.472036 
    0.550385     0.312208     0.456295 
    0.505765     0.704951     0.541457 
    0.445674     0.649123     0.422512 
    0.570988     0.665901     0.423380 
    0.672155     0.431716     0.601212 
    0.673627     0.599381     0.444188 
    0.621890     0.662560     0.561260 
    0.687063     0.558487     0.586532 
    0.707460     0.480762     0.467144 
EA7838 13.497 12.700 11.329 90.00 90.00 90.00 Sym.group:    0
1.0
   13.496776     0.000000     0.000000
    0.000000    12.699676     0.000000
    0.000000     0.000000    11.329079
   B
  21
Direct
    0.309748     0.355396     0.534481 
    0.599715     0.664514     0.480204 
    0.485818     0.602229     0.447512 
    0.361830     0.561227     0.432024 
    0.387399     0.659862     0.538663 
    0.502794     0.696228     0.549424 
    0.570187     0.602418     0.622818 
    0.285336     0.600739     0.537208 
    0.374662     0.420012     0.434732 
    0.281206     0.476434     0.527175 
    0.602754     0.502034     0.690584 
    0.656579     0.510465     0.560810 
    0.587421     0.401044     0.614991 
    0.541225     0.304821     0.527291 
    0.625146     0.373751     0.461503 
    0.696675     0.466627     0.419489 
    0.420735     0.317807     0.521638 
    0.455800     0.500519     0.359925 
    0.575874     0.503200     0.381172 
    0.678989     0.585089     0.427187 
    0.500106     0.395582     0.431168 
EA7981 12.495 12.588 10.872 90.00 90.00 90.00 Sym.group:    0
1.0
   12.494777     0.000000     0.000000
    0.000000    12.587710     0.000000
    0.000000     0.000000    10.872095
   B
  23
Direct
    0.441860     0.497249     0.643886 
    0.480921     0.696653     0.570307 
    0.538762     0.665658     0.428207 
    0.374818     0.622265     0.590776 
    0.318075     0.508306     0.592814 
    0.408143     0.671209     0.442998 
    0.357901     0.387440     0.583937 
    0.387965     0.343136     0.433579 
    0.311735     0.446443     0.442653 
    0.458647     0.569304     0.357210 
    0.445584     0.446250     0.355737 
    0.323372     0.573942     0.444078 
    0.681577     0.424478     0.575191 
    0.656260     0.609012     0.427689 
    0.698037     0.489820     0.419625 
    0.600887     0.647487     0.575792 
    0.555010     0.492630     0.447415 
    0.583007     0.341258     0.567061 
    0.519803     0.340315     0.418281 
    0.646441     0.374124     0.422600 
    0.458101     0.306453     0.560288 
    0.565295     0.493637     0.620279 
    0.687800     0.552930     0.579597 
EA8332 12.479 12.160 10.939 90.00 90.00 90.00 Sym.group:    0
1.0
   12.479084     0.000000     0.000000
    0.000000    12.159651     0.000000
    0.000000     0.000000    10.939343
   B
  21
Direct
    0.420726     0.467766     0.356728 
    0.527306     0.537264     0.334667 
    0.431912     0.606241     0.410459 
    0.330054     0.651871     0.503080 
    0.392124     0.562905     0.598166 
    0.441062     0.694449     0.553168 
    0.321407     0.393646     0.424925 
    0.427829     0.325471     0.442466 
    0.316342     0.525449     0.456718 
    0.568772     0.686653     0.574415 
    0.565840     0.633200     0.428929 
    0.649888     0.517760     0.407031 
    0.663396     0.600436     0.538254 
    0.665236     0.465588     0.554719 
    0.576472     0.559538     0.645878 
    0.634829     0.334142     0.566731 
    0.393518     0.426995     0.555257 
    0.473875     0.475629     0.667401 
    0.508185     0.356717     0.593269 
    0.551209     0.290896     0.462054 
    0.640018     0.387383     0.425683 
EA8429 12.065 12.184 12.655 90.00 90.00 90.00 Sym.group:    0
1.0
   12.065284     0.000000     0.000000
    0.000000    12.183765     0.000000
    0.000000     0.000000    12.655358
   B
  23
Direct
    0.632096     0.674977     0.440386 
    0.574107     0.554557     0.397319 
    0.677586     0.563240     0.493075 
    0.505181     0.697995     0.425990 
    0.710534     0.464645     0.576298 
    0.495250     0.597539     0.660837 
    0.554351     0.646535     0.551000 
    0.613035     0.541245     0.629284 
    0.376120     0.668510     0.436705 
    0.409493     0.645823     0.572642 
    0.480463     0.465115     0.643062 
    0.300672     0.594205     0.513714 
    0.486565     0.330996     0.618003 
    0.360202     0.394096     0.405155 
    0.589713     0.344910     0.377693 
    0.360742     0.533072     0.408827 
    0.463598     0.318899     0.362283 
    0.648129     0.430467     0.459212 
    0.378426     0.388423     0.574964 
    0.604888     0.388460     0.596948 
    0.292188     0.458715     0.503061 
    0.501104     0.338076     0.488727 
    0.485557     0.459496     0.364815 
EA8647 12.926 12.926 10.789 90.00 90.00 90.00 Sym.group:    0
1.0
   12.925992     0.000000     0.000000
    0.000000    12.925992     0.000000
    0.000000     0.000000    10.789262
   B
  24
Direct
    0.517674     0.354835     0.360206 
    0.354835     0.482323     0.360206 
    0.482322     0.645165     0.360206 
    0.645165     0.517676     0.360206 
    0.587485     0.617011     0.639830 
    0.382989     0.587484     0.639831 
    0.412517     0.382988     0.639830 
    0.617012     0.412518     0.639830 
    0.521788     0.328330     0.634607 
    0.328330     0.478210     0.634607 
    0.478209     0.671670     0.634607 
    0.671669     0.521790     0.634607 
    0.604000     0.638362     0.365333 
    0.361639     0.604000     0.365333 
    0.396002     0.361638     0.365333 
    0.638364     0.396002     0.365333 
    0.666086     0.455860     0.500002 
    0.455860     0.333913     0.500003 
    0.333913     0.544139     0.500003 
    0.544140     0.666087     0.500003 
    0.587711     0.348929     0.500020 
    0.348929     0.412289     0.500020 
    0.412289     0.651071     0.500020 
    0.651071     0.587711     0.500021 
EA8921 13.144 12.622 11.875 90.00 90.00 90.00 Sym.group:    0
1.0
   13.144451     0.000000     0.000000
    0.000000    12.622326     0.000000
    0.000000     0.000000    11.874671
   B
  24
Direct
    0.545750     0.682511     0.443319 
    0.440924     0.687511     0.509170 
    0.336000     0.649533     0.564403 
    0.331013     0.574514     0.450360 
    0.540549     0.607214     0.565360 
    0.525370     0.546680     0.691885 
    0.417882     0.596758     0.653851 
    0.322612     0.518212     0.579451 
    0.631098     0.521545     0.631852 
    0.629497     0.586491     0.442448 
    0.643502     0.399693     0.468884 
    0.381369     0.405611     0.602797 
    0.398191     0.512860     0.354929 
    0.540325     0.418497     0.632979 
    0.425392     0.328225     0.485311 
    0.418328     0.380202     0.360419 
    0.358892     0.439072     0.466086 
    0.562037     0.323165     0.531020 
    0.619590     0.475490     0.337968 
    0.504489     0.458212     0.298130 
    0.468668     0.314739     0.615297 
    0.518803     0.572611     0.366085 
    0.718386     0.508926     0.538465 
    0.721330     0.491726     0.409532 
EA9123 12.936 11.556 12.748 90.00 90.00 90.00 Sym.group:    0
1.0
   12.936113     0.000000     0.000000
    0.000000    11.555511     0.000000
    0.000000     0.000000    12.747792
   B
  24
Direct
    0.613334     0.319434     0.441739 
    0.475988     0.333233     0.569075 
    0.404478     0.229734     0.513062 
    0.509096     0.245515     0.460679 
    0.336927     0.339080     0.535563 
    0.539705     0.540597     0.348942 
    0.366836     0.679453     0.426897 
    0.300680     0.559046     0.407355 
    0.290012     0.463184     0.502603 
    0.495655     0.653789     0.422060 
    0.413246     0.565813     0.349796 
    0.384809     0.465483     0.594445 
    0.355694     0.587063     0.529921 
    0.601782     0.405436     0.561069 
    0.618823     0.608102     0.436405 
    0.560565     0.690695     0.550159 
    0.704473     0.520194     0.513118 
    0.710823     0.386258     0.484528 
    0.677922     0.648455     0.555585 
    0.437253     0.706825     0.538172 
    0.509788     0.455288     0.639565 
    0.631881     0.462363     0.400261 
    0.598104     0.550005     0.609493 
    0.462125     0.584955     0.609508 
EA9368 12.972 12.014 11.092 90.00 90.00 90.00 Sym.group:    0
1.0
   12.972453     0.000000     0.000000
    0.000000    12.013629     0.000000
    0.000000     0.000000    11.092171
   B
  24
Direct
    0.416561     0.440245     0.654221 
    0.539798     0.333538     0.530756 
    0.436732     0.621520     0.621627 
    0.329273     0.548600     0.620920 
    0.322094     0.398048     0.433153 
    0.566757     0.613570     0.615328 
    0.541842     0.433904     0.658270 
    0.414124     0.348580     0.522898 
    0.376383     0.608474     0.479372 
    0.314040     0.414793     0.582374 
    0.338352     0.519032     0.362142 
    0.273243     0.522113     0.488984 
    0.642704     0.367981     0.607142 
    0.649924     0.369315     0.458798 
    0.674378     0.464811     0.359363 
    0.693581     0.587384     0.418791 
    0.689106     0.612949     0.568539 
    0.656183     0.500916     0.636485 
    0.429977     0.410425     0.363562 
    0.458342     0.570336     0.358868 
    0.486287     0.663794     0.484258 
    0.555492     0.413521     0.359073 
    0.585089     0.561679     0.339286 
    0.609738     0.674471     0.475791 
EA9759 12.020 11.939  9.930 90.00 90.00 90.00 Sym.group:    0
1.0
   12.020068     0.000000     0.000000
    0.000000    11.938870     0.000000
    0.000000     0.000000     9.930378
   B
  21
Direct
    0.617700     0.553313     0.385521 
    0.588307     0.404596     0.386206 
    0.436660     0.384783     0.388823 
    0.371974     0.526531     0.390084 
    0.486778     0.629956     0.387997 
    0.325425     0.427191     0.517298 
    0.376486     0.645563     0.517250 
    0.599523     0.663561     0.517574 
    0.685133     0.455363     0.517814 
    0.514938     0.310012     0.517683 
    0.443389     0.395677     0.621836 
    0.383884     0.522956     0.620638 
    0.486671     0.617284     0.623431 
    0.606098     0.548824     0.626103 
    0.579823     0.413925     0.624917 
    0.383922     0.301105     0.505363 
    0.275886     0.549640     0.505913 
    0.477151     0.729254     0.505742 
    0.709117     0.592475     0.505243 
    0.651788     0.327877     0.505374 
    0.499350     0.500114     0.329193 
EA9995 13.302 12.878 10.666 90.00 90.00 90.00 Sym.group:    0
1.0
   13.302337     0.000000     0.000000
    0.000000    12.877573     0.000000
    0.000000     0.000000    10.666179
   B
  21
Direct
    0.521699     0.697859     0.483365 
    0.335717     0.614011     0.566401 
    0.617068     0.621649     0.480117 
    0.417465     0.642752     0.441789 
    0.441996     0.669597     0.603005 
    0.527522     0.617538     0.360209 
    0.325608     0.563241     0.418242 
    0.335870     0.441032     0.412913 
    0.594819     0.514867     0.363106 
    0.295015     0.496366     0.547388 
    0.561465     0.645950     0.629326 
    0.697622     0.531373     0.473366 
    0.658216     0.566909     0.621279 
    0.678111     0.442522     0.587723 
    0.662040     0.418056     0.426275 
    0.625215     0.334725     0.537920 
    0.423377     0.353544     0.447048 
    0.399709     0.285301     0.584159 
    0.323115     0.372885     0.551657 
    0.512771     0.287897     0.540481 
    0.545582     0.381926     0.424233 
EA10224 12.316 12.566 11.168 90.00 90.00 90.00 Sym.group:    0
1.0
   12.316092     0.000000     0.000000
    0.000000    12.565702     0.000000
    0.000000     0.000000    11.167561
   B
  21
Direct
    0.554006     0.604289     0.404106 
    0.632312     0.485666     0.402543 
    0.665010     0.591974     0.504910 
    0.647608     0.370405     0.505539 
    0.725788     0.476054     0.512712 
    0.515650     0.490498     0.334393 
    0.418067     0.572903     0.390456 
    0.401942     0.436424     0.379364 
    0.586995     0.698811     0.509961 
    0.392389     0.430522     0.582813 
    0.399634     0.573572     0.596956 
    0.542827     0.604245     0.602702 
    0.613820     0.480907     0.598377 
    0.522212     0.374444     0.601357 
    0.428057     0.321414     0.482231 
    0.311876     0.511023     0.469123 
    0.552138     0.285238     0.497022 
    0.312100     0.381573     0.476618 
    0.331316     0.638191     0.490483 
    0.488931     0.493984     0.659558 
    0.457323     0.677863     0.498777 
EA10302 12.620 12.331 11.452 90.00 90.00 90.00 Sym.group:    0
1.0
   12.619633     0.000000     0.000000
    0.000000    12.330713     0.000000
    0.000000     0.000000    11.451953
   B
  25
Direct
    0.632598     0.328270     0.528043 
    0.652955     0.438641     0.604817 
    0.677552     0.564831     0.639845 
    0.695641     0.554200     0.500124 
    0.693261     0.526947     0.360488 
    0.666256     0.417704     0.432463 
    0.466106     0.614155     0.571331 
    0.517026     0.703357     0.461211 
    0.551783     0.522906     0.658160 
    0.596778     0.641642     0.561998 
    0.604372     0.620048     0.398696 
    0.567078     0.484412     0.344560 
    0.387365     0.675407     0.454612 
    0.337626     0.593682     0.567366 
    0.334709     0.567461     0.397797 
    0.473569     0.576226     0.398254 
    0.445632     0.441322     0.350903 
    0.315727     0.436404     0.395395 
    0.420968     0.511488     0.655302 
    0.303840     0.469369     0.603602 
    0.533819     0.359441     0.441240 
    0.403506     0.344349     0.446147 
    0.294479     0.364382     0.517050 
    0.528471     0.372179     0.602149 
    0.398884     0.371181     0.608446 
EA10672 12.501 10.892 10.905 90.00 90.00 90.00 Sym.group:    0
1.0
   12.500715     0.000000     0.000000
    0.000000    10.892357     0.000000
    0.000000     0.000000    10.904915
   B
  22
Direct
    0.676350     0.515735     0.370218 
    0.676691     0.381115     0.444952 
    0.676542     0.410993     0.595832 
    0.676611     0.563716     0.614239 
    0.676657     0.628560     0.474767 
    0.323281     0.410953     0.595831 
    0.323340     0.381031     0.444921 
    0.323671     0.515649     0.370233 
    0.323423     0.628550     0.474791 
    0.323435     0.563718     0.614242 
    0.566296     0.599817     0.393030 
    0.566386     0.428467     0.372218 
    0.566265     0.356599     0.528136 
    0.566289     0.482685     0.644966 
    0.566424     0.632836     0.561439 
    0.433470     0.482437     0.645248 
    0.433579     0.356383     0.528303 
    0.433731     0.428425     0.372380 
    0.433702     0.599757     0.392988 
    0.433863     0.632495     0.561378 
    0.250232     0.500067     0.499905 
    0.749761     0.500013     0.499981 
EA10814 14.016 12.284 11.135 90.00 90.00 90.00 Sym.group:    0
1.0
   14.016200     0.000000     0.000000
    0.000000    12.283647     0.000000
    0.000000     0.000000    11.134674
   B
  24
Direct
    0.701507     0.519202     0.559332 
    0.531903     0.353611     0.443529 
    0.573555     0.345605     0.601759 
    0.647929     0.539731     0.403330 
    0.590209     0.436099     0.347293 
    0.708192     0.631847     0.488409 
    0.476821     0.418215     0.326888 
    0.675327     0.402460     0.622117 
    0.408979     0.362385     0.447169 
    0.642086     0.407551     0.476936 
    0.464312     0.316311     0.564162 
    0.616463     0.681330     0.425392 
    0.367465     0.449692     0.337069 
    0.508229     0.684493     0.475146 
    0.598749     0.613684     0.555634 
    0.581009     0.494084     0.632848 
    0.397621     0.662699     0.507362 
    0.262396     0.508244     0.545954 
    0.335290     0.553759     0.432210 
    0.291093     0.632745     0.548371 
    0.292387     0.423512     0.441478 
    0.461191     0.445430     0.619616 
    0.375798     0.540828     0.602971 
    0.491489     0.576480     0.595023 
EA10997 12.487 12.042 13.200 90.00 90.00 90.00 Sym.group:    0
1.0
   12.486659     0.000000     0.000000
    0.000000    12.041675     0.000000
    0.000000     0.000000    13.200190
   B
  25
Direct
    0.374022     0.350384     0.416185 
    0.433583     0.398533     0.608754 
    0.742692     0.501943     0.527523 
    0.613775     0.384257     0.378202 
    0.565318     0.353295     0.559757 
    0.543011     0.471075     0.641654 
    0.492197     0.356469     0.369569 
    0.417937     0.534372     0.645245 
    0.685401     0.390011     0.484589 
    0.455522     0.301504     0.514250 
    0.334835     0.351055     0.537205 
    0.662857     0.430288     0.605394 
    0.360868     0.685106     0.443522 
    0.380780     0.617520     0.553349 
    0.325690     0.487091     0.564465 
    0.314729     0.562157     0.444914 
    0.274961     0.434538     0.454778 
    0.518999     0.611231     0.605033 
    0.592590     0.703519     0.541639 
    0.480071     0.711822     0.482076 
    0.691810     0.622382     0.511671 
    0.665545     0.512918     0.422994 
    0.579438     0.619140     0.431997 
    0.454051     0.605242     0.385678 
    0.539320     0.504149     0.369556 
EA11243 12.605 12.190 11.338 90.00 90.00 90.00 Sym.group:    0
1.0
   12.605317     0.000000     0.000000
    0.000000    12.190316     0.000000
    0.000000     0.000000    11.338020
   B
  25
Direct
    0.309538     0.468667     0.406824 
    0.409671     0.665764     0.511348 
    0.463004     0.316296     0.516686 
    0.594470     0.515524     0.645741 
    0.576020     0.511280     0.350052 
    0.344920     0.395652     0.527137 
    0.321344     0.549759     0.525614 
    0.700437     0.529932     0.411418 
    0.706417     0.530520     0.562925 
    0.367720     0.614881     0.641940 
    0.395216     0.363039     0.388820 
    0.624089     0.636404     0.587632 
    0.651161     0.403111     0.389303 
    0.406423     0.355812     0.646756 
    0.358230     0.597307     0.386474 
    0.616983     0.637278     0.390925 
    0.659195     0.407214     0.596154 
    0.595401     0.326452     0.500143 
    0.539546     0.696763     0.497031 
    0.439449     0.490604     0.367684 
    0.381876     0.484328     0.652002 
    0.532322     0.387776     0.632200 
    0.497682     0.613503     0.630639 
    0.486210     0.621921     0.367480 
    0.522677     0.380214     0.367067 
EA11606 11.580  9.990  9.946 90.00 90.00 90.00 Sym.group:    0
1.0
   11.580358     0.000000     0.000000
    0.000000     9.989890     0.000000
    0.000000     0.000000     9.945925
   B
  22
Direct
    0.233126     0.500034     0.500069 
    0.766872     0.500029     0.500066 
    0.309910     0.427566     0.376608 
    0.309410     0.360652     0.531041 
    0.309455     0.486397     0.642594 
    0.309858     0.630823     0.557193 
    0.309460     0.594747     0.392381 
    0.690092     0.427563     0.376612 
    0.690593     0.360649     0.531047 
    0.690551     0.486391     0.642590 
    0.690140     0.630820     0.557195 
    0.690541     0.594748     0.392384 
    0.428247     0.516126     0.340439 
    0.428184     0.353402     0.435689 
    0.428073     0.393786     0.619716 
    0.428135     0.580517     0.638884 
    0.428225     0.655958     0.465372 
    0.571756     0.516129     0.340441 
    0.571822     0.353400     0.435698 
    0.571923     0.393791     0.619718 
    0.571856     0.580517     0.638884 
    0.571772     0.655958     0.465380 
EA11725 13.839 12.513 12.228 90.00 90.00 90.00 Sym.group:    0
1.0
   13.838604     0.000000     0.000000
    0.000000    12.512649     0.000000
    0.000000     0.000000    12.228464
   B
  25
Direct
    0.548242     0.334523     0.575245 
    0.621494     0.370395     0.460128 
    0.500129     0.324074     0.455062 
    0.401260     0.490146     0.296038 
    0.341299     0.476361     0.416993 
    0.339658     0.402659     0.542839 
    0.389823     0.601754     0.361940 
    0.432045     0.327402     0.572737 
    0.327383     0.609306     0.478252 
    0.279382     0.506864     0.535342 
    0.438217     0.392317     0.362596 
    0.495321     0.534471     0.379576 
    0.712211     0.435710     0.420465 
    0.608176     0.518570     0.411374 
    0.649922     0.646760     0.477071 
    0.553245     0.699823     0.533799 
    0.559661     0.563673     0.553932 
    0.669352     0.486503     0.543380 
    0.589951     0.453465     0.634729 
    0.728206     0.560068     0.439093 
    0.449896     0.637320     0.480249 
    0.501872     0.654693     0.641841 
    0.391386     0.548196     0.580656 
    0.483392     0.528936     0.673758 
    0.488476     0.396010     0.672908 
EA11965 11.828 12.358 12.195 90.00 90.00 90.00 Sym.group:    0
1.0
   11.827839     0.000000     0.000000
    0.000000    12.358088     0.000000
    0.000000     0.000000    12.195242
   B
  25
Direct
    0.284223     0.499999     0.500000 
    0.576808     0.479584     0.667426 
    0.579678     0.623139     0.611833 
    0.575896     0.659266     0.456137 
    0.576808     0.520420     0.332578 
    0.579679     0.376862     0.388170 
    0.575900     0.340725     0.543857 
    0.437572     0.331034     0.537734 
    0.440042     0.378565     0.385331 
    0.439617     0.511449     0.324027 
    0.437569     0.668968     0.462268 
    0.440040     0.621437     0.614669 
    0.439617     0.488552     0.675973 
    0.324485     0.367692     0.472636 
    0.347303     0.417957     0.596055 
    0.324900     0.545409     0.633553 
    0.324481     0.632307     0.527364 
    0.347302     0.582043     0.403945 
    0.324901     0.454592     0.366448 
    0.692439     0.542910     0.628600 
    0.678624     0.413676     0.600317 
    0.690525     0.370345     0.473601 
    0.692439     0.457090     0.371399 
    0.678629     0.586324     0.399682 
    0.690521     0.629655     0.526398 
EA12219 12.971 12.330 12.089 90.00 90.00 90.00 Sym.group:    0
1.0
   12.971083     0.000000     0.000000
    0.000000    12.330477     0.000000
    0.000000     0.000000    12.089440
   B
  25
Direct
    0.568317     0.669050     0.567307 
    0.510006     0.573463     0.643341 
    0.575502     0.363484     0.551587 
    0.684370     0.387991     0.462442 
    0.672397     0.449798     0.590548 
    0.661180     0.585447     0.581689 
    0.450101     0.475454     0.703535 
    0.617245     0.607740     0.440846 
    0.708985     0.518682     0.471955 
    0.568423     0.440036     0.665345 
    0.611424     0.476661     0.381231 
    0.344717     0.435629     0.635546 
    0.368704     0.422986     0.417327 
    0.407769     0.635802     0.397449 
    0.489638     0.415356     0.356794 
    0.348656     0.353054     0.528992 
    0.405877     0.511031     0.320861 
    0.513221     0.691082     0.438937 
    0.522399     0.569695     0.350278 
    0.464120     0.331935     0.478319 
    0.293761     0.479910     0.518666 
    0.312543     0.550719     0.404386 
    0.442208     0.651242     0.550676 
    0.379047     0.565427     0.629763 
    0.579393     0.338326     0.412182 
EA12642 13.217 12.690 10.808 90.00 90.00 90.00 Sym.group:    0
1.0
   13.217489     0.000000     0.000000
    0.000000    12.689570     0.000000
    0.000000     0.000000    10.807678
   B
  21
Direct
    0.323223     0.581308     0.380324 
    0.402330     0.512256     0.645699 
    0.317092     0.551552     0.535245 
    0.441776     0.372812     0.592909 
    0.380414     0.351231     0.457157 
    0.333449     0.425850     0.567092 
    0.313932     0.461251     0.414893 
    0.614238     0.329221     0.443272 
    0.495261     0.309574     0.461146 
    0.564320     0.367907     0.583033 
    0.545990     0.643146     0.373447 
    0.404589     0.631918     0.581675 
    0.515504     0.577804     0.641075 
    0.645965     0.564890     0.360462 
    0.505318     0.674560     0.519400 
    0.424299     0.651120     0.396839 
    0.612405     0.613038     0.504362 
    0.667577     0.438791     0.384230 
    0.673970     0.407685     0.539782 
    0.618883     0.507024     0.620137 
    0.699462     0.527064     0.497823 
EA12875 12.621 12.014 11.328 90.00 90.00 90.00 Sym.group:    0
1.0
   12.620684     0.000000     0.000000
    0.000000    12.013960     0.000000
    0.000000     0.000000    11.328236
   B
  21
Direct
    0.383642     0.561887     0.594824 
    0.309452     0.563508     0.465203 
    0.308835     0.452025     0.566760 
    0.486769     0.703698     0.536039 
    0.363148     0.677323     0.513355 
    0.430707     0.434476     0.632980 
    0.367982     0.344653     0.517555 
    0.325210     0.434079     0.415187 
    0.444955     0.610486     0.422313 
    0.670320     0.467990     0.584375 
    0.608141     0.706964     0.573417 
    0.495586     0.346583     0.521706 
    0.626050     0.347588     0.531695 
    0.694847     0.414172     0.439526 
    0.669253     0.599918     0.598575 
    0.557268     0.408518     0.640671 
    0.432978     0.358105     0.386596 
    0.531756     0.548070     0.345421 
    0.558783     0.397594     0.387724 
    0.646813     0.509021     0.357504 
    0.587507     0.613343     0.468573 
EA13067 12.399 11.092 12.077 90.00 90.00 90.00 Sym.group:    0
1.0
   12.398921     0.000000     0.000000
    0.000000    11.092455     0.000000
    0.000000     0.000000    12.076532
   B
  22
Direct
    0.588214     0.630196     0.444642 
    0.575992     0.599291     0.599054 
    0.545217     0.429698     0.615726 
    0.544934     0.348497     0.476499 
    0.561172     0.470907     0.374115 
    0.681565     0.533945     0.398986 
    0.689900     0.601195     0.526312 
    0.670018     0.492871     0.622630 
    0.652609     0.362137     0.557681 
    0.663059     0.387349     0.419419 
    0.292850     0.426789     0.581197 
    0.315890     0.473988     0.420956 
    0.341166     0.616111     0.379327 
    0.345601     0.641844     0.509755 
    0.324371     0.562378     0.623653 
    0.447020     0.615104     0.606160 
    0.419828     0.467288     0.643114 
    0.416093     0.365967     0.431339 
    0.434365     0.511615     0.357718 
    0.460420     0.655565     0.424879 
    0.737510     0.465033     0.507438 
    0.292209     0.342232     0.479404 
EA13289 13.150 11.432 10.923 90.00 90.00 90.00 Sym.group:    0
1.0
   13.149867     0.000000     0.000000
    0.000000    11.432205     0.000000
    0.000000     0.000000    10.922636
   B
  22
Direct
    0.419331     0.647019     0.508455 
    0.432629     0.540988     0.641377 
    0.450486     0.384848     0.580378 
    0.458176     0.396202     0.410020 
    0.436237     0.554405     0.365986 
    0.324318     0.590705     0.424251 
    0.322809     0.584541     0.579163 
    0.337737     0.443723     0.619053 
    0.350369     0.362501     0.490460 
    0.344354     0.455155     0.370258 
    0.689265     0.395126     0.543265 
    0.675849     0.505223     0.379205 
    0.652396     0.641153     0.431078 
    0.651499     0.597054     0.571644 
    0.663780     0.480513     0.659896 
    0.556187     0.548337     0.665323 
    0.567941     0.402149     0.622705 
    0.583968     0.395191     0.382805 
    0.560394     0.564847     0.363736 
    0.543658     0.661952     0.492800 
    0.272965     0.476389     0.493708 
    0.705654     0.371976     0.404436 
EA13415 13.598 12.173 11.904 90.00 90.00 90.00 Sym.group:    0
1.0
   13.598398     0.000000     0.000000
    0.000000    12.172705     0.000000
    0.000000     0.000000    11.904326
   B
  25
Direct
    0.341565     0.449292     0.579676 
    0.404366     0.356255     0.652261 
    0.450573     0.481714     0.663487 
    0.565593     0.551516     0.696516 
    0.573713     0.500357     0.373836 
    0.727857     0.454044     0.527906 
    0.602063     0.423091     0.519749 
    0.662923     0.509869     0.625211 
    0.399320     0.297911     0.532073 
    0.688053     0.391087     0.417937 
    0.574686     0.362881     0.380103 
    0.475145     0.433975     0.322906 
    0.497344     0.379852     0.566425 
    0.445441     0.334502     0.415353 
    0.385073     0.580144     0.572594 
    0.466943     0.674099     0.518623 
    0.571521     0.610749     0.564035 
    0.463785     0.566830     0.335411 
    0.382215     0.470774     0.401129 
    0.296107     0.530226     0.486232 
    0.459956     0.698398     0.377546 
    0.372173     0.620031     0.429710 
    0.652883     0.557435     0.470678 
    0.562957     0.635467     0.417759 
    0.477747     0.629500     0.652845 
EA13767 13.936 12.132 10.834 90.00 90.00 90.00 Sym.group:    0
1.0
   13.935835     0.000000     0.000000
    0.000000    12.132121     0.000000
    0.000000     0.000000    10.833638
   B
  22
Direct
    0.381241     0.433234     0.367687 
    0.327318     0.394212     0.510274 
    0.313882     0.614782     0.578915 
    0.405467     0.679556     0.520696 
    0.273367     0.494914     0.581665 
    0.336231     0.532859     0.448909 
    0.506876     0.679798     0.455241 
    0.457854     0.555251     0.398334 
    0.402031     0.491589     0.589841 
    0.618440     0.653188     0.493962 
    0.659421     0.493408     0.436197 
    0.726388     0.468287     0.568573 
    0.714651     0.593660     0.532738 
    0.560084     0.389568     0.429789 
    0.520489     0.446501     0.604526 
    0.433377     0.345028     0.555232 
    0.641448     0.380798     0.567367 
    0.615122     0.534341     0.600687 
    0.576302     0.500026     0.330396 
    0.542417     0.310812     0.556539 
    0.502381     0.578729     0.563829 
    0.485211     0.429461     0.308603 
EA13878 13.134 12.981 11.168 90.00 90.00 90.00 Sym.group:    0
1.0
   13.133776     0.000000     0.000000
    0.000000    12.980721     0.000000
    0.000000     0.000000    11.167517
   B
  25
Direct
    0.397889     0.550249     0.396279 
    0.280306     0.595518     0.472845 
    0.327181     0.405807     0.588536 
    0.259860     0.475707     0.495242 
    0.358580     0.410939     0.423800 
    0.469076     0.446855     0.351702 
    0.350908     0.540119     0.587246 
    0.552256     0.642106     0.437782 
    0.468412     0.597574     0.601077 
    0.369472     0.666846     0.517081 
    0.482616     0.716058     0.534786 
    0.514542     0.560921     0.330271 
    0.583461     0.667195     0.588704 
    0.671318     0.599342     0.517013 
    0.745275     0.393676     0.475338 
    0.654359     0.329130     0.535315 
    0.740672     0.513469     0.446252 
    0.651509     0.462991     0.542510 
    0.567647     0.521408     0.636107 
    0.631698     0.551963     0.377518 
    0.429770     0.348930     0.543165 
    0.553017     0.391680     0.600653 
    0.445688     0.327027     0.390632 
    0.544360     0.312983     0.472191 
    0.450128     0.471509     0.637955 
EA14303 12.802 12.545 11.215 90.00 90.00 90.00 Sym.group:    0
1.0
   12.801944     0.000000     0.000000
    0.000000    12.544599     0.000000
    0.000000     0.000000    11.215165
   B
  21
Direct
    0.690159     0.488944     0.583800 
    0.561371     0.319453     0.491297 
    0.665836     0.500170     0.435368 
    0.672721     0.380971     0.507088 
    0.584683     0.414152     0.612506 
    0.662049     0.606776     0.534497 
    0.370442     0.479939     0.595832 
    0.457630     0.592094     0.616077 
    0.458410     0.377121     0.576404 
    0.442065     0.289297     0.460976 
    0.426277     0.682656     0.510230 
    0.334251     0.597650     0.547790 
    0.484686     0.626277     0.384752 
    0.359666     0.609779     0.402780 
    0.477682     0.399970     0.386265 
    0.308135     0.497109     0.455604 
    0.610487     0.608977     0.395565 
    0.545334     0.503854     0.353430 
    0.550002     0.670416     0.527462 
    0.484503     0.476380     0.670917 
    0.353608     0.378011     0.451358 
EA14346 12.146 12.588 12.552 90.00 90.00 90.00 Sym.group:    0
1.0
   12.146263     0.000000     0.000000
    0.000000    12.588324     0.000000
    0.000000     0.000000    12.551949
   B
  25
Direct
    0.561120     0.342183     0.434560 
    0.399114     0.414645     0.642643 
    0.310122     0.477275     0.544311 
    0.345122     0.349522     0.544611 
    0.666286     0.290629     0.500638 
    0.425521     0.318861     0.445548 
    0.659901     0.584297     0.545421 
    0.692319     0.405135     0.453796 
    0.622195     0.482677     0.643268 
    0.494932     0.486656     0.695215 
    0.406267     0.549866     0.616027 
    0.661508     0.366324     0.594519 
    0.541616     0.587196     0.619672 
    0.612671     0.614248     0.409154 
    0.442384     0.663922     0.541884 
    0.321424     0.534727     0.403866 
    0.322149     0.607050     0.527012 
    0.327454     0.406892     0.423734 
    0.503164     0.693249     0.412925 
    0.585046     0.476847     0.384295 
    0.473958     0.555856     0.378810 
    0.465329     0.422579     0.374945 
    0.378215     0.650962     0.402974 
    0.708523     0.530019     0.427244 
    0.573658     0.688384     0.532930 
EA14590 12.708 12.438 11.453 90.00 90.00 90.00 Sym.group:    0
1.0
   12.707829     0.000000     0.000000
    0.000000    12.438136     0.000000
    0.000000     0.000000    11.453403
   B
  25
Direct
    0.454270     0.668742     0.402819 
    0.647627     0.482096     0.408712 
    0.405664     0.390721     0.389918 
    0.625540     0.348002     0.426961 
    0.428414     0.331592     0.532292 
    0.317765     0.488203     0.388661 
    0.435860     0.528495     0.336515 
    0.565387     0.570901     0.356857 
    0.535750     0.438359     0.355882 
    0.503885     0.311503     0.410085 
    0.323589     0.418455     0.520880 
    0.340872     0.615587     0.374097 
    0.363694     0.610314     0.519253 
    0.573968     0.695354     0.432537 
    0.640689     0.653606     0.548152 
    0.506646     0.655859     0.552365 
    0.440825     0.574280     0.642759 
    0.409505     0.430023     0.637727 
    0.323908     0.524351     0.615092 
    0.623339     0.427282     0.611344 
    0.582033     0.572584     0.643640 
    0.515529     0.353499     0.640749 
    0.713577     0.409337     0.505291 
    0.693897     0.532247     0.543150 
    0.527769     0.468611     0.704262 
EA14833 13.607 12.796 11.223 90.00 90.00 90.00 Sym.group:    0
1.0
   13.606677     0.000000     0.000000
    0.000000    12.796192     0.000000
    0.000000     0.000000    11.222974
   B
  25
Direct
    0.436205     0.693534     0.470759 
    0.388904     0.319716     0.432953 
    0.436477     0.358167     0.559476 
    0.501848     0.348485     0.394358 
    0.366265     0.468901     0.642814 
    0.413140     0.438576     0.367951 
    0.324149     0.647024     0.474401 
    0.289463     0.531271     0.547152 
    0.339157     0.534849     0.405628 
    0.406633     0.584018     0.560846 
    0.323276     0.415311     0.479021 
    0.450519     0.397668     0.699863 
    0.530923     0.478905     0.345937 
    0.556651     0.602716     0.373219 
    0.526399     0.619892     0.563169 
    0.551606     0.713153     0.456861 
    0.489055     0.515521     0.640508 
    0.672128     0.423202     0.596547 
    0.617346     0.382416     0.373472 
    0.710438     0.530621     0.522664 
    0.609445     0.533965     0.618740 
    0.559956     0.402290     0.649090 
    0.643355     0.632797     0.484483 
    0.646249     0.509749     0.386423 
    0.710416     0.417255     0.453665 
EA15244 13.439 13.625 12.327 90.00 90.00 90.00 Sym.group:    0
1.0
   13.439459     0.000000     0.000000
    0.000000    13.624834     0.000000
    0.000000     0.000000    12.327011
   B
  22
Direct
    0.399499     0.591805     0.543909 
    0.405647     0.401140     0.541160 
    0.597502     0.406762     0.543688 
    0.594651     0.595314     0.548601 
    0.678245     0.501396     0.551654 
    0.503497     0.321884     0.547570 
    0.320688     0.494563     0.547110 
    0.496166     0.674575     0.554508 
    0.496666     0.495441     0.729725 
    0.343735     0.448919     0.432224 
    0.551355     0.345930     0.433815 
    0.659637     0.553301     0.438923 
    0.446893     0.658316     0.439732 
    0.593973     0.539408     0.328782 
    0.466683     0.594121     0.329964 
    0.412847     0.468261     0.325234 
    0.538140     0.415686     0.326698 
    0.493802     0.591356     0.647435 
    0.400895     0.491941     0.645761 
    0.501605     0.402022     0.643878 
    0.594304     0.501257     0.647633 
    0.503570     0.506600     0.251995 
EA15463 13.579 12.015 12.005 90.00 90.00 90.00 Sym.group:    0
1.0
   13.579206     0.000000     0.000000
    0.000000    12.014824     0.000000
    0.000000     0.000000    12.005106
   B
  22
Direct
    0.532987     0.412919     0.610817 
    0.540642     0.393710     0.413708 
    0.535683     0.588575     0.391238 
    0.528951     0.612747     0.588741 
    0.544516     0.700314     0.476087 
    0.558182     0.479031     0.303418 
    0.556145     0.304557     0.524153 
    0.542790     0.525899     0.698651 
    0.715767     0.508341     0.508794 
    0.447012     0.322751     0.488616 
    0.446488     0.506197     0.321220 
    0.435573     0.677101     0.512027 
    0.435726     0.483657     0.676104 
    0.338767     0.599945     0.504432 
    0.338878     0.480925     0.599279 
    0.343542     0.387158     0.482967 
    0.344478     0.502834     0.387929 
    0.632378     0.515584     0.610327 
    0.639656     0.399676     0.515384 
    0.639989     0.495099     0.400199 
    0.632387     0.611209     0.494508 
    0.269462     0.491772     0.491399 
EA15708 13.634 11.796 11.653 90.00 90.00 90.00 Sym.group:    0
1.0
   13.634447     0.000000     0.000000
    0.000000    11.795558     0.000000
    0.000000     0.000000    11.653387
   B
  22
Direct
    0.527084     0.364414     0.449930 
    0.538544     0.455648     0.629912 
    0.542124     0.633560     0.549692 
    0.529916     0.553638     0.359799 
    0.547832     0.687662     0.417545 
    0.562233     0.585106     0.685012 
    0.550680     0.317307     0.586213 
    0.537822     0.417745     0.310530 
    0.714342     0.494039     0.484546 
    0.443909     0.354968     0.604505 
    0.450941     0.595875     0.655807 
    0.440837     0.649831     0.392445 
    0.432323     0.388888     0.355225 
    0.341833     0.591109     0.444699 
    0.337577     0.433737     0.425058 
    0.340783     0.417381     0.576312 
    0.347521     0.565917     0.598716 
    0.629612     0.450016     0.390786 
    0.637852     0.399838     0.538930 
    0.641893     0.543020     0.588171 
    0.633606     0.594614     0.443759 
    0.270737     0.505685     0.512407 
EA15983 11.460 12.401 12.652 90.00 90.00 90.00 Sym.group:    0
1.0
   11.459623     0.000000     0.000000
    0.000000    12.401177     0.000000
    0.000000     0.000000    12.652403
   B
  21
Direct
    0.356303     0.441032     0.384176 
    0.495310     0.426061     0.372389 
    0.352942     0.463352     0.612690 
    0.313921     0.563959     0.420147 
    0.285633     0.451973     0.498515 
    0.442155     0.575154     0.600263 
    0.308066     0.576627     0.554388 
    0.407124     0.646728     0.480172 
    0.397678     0.372687     0.504754 
    0.538298     0.349453     0.504059 
    0.485734     0.457898     0.660974 
    0.444769     0.557010     0.370223 
    0.582052     0.530906     0.338369 
    0.633548     0.427962     0.417855 
    0.544817     0.640561     0.506152 
    0.664943     0.576355     0.430581 
    0.680878     0.622689     0.546973 
    0.694245     0.490843     0.537720 
    0.680820     0.358525     0.521213 
    0.607337     0.411325     0.617631 
    0.583429     0.558899     0.620755 
EA16027 12.860 11.924 12.383 90.00 90.00 90.00 Sym.group:    0
1.0
   12.860300     0.000000     0.000000
    0.000000    11.923530     0.000000
    0.000000     0.000000    12.382816
   B
  25
Direct
    0.540732     0.340128     0.530114 
    0.706700     0.565077     0.505794 
    0.609654     0.665089     0.491344 
    0.661017     0.380809     0.517936 
    0.593357     0.421310     0.634939 
    0.671323     0.599248     0.385393 
    0.475241     0.322637     0.381613 
    0.437647     0.585224     0.359521 
    0.552181     0.639044     0.370640 
    0.397178     0.456581     0.369628 
    0.598173     0.347163     0.407475 
    0.620247     0.578737     0.616057 
    0.706633     0.477081     0.605982 
    0.668457     0.462936     0.407224 
    0.467415     0.379849     0.634729 
    0.409759     0.343546     0.515981 
    0.354175     0.323142     0.390799 
    0.264931     0.521429     0.550746 
    0.357804     0.442562     0.607500 
    0.305376     0.422612     0.470622 
    0.353125     0.558559     0.454550 
    0.542269     0.685749     0.608410 
    0.319826     0.630754     0.586786 
    0.463636     0.649404     0.485372 
    0.423142     0.701333     0.610843 
EA16347 12.963 12.449 11.717 90.00 90.00 90.00 Sym.group:    0
1.0
   12.963283     0.000000     0.000000
    0.000000    12.449447     0.000000
    0.000000     0.000000    11.716933
   B
  24
Direct
    0.459633     0.611198     0.623842 
    0.655326     0.486789     0.615968 
    0.541879     0.520292     0.670700 
    0.535695     0.287219     0.546848 
    0.637105     0.361989     0.563111 
    0.669362     0.566099     0.389337 
    0.542304     0.616122     0.381538 
    0.626802     0.667477     0.470741 
    0.575547     0.480668     0.350661 
    0.670501     0.450508     0.464685 
    0.703283     0.573404     0.521766 
    0.576504     0.363347     0.432065 
    0.599067     0.615411     0.599054 
    0.403003     0.621222     0.407542 
    0.458440     0.529310     0.330057 
    0.360588     0.367227     0.429892 
    0.344702     0.494690     0.383734 
    0.460962     0.290239     0.441899 
    0.421365     0.361231     0.560598 
    0.329020     0.451651     0.533232 
    0.424097     0.474893     0.647993 
    0.375525     0.667962     0.537985 
    0.297730     0.577343     0.482371 
    0.331561     0.563709     0.614377 
EA16710 12.771 12.404 10.933 90.00 90.00 90.00 Sym.group:    0
1.0
   12.771029     0.000000     0.000000
    0.000000    12.404406     0.000000
    0.000000     0.000000    10.932570
   B
  21
Direct
    0.387152     0.524559     0.591423 
    0.451491     0.392654     0.599717 
    0.597519     0.419377     0.604274 
    0.611716     0.559665     0.608610 
    0.488103     0.621267     0.611576 
    0.406113     0.304348     0.501727 
    0.654511     0.347667     0.496130 
    0.685481     0.600670     0.489699 
    0.460134     0.710151     0.501413 
    0.282043     0.534245     0.502367 
    0.377548     0.517121     0.392694 
    0.450020     0.400753     0.391415 
    0.580814     0.415199     0.381850 
    0.599460     0.550881     0.376771 
    0.478940     0.599582     0.385670 
    0.336928     0.414273     0.490579 
    0.530733     0.314978     0.490304 
    0.682302     0.471712     0.466704 
    0.575980     0.665409     0.476710 
    0.357230     0.636485     0.475616 
    0.505782     0.499002     0.664752 
EA16778 14.227 12.498 10.921 90.00 90.00 90.00 Sym.group:    0
1.0
   14.226961     0.000000     0.000000
    0.000000    12.497554     0.000000
    0.000000     0.000000    10.921014
   B
  25
Direct
    0.564355     0.448831     0.634404 
    0.665889     0.506065     0.652331 
    0.508499     0.559034     0.544793 
    0.412457     0.396532     0.337995 
    0.356678     0.625215     0.444153 
    0.339311     0.476457     0.399188 
    0.319083     0.451969     0.578276 
    0.382630     0.344548     0.589096 
    0.276149     0.545850     0.490041 
    0.459870     0.335999     0.468301 
    0.491288     0.337507     0.623591 
    0.577620     0.343665     0.515880 
    0.441046     0.466265     0.616224 
    0.357306     0.583150     0.599827 
    0.735079     0.536459     0.546936 
    0.635703     0.617146     0.536858 
    0.435750     0.674825     0.568415 
    0.464934     0.654725     0.409491 
    0.661136     0.430971     0.511793 
    0.686148     0.539631     0.412518 
    0.571162     0.594099     0.402199 
    0.544473     0.693220     0.531759 
    0.521988     0.379369     0.335190 
    0.479655     0.504003     0.392622 
    0.611789     0.454462     0.358119 
EA17182 12.043 11.920 12.016 90.00 90.00 90.00 Sym.group:    0
1.0
   12.043091     0.000000     0.000000
    0.000000    11.919529     0.000000
    0.000000     0.000000    12.015997
   B
  21
Direct
    0.369136     0.482641     0.415483 
    0.281544     0.442924     0.528613 
    0.608273     0.577802     0.622682 
    0.511872     0.695927     0.502855 
    0.641998     0.655974     0.505023 
    0.390658     0.474945     0.607774 
    0.515233     0.479742     0.657753 
    0.467384     0.602349     0.613482 
    0.310729     0.574139     0.512615 
    0.414030     0.618254     0.416821 
    0.383781     0.689219     0.537155 
    0.609377     0.442837     0.356954 
    0.690434     0.425098     0.473143 
    0.710902     0.541579     0.546250 
    0.663045     0.550923     0.415242 
    0.597144     0.326925     0.469707 
    0.480438     0.393997     0.396434 
    0.505530     0.534555     0.369376 
    0.477950     0.270977     0.478768 
    0.501330     0.373047     0.573670 
    0.369212     0.346144     0.500199 
EA17246 15.208 12.577 11.074 90.00 90.00 90.00 Sym.group:    0
1.0
   15.208085     0.000000     0.000000
    0.000000    12.576736     0.000000
    0.000000     0.000000    11.073989
   B
  25
Direct
    0.675101     0.358556     0.431603 
    0.622971     0.413074     0.558036 
    0.564548     0.487580     0.660565 
    0.698012     0.487222     0.483800 
    0.574572     0.321897     0.463471 
    0.754858     0.429951     0.376180 
    0.460270     0.506858     0.647216 
    0.466410     0.310750     0.468310 
    0.518540     0.377010     0.583116 
    0.358817     0.504241     0.623277 
    0.363696     0.344736     0.441086 
    0.304996     0.536598     0.496508 
    0.302265     0.408915     0.551745 
    0.409048     0.383306     0.577113 
    0.770016     0.552557     0.400076 
    0.702589     0.626529     0.474287 
    0.527641     0.591409     0.563738 
    0.496895     0.701002     0.489817 
    0.602149     0.673473     0.502369 
    0.318338     0.644103     0.403633 
    0.400821     0.713682     0.437810 
    0.282150     0.424057     0.405383 
    0.275835     0.540720     0.349459 
    0.634303     0.559144     0.577901 
    0.415160     0.602630     0.533501 
EA17495 15.208 12.577 11.074 90.00 90.00 90.00 Sym.group:    0
1.0
   15.208085     0.000000     0.000000
    0.000000    12.576736     0.000000
    0.000000     0.000000    11.073989
   B
  25
Direct
    0.675101     0.358556     0.431603 
    0.622971     0.413074     0.558036 
    0.564548     0.487580     0.660565 
    0.698012     0.487222     0.483800 
    0.574572     0.321897     0.463471 
    0.754858     0.429951     0.376180 
    0.460270     0.506858     0.647216 
    0.466410     0.310750     0.468310 
    0.518540     0.377010     0.583116 
    0.358817     0.504241     0.623277 
    0.363696     0.344736     0.441086 
    0.304996     0.536598     0.496508 
    0.302265     0.408915     0.551745 
    0.409048     0.383306     0.577113 
    0.770016     0.552557     0.400076 
    0.702589     0.626529     0.474287 
    0.527641     0.591409     0.563738 
    0.496895     0.701002     0.489817 
    0.602149     0.673473     0.502369 
    0.318338     0.644103     0.403633 
    0.400821     0.713682     0.437810 
    0.282150     0.424057     0.405383 
    0.275835     0.540720     0.349459 
    0.634303     0.559144     0.577901 
    0.415160     0.602630     0.533501 
EA17732 13.383 12.225 11.508 90.00 90.00 90.00 Sym.group:    0
1.0
   13.382807     0.000000     0.000000
    0.000000    12.224500     0.000000
    0.000000     0.000000    11.508037
   B
  25
Direct
    0.637335     0.384214     0.508953 
    0.393071     0.361415     0.513405 
    0.325476     0.482514     0.485445 
    0.520889     0.315890     0.524332 
    0.563104     0.345244     0.384568 
    0.347134     0.437852     0.617555 
    0.584468     0.362217     0.637161 
    0.383265     0.397850     0.364017 
    0.451642     0.296276     0.407367 
    0.463399     0.394872     0.637501 
    0.659071     0.418875     0.368626 
    0.341394     0.516527     0.340821 
    0.722998     0.601508     0.503084 
    0.557227     0.484991     0.679475 
    0.727747     0.477358     0.466843 
    0.427944     0.531028     0.662912 
    0.535065     0.611909     0.668457 
    0.433694     0.670126     0.639150 
    0.426315     0.618301     0.389756 
    0.644273     0.554537     0.392581 
    0.303075     0.609273     0.425685 
    0.630406     0.672834     0.468883 
    0.507442     0.652605     0.515983 
    0.544053     0.635091     0.375013 
    0.369510     0.666690     0.522427 
EA17980 13.523 12.646 11.618 90.00 90.00 90.00 Sym.group:    0
1.0
   13.523370     0.000000     0.000000
    0.000000    12.646301     0.000000
    0.000000     0.000000    11.618200
   B
  25
Direct
    0.642123     0.591985     0.529646 
    0.405211     0.646129     0.517100 
    0.333307     0.537990     0.471272 
    0.535137     0.673306     0.543737 
    0.579767     0.648745     0.404938 
    0.346449     0.569719     0.607612 
    0.585049     0.611266     0.654062 
    0.410475     0.620165     0.365588 
    0.476246     0.711553     0.426303 
    0.463189     0.594333     0.640960 
    0.668891     0.569987     0.388581 
    0.360222     0.513484     0.328052 
    0.713718     0.379680     0.510399 
    0.544125     0.494176     0.680981 
    0.729794     0.500729     0.483643 
    0.412531     0.466582     0.648074 
    0.509397     0.376365     0.659768 
    0.406960     0.333263     0.616745 
    0.426068     0.400448     0.375380 
    0.643025     0.439667     0.402985 
    0.304414     0.424208     0.399469 
    0.615678     0.323373     0.470881 
    0.492589     0.347631     0.505794 
    0.540534     0.372136     0.372444 
    0.355100     0.353080     0.495586 
EA18216 13.454 12.710 11.737 90.00 90.00 90.00 Sym.group:    0
1.0
   13.454038     0.000000     0.000000
    0.000000    12.709753     0.000000
    0.000000     0.000000    11.737284
   B
  25
Direct
    0.647285     0.423183     0.532156 
    0.415433     0.346433     0.528927 
    0.338192     0.448770     0.477038 
    0.549358     0.331939     0.555162 
    0.584597     0.356521     0.413458 
    0.351234     0.422137     0.613645 
    0.594329     0.404768     0.658546 
    0.424560     0.366009     0.376599 
    0.491029     0.280412     0.444933 
    0.471129     0.410487     0.646261 
    0.667736     0.441652     0.390349 
    0.364936     0.464744     0.333405 
    0.705026     0.637315     0.501628 
    0.544480     0.518509     0.678006 
    0.727647     0.517184     0.480504 
    0.409415     0.532134     0.645224 
    0.500247     0.630246     0.649487 
    0.394372     0.661614     0.604970 
    0.419559     0.587669     0.369726 
    0.639133     0.570303     0.397019 
    0.299959     0.552329     0.395732 
    0.603210     0.684898     0.459868 
    0.481472     0.651011     0.496456 
    0.531284     0.627482     0.364688 
    0.344378     0.632252     0.486216 
EA18496 11.624 11.562  8.633 90.00 90.00 90.00 Sym.group:    0
1.0
   11.623631     0.000000     0.000000
    0.000000    11.562297     0.000000
    0.000000     0.000000     8.633420
   B
  24
Direct
    0.755404     0.594797     0.585167 
    0.709069     0.326014     0.584854 
    0.454846     0.230947     0.584965 
    0.244600     0.405195     0.585150 
    0.290913     0.673962     0.584844 
    0.545162     0.769065     0.584977 
    0.675245     0.708958     0.584883 
    0.407934     0.757117     0.585211 
    0.233129     0.548574     0.584828 
    0.324768     0.291032     0.584873 
    0.592046     0.242882     0.585206 
    0.766868     0.451407     0.584827 
    0.251557     0.616460     0.413877 
    0.475633     0.773735     0.414290 
    0.723688     0.658884     0.413561 
    0.748452     0.383560     0.413874 
    0.524375     0.226269     0.414288 
    0.276304     0.341130     0.413577 
    0.236283     0.476349     0.416741 
    0.347387     0.718803     0.415854 
    0.612054     0.742772     0.415774 
    0.763713     0.523667     0.416739 
    0.652625     0.281196     0.415863 
    0.387946     0.257224     0.415779 
EA18670 12.785 12.644 11.646 90.00 90.00 90.00 Sym.group:    0
1.0
   12.785089     0.000000     0.000000
    0.000000    12.643741     0.000000
    0.000000     0.000000    11.645632
   B
  25
Direct
    0.684003     0.426297     0.556176 
    0.653896     0.641387     0.439703 
    0.658490     0.649501     0.581578 
    0.712031     0.547278     0.516961 
    0.628756     0.530795     0.637797 
    0.570003     0.407416     0.629071 
    0.610867     0.335772     0.506844 
    0.493477     0.519465     0.660141 
    0.549539     0.640174     0.649250 
    0.367150     0.501118     0.614618 
    0.441457     0.399960     0.647126 
    0.431134     0.640627     0.603529 
    0.649841     0.526045     0.382650 
    0.602995     0.407400     0.376471 
    0.523568     0.309112     0.413270 
    0.544383     0.616478     0.369571 
    0.396401     0.328119     0.424175 
    0.347212     0.379763     0.546373 
    0.469589     0.405135     0.338686 
    0.282790     0.489167     0.505129 
    0.352884     0.445432     0.378353 
    0.325512     0.569661     0.399866 
    0.441438     0.544084     0.332473 
    0.437702     0.629248     0.451848 
    0.324881     0.610566     0.538343 
EA18919 13.958 13.830 11.044 90.00 90.00 90.00 Sym.group:    0
1.0
   13.958334     0.000000     0.000000
    0.000000    13.830215     0.000000
    0.000000     0.000000    11.043688
   B
  25
Direct
    0.614988     0.437457     0.623310 
    0.502101     0.440882     0.675094 
    0.339734     0.509194     0.536928 
    0.460020     0.534181     0.557193 
    0.261061     0.580163     0.464649 
    0.242495     0.468957     0.462285 
    0.499390     0.508796     0.370596 
    0.619803     0.351844     0.459091 
    0.527039     0.282116     0.450961 
    0.408931     0.416852     0.593717 
    0.319241     0.387399     0.489501 
    0.422461     0.331547     0.464333 
    0.518309     0.360428     0.565279 
    0.520594     0.396265     0.378833 
    0.635159     0.637809     0.441399 
    0.643829     0.546631     0.554765 
    0.551845     0.636742     0.569665 
    0.447707     0.710765     0.505609 
    0.703489     0.542426     0.423730 
    0.551014     0.716299     0.451163 
    0.557907     0.545576     0.658744 
    0.698170     0.439947     0.507952 
    0.620528     0.463326     0.384987 
    0.476851     0.617279     0.409774 
    0.357334     0.637115     0.500442 
EA19191 13.399 13.813  8.836 90.00 90.00 90.00 Sym.group:    0
1.0
   13.399059     0.000000     0.000000
    0.000000    13.813183     0.000000
    0.000000     0.000000     8.836235
   B
  24
Direct
    0.305909     0.375793     0.582609 
    0.513971     0.275152     0.582824 
    0.707892     0.399256     0.582839 
    0.694106     0.624177     0.582610 
    0.486000     0.724846     0.582830 
    0.292124     0.600770     0.582831 
    0.725603     0.572733     0.417434 
    0.548015     0.725778     0.417488 
    0.322204     0.653155     0.417592 
    0.274380     0.427292     0.417421 
    0.452017     0.274226     0.417497 
    0.677782     0.346820     0.417580 
    0.725387     0.455699     0.416885 
    0.652288     0.667350     0.416861 
    0.426929     0.711486     0.416964 
    0.274598     0.544275     0.416888 
    0.347698     0.332677     0.416856 
    0.573105     0.288514     0.416969 
    0.605010     0.701913     0.582737 
    0.372264     0.689195     0.582941 
    0.267121     0.487351     0.582827 
    0.395010     0.298080     0.582742 
    0.627715     0.310794     0.582939 
    0.732874     0.512669     0.582836 
EA19609 12.915 12.893 11.415 90.00 90.00 90.00 Sym.group:    0
1.0
   12.914970     0.000000     0.000000
    0.000000    12.893005     0.000000
    0.000000     0.000000    11.414790
   B
  21
Direct
    0.537895     0.514627     0.356111 
    0.429684     0.323999     0.467140 
    0.625419     0.360389     0.567248 
    0.636447     0.583217     0.599733 
    0.441065     0.674749     0.542858 
    0.315999     0.507192     0.458150 
    0.494102     0.376633     0.604760 
    0.567459     0.478147     0.643591 
    0.508653     0.594366     0.631657 
    0.389422     0.561168     0.579859 
    0.380952     0.431451     0.563711 
    0.645836     0.523119     0.432085 
    0.556712     0.407568     0.435571 
    0.432561     0.451181     0.387065 
    0.464611     0.629011     0.374245 
    0.590570     0.633365     0.385912 
    0.685959     0.472470     0.559250 
    0.568618     0.673109     0.529087 
    0.356031     0.628885     0.450818 
    0.326769     0.387012     0.429749 
    0.545234     0.288339     0.501402 
EA19835 13.638 12.553 10.387 90.00 90.00 90.00 Sym.group:    0
1.0
   13.637734     0.000000     0.000000
    0.000000    12.553019     0.000000
    0.000000     0.000000    10.387101
   B
  21
Direct
    0.440145     0.633822     0.466781 
    0.499893     0.562253     0.354429 
    0.684189     0.469533     0.573209 
    0.653901     0.392474     0.443043 
    0.564332     0.313940     0.472111 
    0.612501     0.368968     0.605376 
    0.559941     0.632039     0.464899 
    0.723371     0.497410     0.427863 
    0.681268     0.598907     0.513909 
    0.498815     0.689419     0.602884 
    0.616828     0.674396     0.600556 
    0.357565     0.395927     0.437143 
    0.444522     0.313763     0.465326 
    0.277308     0.496242     0.428297 
    0.383106     0.359615     0.596031 
    0.499883     0.332068     0.608542 
    0.300625     0.448017     0.568216 
    0.385870     0.527216     0.374889 
    0.321056     0.593506     0.518991 
    0.382431     0.675740     0.599651 
    0.612450     0.524745     0.377856 
EA20053 13.045 12.836 11.549 90.00 90.00 90.00 Sym.group:    0
1.0
   13.045108     0.000000     0.000000
    0.000000    12.836099     0.000000
    0.000000     0.000000    11.549349
   B
  21
Direct
    0.674120     0.598444     0.435461 
    0.545706     0.568018     0.404300 
    0.678456     0.475005     0.443673 
    0.455320     0.487551     0.359604 
    0.598048     0.678186     0.485943 
    0.294262     0.584413     0.494464 
    0.413366     0.593733     0.424194 
    0.362201     0.683909     0.517941 
    0.478486     0.700718     0.499394 
    0.385626     0.567370     0.596530 
    0.305380     0.465416     0.517144 
    0.430717     0.270574     0.514621 
    0.437053     0.369161     0.417505 
    0.337483     0.344214     0.509787 
    0.492359     0.536959     0.666253 
    0.543821     0.301080     0.479551 
    0.643332     0.432126     0.589217 
    0.653582     0.356327     0.470403 
    0.558090     0.421632     0.400428 
    0.613004     0.570699     0.579410 
    0.599589     0.494467     0.694177 
EA20230 11.340 11.013 11.067 90.00 90.00 90.00 Sym.group:    0
1.0
   11.339835     0.000000     0.000000
    0.000000    11.013038     0.000000
    0.000000     0.000000    11.067333
   B
  22
Direct
    0.609090     0.360247     0.527759 
    0.597452     0.437152     0.383086 
    0.608625     0.601247     0.399975 
    0.603405     0.626140     0.555379 
    0.602628     0.476354     0.634354 
    0.390952     0.360266     0.527740 
    0.402510     0.437128     0.383055 
    0.391361     0.601242     0.399991 
    0.396637     0.626113     0.555398 
    0.397326     0.476345     0.634371 
    0.500034     0.722856     0.609754 
    0.499984     0.467243     0.745946 
    0.500014     0.252942     0.542599 
    0.499995     0.382957     0.281533 
    0.499980     0.673171     0.318996 
    0.499997     0.359623     0.644137 
    0.499980     0.312454     0.411680 
    0.500013     0.528481     0.295626 
    0.500002     0.697256     0.463171 
    0.500018     0.600359     0.685151 
    0.668942     0.500212     0.500152 
    0.331057     0.500214     0.500147 
EA20517 14.363 12.037 11.622 90.00 90.00 90.00 Sym.group:    0
1.0
   14.362855     0.000000     0.000000
    0.000000    12.036500     0.000000
    0.000000     0.000000    11.622442
   B
  21
Direct
    0.520295     0.726643     0.474111 
    0.467575     0.511683     0.353009 
    0.524723     0.630402     0.376324 
    0.546132     0.657548     0.589625 
    0.361822     0.464721     0.365787 
    0.434220     0.692670     0.560440 
    0.615755     0.640224     0.471106 
    0.576020     0.513101     0.399963 
    0.358362     0.357571     0.506972 
    0.360002     0.593800     0.589277 
    0.456884     0.327839     0.557142 
    0.307089     0.497969     0.517064 
    0.276859     0.408351     0.425626 
    0.421109     0.466191     0.589636 
    0.465300     0.581977     0.645190 
    0.506311     0.414385     0.455819 
    0.567065     0.309222     0.551639 
    0.693610     0.544608     0.497198 
    0.733773     0.427099     0.538846 
    0.677932     0.318283     0.558733 
    0.629161     0.415713     0.476493 
EA20770 13.231 12.893 11.430 90.00 90.00 90.00 Sym.group:    0
1.0
   13.230591     0.000000     0.000000
    0.000000    12.893045     0.000000
    0.000000     0.000000    11.429867
   B
  21
Direct
    0.628929     0.643976     0.438226 
    0.716905     0.570889     0.474985 
    0.518076     0.685709     0.438933 
    0.600917     0.497119     0.438913 
    0.633435     0.497645     0.593928 
    0.538934     0.585996     0.546714 
    0.655684     0.368681     0.525488 
    0.733220     0.456526     0.510160 
    0.524986     0.495435     0.663938 
    0.381736     0.378108     0.383833 
    0.505383     0.417303     0.394225 
    0.460836     0.292892     0.414076 
    0.384329     0.506318     0.370472 
    0.413295     0.629398     0.390949 
    0.306138     0.450381     0.468848 
    0.330429     0.464887     0.608367 
    0.426082     0.661416     0.532428 
    0.344677     0.567728     0.495250 
    0.415277     0.457939     0.704232 
    0.417839     0.568637     0.630856 
    0.562894     0.303017     0.475181 
